LAMMPS (5 Jun 2019)
OMP_NUM_THREADS environment is not set. Defaulting to 1 thread. (src/comm.cpp:88)
  using 1 OpenMP thread(s) per MPI task
#--- Brush Variables---#
variable      f      equal  2
variable      M      equal  $(v_f * 30)                 # The number of polymer chains on each brush
variable      M      equal  60                 
variable      N      string 30                 # The number of beads per chain
variable      xhi    equal  $(sqrt(v_f) * 20)                 # The width of the polymer Brush
variable      xhi    equal  28.284271247461902021                 
variable      yhi    equal  $(sqrt(v_f) * 20)                 # The length of the polymer Brush
variable      yhi    equal  28.284271247461902021                 
variable      wthick equal  3                  # The thickness of the walls wthick=1,2,3,4 gives 2,3,4,6 layers respectively

#--- Simulation Variables ---#
variable       Temp      index 1        #0.8 1 1.68                 #[Grest96]
variable       Tstep     equal 0.005                       # Timestep in Tau (default = 0.005)
variable       Nequil    equal 300000                       # Number of timesteps to equilibrate
variable       Ncomp     equal 700000                     # Number of timesteps to compress - until no more occilation of walls
variable       Nshear    equal 4000000      #2000000                      # Number of timesteps to shear - use approx 4ns for 10m/s
variable       Nthermo   equal 1000                        # Number of timesteps between thermo data prints
variable       Ndump_e   equal 10000
variable       Ndump_c   equal 10000                      # Number of timesteps per dump file (compression)
variable       Ndump_s   equal 10000                       # Number of timesteps per dump file (shear)
variable       Wall_v    index 0.00000005   #0.001 0.01 0.1 0.2 0.4 0.6 0.8 1 1.2 1.4 1.6 1.8 2   # 0.005 0.05 0.1 0.5 1.5 0.001 0.003 0.2 0.0002 2                      # Wall velocity (A/fs) - equal to 10 m/s
variable       Pcomp     index 1 # 0.5 2 0.05 4 8

include        MDPBB.in
# This is an input script that creates a mono disperse polymer brush bilayer
# A coarse grained bead-spring model is used for the polymers which are end
# grafted to the surfaces of 2 opposing FCC walls at random sites.

#--- Initialization ---#

dimension     3
boundary      p p f
units         lj
atom_style    bond


#--- Moved to main.in ---#
#variable      M      equal  50                # The number of polymer chains on each brush
#variable      N      string 80                # The number of beads per chain
#variable      xhi    equal  15                # The width of the polymer Brush
#variable      yhi    equal  20                # The length of the polymer Brush
#variable      wthick equal  3                 # The thickness of the walls wthick=1,2,3,4 gives 2,3,4,6 layers respectively

variable      zhi    equal  $(1.1 * 2 * v_N + (2 * v_wthick))  # The initial height of the simulation box the value is such that no overlaps occur
variable      zhi    equal  72  
variable      z0     equal  $((v_zhi)/4 - (v_N)/30)          # This is the location at which to place the CoM of the molecule
variable      z0     equal  17          

print "The number of grafted chains = $(v_M)"
The number of grafted chains = 60
print "The number of beads per chain = $(v_N)"
The number of beads per chain = 30

variable      check  equal count(all)         # The number of atoms in the system
variable      ntwall equal count(twall)       # The number of atoms in the top wall
variable      nbwall equal count(bwall)       # The number of atoms in the bottom wall
variable      s equal 234897  #45335              # Seed for the RNG

print "zhi = ${zhi}"
zhi = 72

#--- Create the simulation box ---#

region        sbox block 0 ${xhi} 0 ${yhi} 0 ${zhi}
region        sbox block 0 28.2842712474619 0 ${yhi} 0 ${zhi}
region        sbox block 0 28.2842712474619 0 28.2842712474619 0 ${zhi}
region        sbox block 0 28.2842712474619 0 28.2842712474619 0 72
create_box    4 sbox bond/types 3 extra/bond/per/atom 12 extra/special/per/atom 2
Created orthogonal box = (0 0 0) to (28.2843 28.2843 72)
  1 by 1 by 1 MPI processor grid

mass          1 2.0                   # Wall atoms that are not grafted
mass          2 1.0                   # Grafted bead
mass          3 1.0                   # The rest of the beads on the chain
mass          4 2.0                   # Wall atoms that the chains are grafted to

bond_style    hybrid fene harmonic    # Finitely extensible linearly elastic bond between neighbouring beads
#bond_coeff    1 fene 30.0 1.5 0.0 0.0      # Values obtained from literature [Grest, Galushcko]
bond_coeff    1 fene 30.0 30.0 0.0 0.0
bond_coeff    2 fene 30.0 30.0 0.0 0.0       # This is the grafting bond between the polymer and the wall atom
special_bonds fene                    #
  0 = max # of 1-2 neighbors
  5 = max # of special neighbors
  special bonds CPU = 0.0003409 secs
pair_style	  lj/cut 1.122462         # LJ potential with rc=2^1/6
#pair_coeff	  * * 1.0 1.0             # LJ potential acts between all atoms
pair_coeff    1 1 0.0 0.0
pair_coeff    1 2 1.0 1.0
pair_coeff    1 3 1.0 1.0
pair_coeff    2 2 1.0 1.0
pair_coeff    2 3 1.0 1.0
pair_coeff    2 4 1.0 1.0
pair_coeff    3 3 1.0 1.0
pair_coeff    3 4 1.0 1.0
pair_coeff    4 4 0.0 0.0
neighbor      10 bin                  #
neigh_modify  one 4000

#--- Create and read the molecule file ---#
python        BSMolf input 1 $N format i file BSMolf.py
python        BSMolf input 1 30 format i file BSMolf.py
python        BSMolf invoke    # Call the python function with number of beads to write the mol file
molecule      bs     bsmol.txt     # Read the Mol file to define the polymer chain
Read molecule bs:
  30 atoms with max type 2
  29 bonds with max type 1
  0 angles with max type 0
  0 dihedrals with max type 0
  0 impropers with max type 0

#--- Define the FCC wall region ---#
region        wall  block 0 ${xhi} 0 ${yhi} 0 ${wthick}
region        wall  block 0 28.2842712474619 0 ${yhi} 0 ${wthick}
region        wall  block 0 28.2842712474619 0 28.2842712474619 0 ${wthick}
region        wall  block 0 28.2842712474619 0 28.2842712474619 0 3
lattice       fcc 1
Lattice spacing in x,y,z = 1.5874 1.5874 1.5874

#--- Create the Top Brush  (At the bottom then rotate 180 degrees to top) ---#

create_atoms  1 region wall
Created 2592 atoms
  create_atoms CPU = 0.001527 secs
group         twall  region wall
2592 atoms in group twall
#group         tsurf  region wsurf

# A loop to insert the Chains into the sim box
variable      i loop $M                                   # Index to insert N total number of chains
variable      i loop 60                                   
label         loop                                        # Start of loop
variable      randni equal round(random(1,${ntwall},$s))  # Pick a random "top" wall atom
variable      randni equal round(random(1,2592,$s))  
variable      randni equal round(random(1,2592,234897))  
variable      randatomi equal ${randni}                   # This is to obtain an integer number for atom-id
variable      randatomi equal 1628                   
variable      randzi equal z[${randatomi}]                # Determine the z coordinate of the chosen atom
variable      randzi equal z[1628]                
# if the chosen atom is not a surface atom then restart the loop
if            "${randzi} < $(v_wthick - 0.7)" then "jump MDPBB.in loop"
set           atom ${randatomi} type 4                    # Set this grafted wall atom as a new type
set           atom 1628 type 4                    
  1 settings made for type
group         twg id ${randatomi}                         # Add this atom to a top-wall-grafted group
group         twg id 1628                         
1 atoms in group twg
variable      twgcount equal count(twg)
print         "twg contains ${twgcount}"
twg contains 1
print         "i = $(v_i)"                                # The index i should always be equal to the number of atom in twg
i = 1
variable      x0 equal x[${randatomi}]                    # Determine its x-coord
variable      x0 equal x[1628]                    
variable      y0 equal y[${randatomi}]                    # Determine its y-coord
variable      y0 equal y[1628]                    
variable      check0 equal ${check}                       # Count the number of atoms in the simulation
variable      check0 equal 2592                       
variable      b equal ${check}+1                          # The grafted bead id will be one higher after being inserted
variable      b equal 2592+1                          
if            "${twgcount} != $(v_i)" then "jump MDPBB.in loop"
# Otherwise insert the chain directly above the chosen wall atom pointing perpendicular to the wall
create_atoms  1 single ${x0} ${y0} ${z0} mol bs 24987 units box remap yes rotate 0 0 0 1
create_atoms  1 single 15.874010519682 ${y0} ${z0} mol bs 24987 units box remap yes rotate 0 0 0 1
create_atoms  1 single 15.874010519682 7.1433047338569 ${z0} mol bs 24987 units box remap yes rotate 0 0 0 1
create_atoms  1 single 15.874010519682 7.1433047338569 17 mol bs 24987 units box remap yes rotate 0 0 0 1
Created 30 atoms
  create_atoms CPU = 0.0001093 secs
variable      check1 equal ${check}               # Count the new total number of atoms
variable      check1 equal 2622               
# Check that the molecule has indeed been inserted (This check is no longer an issue).
if            "${check1} != ${check0}" then "create_bonds  single/bond 2 ${randatomi} $b" "next i"
create_bonds  single/bond 2 ${randatomi} $b
create_bonds  single/bond 2 1628 $b
create_bonds  single/bond 2 1628 2593
  2 = max # of 1-2 neighbors
  5 = max # of special neighbors
  special bonds CPU = 0.0052526 secs
next i
jump MDPBB.in loop    # End of the loop
variable      randni equal round(random(1,${ntwall},$s))  # Pick a random "top" wall atom
variable      randni equal round(random(1,2592,$s))  
variable      randni equal round(random(1,2592,234897))  
variable      randatomi equal ${randni}                   # This is to obtain an integer number for atom-id
variable      randatomi equal 408                   
variable      randzi equal z[${randatomi}]                # Determine the z coordinate of the chosen atom
variable      randzi equal z[408]                
# if the chosen atom is not a surface atom then restart the loop
if            "${randzi} < $(v_wthick - 0.7)" then "jump MDPBB.in loop"
jump MDPBB.in loop
variable      randni equal round(random(1,${ntwall},$s))  # Pick a random "top" wall atom
variable      randni equal round(random(1,2592,$s))  
variable      randni equal round(random(1,2592,234897))  
variable      randatomi equal ${randni}                   # This is to obtain an integer number for atom-id
variable      randatomi equal 1958                   
variable      randzi equal z[${randatomi}]                # Determine the z coordinate of the chosen atom
variable      randzi equal z[1958]                
# if the chosen atom is not a surface atom then restart the loop
if            "${randzi} < $(v_wthick - 0.7)" then "jump MDPBB.in loop"
jump MDPBB.in loop
variable      randni equal round(random(1,${ntwall},$s))  # Pick a random "top" wall atom
variable      randni equal round(random(1,2592,$s))  
variable      randni equal round(random(1,2592,234897))  
variable      randatomi equal ${randni}                   # This is to obtain an integer number for atom-id
variable      randatomi equal 1976                   
variable      randzi equal z[${randatomi}]                # Determine the z coordinate of the chosen atom
variable      randzi equal z[1976]                
# if the chosen atom is not a surface atom then restart the loop
if            "${randzi} < $(v_wthick - 0.7)" then "jump MDPBB.in loop"
set           atom ${randatomi} type 4                    # Set this grafted wall atom as a new type
set           atom 1976 type 4                    
  1 settings made for type
group         twg id ${randatomi}                         # Add this atom to a top-wall-grafted group
group         twg id 1976                         
2 atoms in group twg
variable      twgcount equal count(twg)
print         "twg contains ${twgcount}"
twg contains 2
print         "i = $(v_i)"                                # The index i should always be equal to the number of atom in twg
i = 2
variable      x0 equal x[${randatomi}]                    # Determine its x-coord
variable      x0 equal x[1976]                    
variable      y0 equal y[${randatomi}]                    # Determine its y-coord
variable      y0 equal y[1976]                    
variable      check0 equal ${check}                       # Count the number of atoms in the simulation
variable      check0 equal 2622                       
variable      b equal ${check}+1                          # The grafted bead id will be one higher after being inserted
variable      b equal 2622+1                          
if            "${twgcount} != $(v_i)" then "jump MDPBB.in loop"
# Otherwise insert the chain directly above the chosen wall atom pointing perpendicular to the wall
create_atoms  1 single ${x0} ${y0} ${z0} mol bs 24987 units box remap yes rotate 0 0 0 1
create_atoms  1 single 11.1118073637774 ${y0} ${z0} mol bs 24987 units box remap yes rotate 0 0 0 1
create_atoms  1 single 11.1118073637774 15.0803099936979 ${z0} mol bs 24987 units box remap yes rotate 0 0 0 1
create_atoms  1 single 11.1118073637774 15.0803099936979 17 mol bs 24987 units box remap yes rotate 0 0 0 1
Created 30 atoms
  create_atoms CPU = 9.41e-05 secs
variable      check1 equal ${check}               # Count the new total number of atoms
variable      check1 equal 2652               
# Check that the molecule has indeed been inserted (This check is no longer an issue).
if            "${check1} != ${check0}" then "create_bonds  single/bond 2 ${randatomi} $b" "next i"
create_bonds  single/bond 2 ${randatomi} $b
create_bonds  single/bond 2 1976 $b
create_bonds  single/bond 2 1976 2623
  2 = max # of 1-2 neighbors
  5 = max # of special neighbors
  special bonds CPU = 0.0024444 secs
next i
jump MDPBB.in loop    # End of the loop
variable      randni equal round(random(1,${ntwall},$s))  # Pick a random "top" wall atom
variable      randni equal round(random(1,2592,$s))  
variable      randni equal round(random(1,2592,234897))  
variable      randatomi equal ${randni}                   # This is to obtain an integer number for atom-id
variable      randatomi equal 1883                   
variable      randzi equal z[${randatomi}]                # Determine the z coordinate of the chosen atom
variable      randzi equal z[1883]                
# if the chosen atom is not a surface atom then restart the loop
if            "${randzi} < $(v_wthick - 0.7)" then "jump MDPBB.in loop"
set           atom ${randatomi} type 4                    # Set this grafted wall atom as a new type
set           atom 1883 type 4                    
  1 settings made for type
group         twg id ${randatomi}                         # Add this atom to a top-wall-grafted group
group         twg id 1883                         
3 atoms in group twg
variable      twgcount equal count(twg)
print         "twg contains ${twgcount}"
twg contains 3
print         "i = $(v_i)"                                # The index i should always be equal to the number of atom in twg
i = 3
variable      x0 equal x[${randatomi}]                    # Determine its x-coord
variable      x0 equal x[1883]                    
variable      y0 equal y[${randatomi}]                    # Determine its y-coord
variable      y0 equal y[1883]                    
variable      check0 equal ${check}                       # Count the number of atoms in the simulation
variable      check0 equal 2652                       
variable      b equal ${check}+1                          # The grafted bead id will be one higher after being inserted
variable      b equal 2652+1                          
if            "${twgcount} != $(v_i)" then "jump MDPBB.in loop"
# Otherwise insert the chain directly above the chosen wall atom pointing perpendicular to the wall
create_atoms  1 single ${x0} ${y0} ${z0} mol bs 24987 units box remap yes rotate 0 0 0 1
create_atoms  1 single 3.9685026299205 ${y0} ${z0} mol bs 24987 units box remap yes rotate 0 0 0 1
create_atoms  1 single 3.9685026299205 12.6992084157456 ${z0} mol bs 24987 units box remap yes rotate 0 0 0 1
create_atoms  1 single 3.9685026299205 12.6992084157456 17 mol bs 24987 units box remap yes rotate 0 0 0 1
Created 30 atoms
  create_atoms CPU = 0.0001221 secs
variable      check1 equal ${check}               # Count the new total number of atoms
variable      check1 equal 2682               
# Check that the molecule has indeed been inserted (This check is no longer an issue).
if            "${check1} != ${check0}" then "create_bonds  single/bond 2 ${randatomi} $b" "next i"
create_bonds  single/bond 2 ${randatomi} $b
create_bonds  single/bond 2 1883 $b
create_bonds  single/bond 2 1883 2653
  2 = max # of 1-2 neighbors
  5 = max # of special neighbors
  special bonds CPU = 0.0026872 secs
next i
jump MDPBB.in loop    # End of the loop
variable      randni equal round(random(1,${ntwall},$s))  # Pick a random "top" wall atom
variable      randni equal round(random(1,2592,$s))  
variable      randni equal round(random(1,2592,234897))  
variable      randatomi equal ${randni}                   # This is to obtain an integer number for atom-id
variable      randatomi equal 2554                   
variable      randzi equal z[${randatomi}]                # Determine the z coordinate of the chosen atom
variable      randzi equal z[2554]                
# if the chosen atom is not a surface atom then restart the loop
if            "${randzi} < $(v_wthick - 0.7)" then "jump MDPBB.in loop"
jump MDPBB.in loop
variable      randni equal round(random(1,${ntwall},$s))  # Pick a random "top" wall atom
variable      randni equal round(random(1,2592,$s))  
variable      randni equal round(random(1,2592,234897))  
variable      randatomi equal ${randni}                   # This is to obtain an integer number for atom-id
variable      randatomi equal 1232                   
variable      randzi equal z[${randatomi}]                # Determine the z coordinate of the chosen atom
variable      randzi equal z[1232]                
# if the chosen atom is not a surface atom then restart the loop
if            "${randzi} < $(v_wthick - 0.7)" then "jump MDPBB.in loop"
jump MDPBB.in loop
variable      randni equal round(random(1,${ntwall},$s))  # Pick a random "top" wall atom
variable      randni equal round(random(1,2592,$s))  
variable      randni equal round(random(1,2592,234897))  
variable      randatomi equal ${randni}                   # This is to obtain an integer number for atom-id
variable      randatomi equal 869                   
variable      randzi equal z[${randatomi}]                # Determine the z coordinate of the chosen atom
variable      randzi equal z[869]                
# if the chosen atom is not a surface atom then restart the loop
if            "${randzi} < $(v_wthick - 0.7)" then "jump MDPBB.in loop"
jump MDPBB.in loop
variable      randni equal round(random(1,${ntwall},$s))  # Pick a random "top" wall atom
variable      randni equal round(random(1,2592,$s))  
variable      randni equal round(random(1,2592,234897))  
variable      randatomi equal ${randni}                   # This is to obtain an integer number for atom-id
variable      randatomi equal 1122                   
variable      randzi equal z[${randatomi}]                # Determine the z coordinate of the chosen atom
variable      randzi equal z[1122]                
# if the chosen atom is not a surface atom then restart the loop
if            "${randzi} < $(v_wthick - 0.7)" then "jump MDPBB.in loop"
jump MDPBB.in loop
variable      randni equal round(random(1,${ntwall},$s))  # Pick a random "top" wall atom
variable      randni equal round(random(1,2592,$s))  
variable      randni equal round(random(1,2592,234897))  
variable      randatomi equal ${randni}                   # This is to obtain an integer number for atom-id
variable      randatomi equal 1876                   
variable      randzi equal z[${randatomi}]                # Determine the z coordinate of the chosen atom
variable      randzi equal z[1876]                
# if the chosen atom is not a surface atom then restart the loop
if            "${randzi} < $(v_wthick - 0.7)" then "jump MDPBB.in loop"
set           atom ${randatomi} type 4                    # Set this grafted wall atom as a new type
set           atom 1876 type 4                    
  1 settings made for type
group         twg id ${randatomi}                         # Add this atom to a top-wall-grafted group
group         twg id 1876                         
4 atoms in group twg
variable      twgcount equal count(twg)
print         "twg contains ${twgcount}"
twg contains 4
print         "i = $(v_i)"                                # The index i should always be equal to the number of atom in twg
i = 4
variable      x0 equal x[${randatomi}]                    # Determine its x-coord
variable      x0 equal x[1876]                    
variable      y0 equal y[${randatomi}]                    # Determine its y-coord
variable      y0 equal y[1876]                    
variable      check0 equal ${check}                       # Count the number of atoms in the simulation
variable      check0 equal 2682                       
variable      b equal ${check}+1                          # The grafted bead id will be one higher after being inserted
variable      b equal 2682+1                          
if            "${twgcount} != $(v_i)" then "jump MDPBB.in loop"
# Otherwise insert the chain directly above the chosen wall atom pointing perpendicular to the wall
create_atoms  1 single ${x0} ${y0} ${z0} mol bs 24987 units box remap yes rotate 0 0 0 1
create_atoms  1 single 0 ${y0} ${z0} mol bs 24987 units box remap yes rotate 0 0 0 1
create_atoms  1 single 0 13.4929089417297 ${z0} mol bs 24987 units box remap yes rotate 0 0 0 1
create_atoms  1 single 0 13.4929089417297 17 mol bs 24987 units box remap yes rotate 0 0 0 1
Created 30 atoms
  create_atoms CPU = 7.08e-05 secs
variable      check1 equal ${check}               # Count the new total number of atoms
variable      check1 equal 2712               
# Check that the molecule has indeed been inserted (This check is no longer an issue).
if            "${check1} != ${check0}" then "create_bonds  single/bond 2 ${randatomi} $b" "next i"
create_bonds  single/bond 2 ${randatomi} $b
create_bonds  single/bond 2 1876 $b
create_bonds  single/bond 2 1876 2683
  2 = max # of 1-2 neighbors
  5 = max # of special neighbors
  special bonds CPU = 0.002646 secs
next i
jump MDPBB.in loop    # End of the loop
variable      randni equal round(random(1,${ntwall},$s))  # Pick a random "top" wall atom
variable      randni equal round(random(1,2592,$s))  
variable      randni equal round(random(1,2592,234897))  
variable      randatomi equal ${randni}                   # This is to obtain an integer number for atom-id
variable      randatomi equal 2321                   
variable      randzi equal z[${randatomi}]                # Determine the z coordinate of the chosen atom
variable      randzi equal z[2321]                
# if the chosen atom is not a surface atom then restart the loop
if            "${randzi} < $(v_wthick - 0.7)" then "jump MDPBB.in loop"
jump MDPBB.in loop
variable      randni equal round(random(1,${ntwall},$s))  # Pick a random "top" wall atom
variable      randni equal round(random(1,2592,$s))  
variable      randni equal round(random(1,2592,234897))  
variable      randatomi equal ${randni}                   # This is to obtain an integer number for atom-id
variable      randatomi equal 19                   
variable      randzi equal z[${randatomi}]                # Determine the z coordinate of the chosen atom
variable      randzi equal z[19]                
# if the chosen atom is not a surface atom then restart the loop
if            "${randzi} < $(v_wthick - 0.7)" then "jump MDPBB.in loop"
jump MDPBB.in loop
variable      randni equal round(random(1,${ntwall},$s))  # Pick a random "top" wall atom
variable      randni equal round(random(1,2592,$s))  
variable      randni equal round(random(1,2592,234897))  
variable      randatomi equal ${randni}                   # This is to obtain an integer number for atom-id
variable      randatomi equal 494                   
variable      randzi equal z[${randatomi}]                # Determine the z coordinate of the chosen atom
variable      randzi equal z[494]                
# if the chosen atom is not a surface atom then restart the loop
if            "${randzi} < $(v_wthick - 0.7)" then "jump MDPBB.in loop"
jump MDPBB.in loop
variable      randni equal round(random(1,${ntwall},$s))  # Pick a random "top" wall atom
variable      randni equal round(random(1,2592,$s))  
variable      randni equal round(random(1,2592,234897))  
variable      randatomi equal ${randni}                   # This is to obtain an integer number for atom-id
variable      randatomi equal 847                   
variable      randzi equal z[${randatomi}]                # Determine the z coordinate of the chosen atom
variable      randzi equal z[847]                
# if the chosen atom is not a surface atom then restart the loop
if            "${randzi} < $(v_wthick - 0.7)" then "jump MDPBB.in loop"
jump MDPBB.in loop
variable      randni equal round(random(1,${ntwall},$s))  # Pick a random "top" wall atom
variable      randni equal round(random(1,2592,$s))  
variable      randni equal round(random(1,2592,234897))  
variable      randatomi equal ${randni}                   # This is to obtain an integer number for atom-id
variable      randatomi equal 2100                   
variable      randzi equal z[${randatomi}]                # Determine the z coordinate of the chosen atom
variable      randzi equal z[2100]                
# if the chosen atom is not a surface atom then restart the loop
if            "${randzi} < $(v_wthick - 0.7)" then "jump MDPBB.in loop"
set           atom ${randatomi} type 4                    # Set this grafted wall atom as a new type
set           atom 2100 type 4                    
  1 settings made for type
group         twg id ${randatomi}                         # Add this atom to a top-wall-grafted group
group         twg id 2100                         
5 atoms in group twg
variable      twgcount equal count(twg)
print         "twg contains ${twgcount}"
twg contains 5
print         "i = $(v_i)"                                # The index i should always be equal to the number of atom in twg
i = 5
variable      x0 equal x[${randatomi}]                    # Determine its x-coord
variable      x0 equal x[2100]                    
variable      y0 equal y[${randatomi}]                    # Determine its y-coord
variable      y0 equal y[2100]                    
variable      check0 equal ${check}                       # Count the number of atoms in the simulation
variable      check0 equal 2712                       
variable      b equal ${check}+1                          # The grafted bead id will be one higher after being inserted
variable      b equal 2712+1                          
if            "${twgcount} != $(v_i)" then "jump MDPBB.in loop"
# Otherwise insert the chain directly above the chosen wall atom pointing perpendicular to the wall
create_atoms  1 single ${x0} ${y0} ${z0} mol bs 24987 units box remap yes rotate 0 0 0 1
create_atoms  1 single 3.1748021039364 ${y0} ${z0} mol bs 24987 units box remap yes rotate 0 0 0 1
create_atoms  1 single 3.1748021039364 18.2551120976343 ${z0} mol bs 24987 units box remap yes rotate 0 0 0 1
create_atoms  1 single 3.1748021039364 18.2551120976343 17 mol bs 24987 units box remap yes rotate 0 0 0 1
Created 30 atoms
  create_atoms CPU = 0.0001408 secs
variable      check1 equal ${check}               # Count the new total number of atoms
variable      check1 equal 2742               
# Check that the molecule has indeed been inserted (This check is no longer an issue).
if            "${check1} != ${check0}" then "create_bonds  single/bond 2 ${randatomi} $b" "next i"
create_bonds  single/bond 2 ${randatomi} $b
create_bonds  single/bond 2 2100 $b
create_bonds  single/bond 2 2100 2713
  2 = max # of 1-2 neighbors
  5 = max # of special neighbors
  special bonds CPU = 0.0037233 secs
next i
jump MDPBB.in loop    # End of the loop
variable      randni equal round(random(1,${ntwall},$s))  # Pick a random "top" wall atom
variable      randni equal round(random(1,2592,$s))  
variable      randni equal round(random(1,2592,234897))  
variable      randatomi equal ${randni}                   # This is to obtain an integer number for atom-id
variable      randatomi equal 1839                   
variable      randzi equal z[${randatomi}]                # Determine the z coordinate of the chosen atom
variable      randzi equal z[1839]                
# if the chosen atom is not a surface atom then restart the loop
if            "${randzi} < $(v_wthick - 0.7)" then "jump MDPBB.in loop"
set           atom ${randatomi} type 4                    # Set this grafted wall atom as a new type
set           atom 1839 type 4                    
  1 settings made for type
group         twg id ${randatomi}                         # Add this atom to a top-wall-grafted group
group         twg id 1839                         
6 atoms in group twg
variable      twgcount equal count(twg)
print         "twg contains ${twgcount}"
twg contains 6
print         "i = $(v_i)"                                # The index i should always be equal to the number of atom in twg
i = 6
variable      x0 equal x[${randatomi}]                    # Determine its x-coord
variable      x0 equal x[1839]                    
variable      y0 equal y[${randatomi}]                    # Determine its y-coord
variable      y0 equal y[1839]                    
variable      check0 equal ${check}                       # Count the number of atoms in the simulation
variable      check0 equal 2742                       
variable      b equal ${check}+1                          # The grafted bead id will be one higher after being inserted
variable      b equal 2742+1                          
if            "${twgcount} != $(v_i)" then "jump MDPBB.in loop"
# Otherwise insert the chain directly above the chosen wall atom pointing perpendicular to the wall
create_atoms  1 single ${x0} ${y0} ${z0} mol bs 24987 units box remap yes rotate 0 0 0 1
create_atoms  1 single 15.0803099936979 ${y0} ${z0} mol bs 24987 units box remap yes rotate 0 0 0 1
create_atoms  1 single 15.0803099936979 11.1118073637774 ${z0} mol bs 24987 units box remap yes rotate 0 0 0 1
create_atoms  1 single 15.0803099936979 11.1118073637774 17 mol bs 24987 units box remap yes rotate 0 0 0 1
Created 30 atoms
  create_atoms CPU = 6.89e-05 secs
variable      check1 equal ${check}               # Count the new total number of atoms
variable      check1 equal 2772               
# Check that the molecule has indeed been inserted (This check is no longer an issue).
if            "${check1} != ${check0}" then "create_bonds  single/bond 2 ${randatomi} $b" "next i"
create_bonds  single/bond 2 ${randatomi} $b
create_bonds  single/bond 2 1839 $b
create_bonds  single/bond 2 1839 2743
  2 = max # of 1-2 neighbors
  5 = max # of special neighbors
  special bonds CPU = 0.0035484 secs
next i
jump MDPBB.in loop    # End of the loop
variable      randni equal round(random(1,${ntwall},$s))  # Pick a random "top" wall atom
variable      randni equal round(random(1,2592,$s))  
variable      randni equal round(random(1,2592,234897))  
variable      randatomi equal ${randni}                   # This is to obtain an integer number for atom-id
variable      randatomi equal 1785                   
variable      randzi equal z[${randatomi}]                # Determine the z coordinate of the chosen atom
variable      randzi equal z[1785]                
# if the chosen atom is not a surface atom then restart the loop
if            "${randzi} < $(v_wthick - 0.7)" then "jump MDPBB.in loop"
jump MDPBB.in loop
variable      randni equal round(random(1,${ntwall},$s))  # Pick a random "top" wall atom
variable      randni equal round(random(1,2592,$s))  
variable      randni equal round(random(1,2592,234897))  
variable      randatomi equal ${randni}                   # This is to obtain an integer number for atom-id
variable      randatomi equal 1448                   
variable      randzi equal z[${randatomi}]                # Determine the z coordinate of the chosen atom
variable      randzi equal z[1448]                
# if the chosen atom is not a surface atom then restart the loop
if            "${randzi} < $(v_wthick - 0.7)" then "jump MDPBB.in loop"
set           atom ${randatomi} type 4                    # Set this grafted wall atom as a new type
set           atom 1448 type 4                    
  1 settings made for type
group         twg id ${randatomi}                         # Add this atom to a top-wall-grafted group
group         twg id 1448                         
7 atoms in group twg
variable      twgcount equal count(twg)
print         "twg contains ${twgcount}"
twg contains 7
print         "i = $(v_i)"                                # The index i should always be equal to the number of atom in twg
i = 7
variable      x0 equal x[${randatomi}]                    # Determine its x-coord
variable      x0 equal x[1448]                    
variable      y0 equal y[${randatomi}]                    # Determine its y-coord
variable      y0 equal y[1448]                    
variable      check0 equal ${check}                       # Count the number of atoms in the simulation
variable      check0 equal 2772                       
variable      b equal ${check}+1                          # The grafted bead id will be one higher after being inserted
variable      b equal 2772+1                          
if            "${twgcount} != $(v_i)" then "jump MDPBB.in loop"
# Otherwise insert the chain directly above the chosen wall atom pointing perpendicular to the wall
create_atoms  1 single ${x0} ${y0} ${z0} mol bs 24987 units box remap yes rotate 0 0 0 1
create_atoms  1 single 1.5874010519682 ${y0} ${z0} mol bs 24987 units box remap yes rotate 0 0 0 1
create_atoms  1 single 1.5874010519682 3.9685026299205 ${z0} mol bs 24987 units box remap yes rotate 0 0 0 1
create_atoms  1 single 1.5874010519682 3.9685026299205 17 mol bs 24987 units box remap yes rotate 0 0 0 1
Created 30 atoms
  create_atoms CPU = 7.94e-05 secs
variable      check1 equal ${check}               # Count the new total number of atoms
variable      check1 equal 2802               
# Check that the molecule has indeed been inserted (This check is no longer an issue).
if            "${check1} != ${check0}" then "create_bonds  single/bond 2 ${randatomi} $b" "next i"
create_bonds  single/bond 2 ${randatomi} $b
create_bonds  single/bond 2 1448 $b
create_bonds  single/bond 2 1448 2773
  2 = max # of 1-2 neighbors
  5 = max # of special neighbors
  special bonds CPU = 0.0025633 secs
next i
jump MDPBB.in loop    # End of the loop
variable      randni equal round(random(1,${ntwall},$s))  # Pick a random "top" wall atom
variable      randni equal round(random(1,2592,$s))  
variable      randni equal round(random(1,2592,234897))  
variable      randatomi equal ${randni}                   # This is to obtain an integer number for atom-id
variable      randatomi equal 2019                   
variable      randzi equal z[${randatomi}]                # Determine the z coordinate of the chosen atom
variable      randzi equal z[2019]                
# if the chosen atom is not a surface atom then restart the loop
if            "${randzi} < $(v_wthick - 0.7)" then "jump MDPBB.in loop"
set           atom ${randatomi} type 4                    # Set this grafted wall atom as a new type
set           atom 2019 type 4                    
  1 settings made for type
group         twg id ${randatomi}                         # Add this atom to a top-wall-grafted group
group         twg id 2019                         
8 atoms in group twg
variable      twgcount equal count(twg)
print         "twg contains ${twgcount}"
twg contains 8
print         "i = $(v_i)"                                # The index i should always be equal to the number of atom in twg
i = 8
variable      x0 equal x[${randatomi}]                    # Determine its x-coord
variable      x0 equal x[2019]                    
variable      y0 equal y[${randatomi}]                    # Determine its y-coord
variable      y0 equal y[2019]                    
variable      check0 equal ${check}                       # Count the number of atoms in the simulation
variable      check0 equal 2802                       
variable      b equal ${check}+1                          # The grafted bead id will be one higher after being inserted
variable      b equal 2802+1                          
if            "${twgcount} != $(v_i)" then "jump MDPBB.in loop"
# Otherwise insert the chain directly above the chosen wall atom pointing perpendicular to the wall
create_atoms  1 single ${x0} ${y0} ${z0} mol bs 24987 units box remap yes rotate 0 0 0 1
create_atoms  1 single 0.7937005259841 ${y0} ${z0} mol bs 24987 units box remap yes rotate 0 0 0 1
create_atoms  1 single 0.7937005259841 15.874010519682 ${z0} mol bs 24987 units box remap yes rotate 0 0 0 1
create_atoms  1 single 0.7937005259841 15.874010519682 17 mol bs 24987 units box remap yes rotate 0 0 0 1
Created 30 atoms
  create_atoms CPU = 0.000112 secs
variable      check1 equal ${check}               # Count the new total number of atoms
variable      check1 equal 2832               
# Check that the molecule has indeed been inserted (This check is no longer an issue).
if            "${check1} != ${check0}" then "create_bonds  single/bond 2 ${randatomi} $b" "next i"
create_bonds  single/bond 2 ${randatomi} $b
create_bonds  single/bond 2 2019 $b
create_bonds  single/bond 2 2019 2803
  2 = max # of 1-2 neighbors
  5 = max # of special neighbors
  special bonds CPU = 0.0037589 secs
next i
jump MDPBB.in loop    # End of the loop
variable      randni equal round(random(1,${ntwall},$s))  # Pick a random "top" wall atom
variable      randni equal round(random(1,2592,$s))  
variable      randni equal round(random(1,2592,234897))  
variable      randatomi equal ${randni}                   # This is to obtain an integer number for atom-id
variable      randatomi equal 1595                   
variable      randzi equal z[${randatomi}]                # Determine the z coordinate of the chosen atom
variable      randzi equal z[1595]                
# if the chosen atom is not a surface atom then restart the loop
if            "${randzi} < $(v_wthick - 0.7)" then "jump MDPBB.in loop"
set           atom ${randatomi} type 4                    # Set this grafted wall atom as a new type
set           atom 1595 type 4                    
  1 settings made for type
group         twg id ${randatomi}                         # Add this atom to a top-wall-grafted group
group         twg id 1595                         
9 atoms in group twg
variable      twgcount equal count(twg)
print         "twg contains ${twgcount}"
twg contains 9
print         "i = $(v_i)"                                # The index i should always be equal to the number of atom in twg
i = 9
variable      x0 equal x[${randatomi}]                    # Determine its x-coord
variable      x0 equal x[1595]                    
variable      y0 equal y[${randatomi}]                    # Determine its y-coord
variable      y0 equal y[1595]                    
variable      check0 equal ${check}                       # Count the number of atoms in the simulation
variable      check0 equal 2832                       
variable      b equal ${check}+1                          # The grafted bead id will be one higher after being inserted
variable      b equal 2832+1                          
if            "${twgcount} != $(v_i)" then "jump MDPBB.in loop"
# Otherwise insert the chain directly above the chosen wall atom pointing perpendicular to the wall
create_atoms  1 single ${x0} ${y0} ${z0} mol bs 24987 units box remap yes rotate 0 0 0 1
create_atoms  1 single 3.9685026299205 ${y0} ${z0} mol bs 24987 units box remap yes rotate 0 0 0 1
create_atoms  1 single 3.9685026299205 6.3496042078728 ${z0} mol bs 24987 units box remap yes rotate 0 0 0 1
create_atoms  1 single 3.9685026299205 6.3496042078728 17 mol bs 24987 units box remap yes rotate 0 0 0 1
Created 30 atoms
  create_atoms CPU = 0.0001029 secs
variable      check1 equal ${check}               # Count the new total number of atoms
variable      check1 equal 2862               
# Check that the molecule has indeed been inserted (This check is no longer an issue).
if            "${check1} != ${check0}" then "create_bonds  single/bond 2 ${randatomi} $b" "next i"
create_bonds  single/bond 2 ${randatomi} $b
create_bonds  single/bond 2 1595 $b
create_bonds  single/bond 2 1595 2833
  2 = max # of 1-2 neighbors
  5 = max # of special neighbors
  special bonds CPU = 0.0031593 secs
next i
jump MDPBB.in loop    # End of the loop
variable      randni equal round(random(1,${ntwall},$s))  # Pick a random "top" wall atom
variable      randni equal round(random(1,2592,$s))  
variable      randni equal round(random(1,2592,234897))  
variable      randatomi equal ${randni}                   # This is to obtain an integer number for atom-id
variable      randatomi equal 1606                   
variable      randzi equal z[${randatomi}]                # Determine the z coordinate of the chosen atom
variable      randzi equal z[1606]                
# if the chosen atom is not a surface atom then restart the loop
if            "${randzi} < $(v_wthick - 0.7)" then "jump MDPBB.in loop"
jump MDPBB.in loop
variable      randni equal round(random(1,${ntwall},$s))  # Pick a random "top" wall atom
variable      randni equal round(random(1,2592,$s))  
variable      randni equal round(random(1,2592,234897))  
variable      randatomi equal ${randni}                   # This is to obtain an integer number for atom-id
variable      randatomi equal 311                   
variable      randzi equal z[${randatomi}]                # Determine the z coordinate of the chosen atom
variable      randzi equal z[311]                
# if the chosen atom is not a surface atom then restart the loop
if            "${randzi} < $(v_wthick - 0.7)" then "jump MDPBB.in loop"
jump MDPBB.in loop
variable      randni equal round(random(1,${ntwall},$s))  # Pick a random "top" wall atom
variable      randni equal round(random(1,2592,$s))  
variable      randni equal round(random(1,2592,234897))  
variable      randatomi equal ${randni}                   # This is to obtain an integer number for atom-id
variable      randatomi equal 2257                   
variable      randzi equal z[${randatomi}]                # Determine the z coordinate of the chosen atom
variable      randzi equal z[2257]                
# if the chosen atom is not a surface atom then restart the loop
if            "${randzi} < $(v_wthick - 0.7)" then "jump MDPBB.in loop"
jump MDPBB.in loop
variable      randni equal round(random(1,${ntwall},$s))  # Pick a random "top" wall atom
variable      randni equal round(random(1,2592,$s))  
variable      randni equal round(random(1,2592,234897))  
variable      randatomi equal ${randni}                   # This is to obtain an integer number for atom-id
variable      randatomi equal 1560                   
variable      randzi equal z[${randatomi}]                # Determine the z coordinate of the chosen atom
variable      randzi equal z[1560]                
# if the chosen atom is not a surface atom then restart the loop
if            "${randzi} < $(v_wthick - 0.7)" then "jump MDPBB.in loop"
set           atom ${randatomi} type 4                    # Set this grafted wall atom as a new type
set           atom 1560 type 4                    
  1 settings made for type
group         twg id ${randatomi}                         # Add this atom to a top-wall-grafted group
group         twg id 1560                         
10 atoms in group twg
variable      twgcount equal count(twg)
print         "twg contains ${twgcount}"
twg contains 10
print         "i = $(v_i)"                                # The index i should always be equal to the number of atom in twg
i = 10
variable      x0 equal x[${randatomi}]                    # Determine its x-coord
variable      x0 equal x[1560]                    
variable      y0 equal y[${randatomi}]                    # Determine its y-coord
variable      y0 equal y[1560]                    
variable      check0 equal ${check}                       # Count the number of atoms in the simulation
variable      check0 equal 2862                       
variable      b equal ${check}+1                          # The grafted bead id will be one higher after being inserted
variable      b equal 2862+1                          
if            "${twgcount} != $(v_i)" then "jump MDPBB.in loop"
# Otherwise insert the chain directly above the chosen wall atom pointing perpendicular to the wall
create_atoms  1 single ${x0} ${y0} ${z0} mol bs 24987 units box remap yes rotate 0 0 0 1
create_atoms  1 single 17.4614115716502 ${y0} ${z0} mol bs 24987 units box remap yes rotate 0 0 0 1
create_atoms  1 single 17.4614115716502 5.5559036818887 ${z0} mol bs 24987 units box remap yes rotate 0 0 0 1
create_atoms  1 single 17.4614115716502 5.5559036818887 17 mol bs 24987 units box remap yes rotate 0 0 0 1
Created 30 atoms
  create_atoms CPU = 0.0001164 secs
variable      check1 equal ${check}               # Count the new total number of atoms
variable      check1 equal 2892               
# Check that the molecule has indeed been inserted (This check is no longer an issue).
if            "${check1} != ${check0}" then "create_bonds  single/bond 2 ${randatomi} $b" "next i"
create_bonds  single/bond 2 ${randatomi} $b
create_bonds  single/bond 2 1560 $b
create_bonds  single/bond 2 1560 2863
  2 = max # of 1-2 neighbors
  5 = max # of special neighbors
  special bonds CPU = 0.0083329 secs
next i
jump MDPBB.in loop    # End of the loop
variable      randni equal round(random(1,${ntwall},$s))  # Pick a random "top" wall atom
variable      randni equal round(random(1,2592,$s))  
variable      randni equal round(random(1,2592,234897))  
variable      randatomi equal ${randni}                   # This is to obtain an integer number for atom-id
variable      randatomi equal 2382                   
variable      randzi equal z[${randatomi}]                # Determine the z coordinate of the chosen atom
variable      randzi equal z[2382]                
# if the chosen atom is not a surface atom then restart the loop
if            "${randzi} < $(v_wthick - 0.7)" then "jump MDPBB.in loop"
jump MDPBB.in loop
variable      randni equal round(random(1,${ntwall},$s))  # Pick a random "top" wall atom
variable      randni equal round(random(1,2592,$s))  
variable      randni equal round(random(1,2592,234897))  
variable      randatomi equal ${randni}                   # This is to obtain an integer number for atom-id
variable      randatomi equal 1806                   
variable      randzi equal z[${randatomi}]                # Determine the z coordinate of the chosen atom
variable      randzi equal z[1806]                
# if the chosen atom is not a surface atom then restart the loop
if            "${randzi} < $(v_wthick - 0.7)" then "jump MDPBB.in loop"
jump MDPBB.in loop
variable      randni equal round(random(1,${ntwall},$s))  # Pick a random "top" wall atom
variable      randni equal round(random(1,2592,$s))  
variable      randni equal round(random(1,2592,234897))  
variable      randatomi equal ${randni}                   # This is to obtain an integer number for atom-id
variable      randatomi equal 2327                   
variable      randzi equal z[${randatomi}]                # Determine the z coordinate of the chosen atom
variable      randzi equal z[2327]                
# if the chosen atom is not a surface atom then restart the loop
if            "${randzi} < $(v_wthick - 0.7)" then "jump MDPBB.in loop"
set           atom ${randatomi} type 4                    # Set this grafted wall atom as a new type
set           atom 2327 type 4                    
  1 settings made for type
group         twg id ${randatomi}                         # Add this atom to a top-wall-grafted group
group         twg id 2327                         
11 atoms in group twg
variable      twgcount equal count(twg)
print         "twg contains ${twgcount}"
twg contains 11
print         "i = $(v_i)"                                # The index i should always be equal to the number of atom in twg
i = 11
variable      x0 equal x[${randatomi}]                    # Determine its x-coord
variable      x0 equal x[2327]                    
variable      y0 equal y[${randatomi}]                    # Determine its y-coord
variable      y0 equal y[2327]                    
variable      check0 equal ${check}                       # Count the number of atoms in the simulation
variable      check0 equal 2892                       
variable      b equal ${check}+1                          # The grafted bead id will be one higher after being inserted
variable      b equal 2892+1                          
if            "${twgcount} != $(v_i)" then "jump MDPBB.in loop"
# Otherwise insert the chain directly above the chosen wall atom pointing perpendicular to the wall
create_atoms  1 single ${x0} ${y0} ${z0} mol bs 24987 units box remap yes rotate 0 0 0 1
create_atoms  1 single 8.7307057858251 ${y0} ${z0} mol bs 24987 units box remap yes rotate 0 0 0 1
create_atoms  1 single 8.7307057858251 22.2236147275548 ${z0} mol bs 24987 units box remap yes rotate 0 0 0 1
create_atoms  1 single 8.7307057858251 22.2236147275548 17 mol bs 24987 units box remap yes rotate 0 0 0 1
Created 30 atoms
  create_atoms CPU = 0.0001034 secs
variable      check1 equal ${check}               # Count the new total number of atoms
variable      check1 equal 2922               
# Check that the molecule has indeed been inserted (This check is no longer an issue).
if            "${check1} != ${check0}" then "create_bonds  single/bond 2 ${randatomi} $b" "next i"
create_bonds  single/bond 2 ${randatomi} $b
create_bonds  single/bond 2 2327 $b
create_bonds  single/bond 2 2327 2893
  2 = max # of 1-2 neighbors
  5 = max # of special neighbors
  special bonds CPU = 0.0074007 secs
next i
jump MDPBB.in loop    # End of the loop
variable      randni equal round(random(1,${ntwall},$s))  # Pick a random "top" wall atom
variable      randni equal round(random(1,2592,$s))  
variable      randni equal round(random(1,2592,234897))  
variable      randatomi equal ${randni}                   # This is to obtain an integer number for atom-id
variable      randatomi equal 1525                   
variable      randzi equal z[${randatomi}]                # Determine the z coordinate of the chosen atom
variable      randzi equal z[1525]                
# if the chosen atom is not a surface atom then restart the loop
if            "${randzi} < $(v_wthick - 0.7)" then "jump MDPBB.in loop"
jump MDPBB.in loop
variable      randni equal round(random(1,${ntwall},$s))  # Pick a random "top" wall atom
variable      randni equal round(random(1,2592,$s))  
variable      randni equal round(random(1,2592,234897))  
variable      randatomi equal ${randni}                   # This is to obtain an integer number for atom-id
variable      randatomi equal 2204                   
variable      randzi equal z[${randatomi}]                # Determine the z coordinate of the chosen atom
variable      randzi equal z[2204]                
# if the chosen atom is not a surface atom then restart the loop
if            "${randzi} < $(v_wthick - 0.7)" then "jump MDPBB.in loop"
set           atom ${randatomi} type 4                    # Set this grafted wall atom as a new type
set           atom 2204 type 4                    
  1 settings made for type
group         twg id ${randatomi}                         # Add this atom to a top-wall-grafted group
group         twg id 2204                         
12 atoms in group twg
variable      twgcount equal count(twg)
print         "twg contains ${twgcount}"
twg contains 12
print         "i = $(v_i)"                                # The index i should always be equal to the number of atom in twg
i = 12
variable      x0 equal x[${randatomi}]                    # Determine its x-coord
variable      x0 equal x[2204]                    
variable      y0 equal y[${randatomi}]                    # Determine its y-coord
variable      y0 equal y[2204]                    
variable      check0 equal ${check}                       # Count the number of atoms in the simulation
variable      check0 equal 2922                       
variable      b equal ${check}+1                          # The grafted bead id will be one higher after being inserted
variable      b equal 2922+1                          
if            "${twgcount} != $(v_i)" then "jump MDPBB.in loop"
# Otherwise insert the chain directly above the chosen wall atom pointing perpendicular to the wall
create_atoms  1 single ${x0} ${y0} ${z0} mol bs 24987 units box remap yes rotate 0 0 0 1
create_atoms  1 single 15.874010519682 ${y0} ${z0} mol bs 24987 units box remap yes rotate 0 0 0 1
create_atoms  1 single 15.874010519682 19.8425131496025 ${z0} mol bs 24987 units box remap yes rotate 0 0 0 1
create_atoms  1 single 15.874010519682 19.8425131496025 17 mol bs 24987 units box remap yes rotate 0 0 0 1
Created 30 atoms
  create_atoms CPU = 9.12e-05 secs
variable      check1 equal ${check}               # Count the new total number of atoms
variable      check1 equal 2952               
# Check that the molecule has indeed been inserted (This check is no longer an issue).
if            "${check1} != ${check0}" then "create_bonds  single/bond 2 ${randatomi} $b" "next i"
create_bonds  single/bond 2 ${randatomi} $b
create_bonds  single/bond 2 2204 $b
create_bonds  single/bond 2 2204 2923
  2 = max # of 1-2 neighbors
  5 = max # of special neighbors
  special bonds CPU = 0.0039641 secs
next i
jump MDPBB.in loop    # End of the loop
variable      randni equal round(random(1,${ntwall},$s))  # Pick a random "top" wall atom
variable      randni equal round(random(1,2592,$s))  
variable      randni equal round(random(1,2592,234897))  
variable      randatomi equal ${randni}                   # This is to obtain an integer number for atom-id
variable      randatomi equal 2172                   
variable      randzi equal z[${randatomi}]                # Determine the z coordinate of the chosen atom
variable      randzi equal z[2172]                
# if the chosen atom is not a surface atom then restart the loop
if            "${randzi} < $(v_wthick - 0.7)" then "jump MDPBB.in loop"
set           atom ${randatomi} type 4                    # Set this grafted wall atom as a new type
set           atom 2172 type 4                    
  1 settings made for type
group         twg id ${randatomi}                         # Add this atom to a top-wall-grafted group
group         twg id 2172                         
13 atoms in group twg
variable      twgcount equal count(twg)
print         "twg contains ${twgcount}"
twg contains 13
print         "i = $(v_i)"                                # The index i should always be equal to the number of atom in twg
i = 13
variable      x0 equal x[${randatomi}]                    # Determine its x-coord
variable      x0 equal x[2172]                    
variable      y0 equal y[${randatomi}]                    # Determine its y-coord
variable      y0 equal y[2172]                    
variable      check0 equal ${check}                       # Count the number of atoms in the simulation
variable      check0 equal 2952                       
variable      b equal ${check}+1                          # The grafted bead id will be one higher after being inserted
variable      b equal 2952+1                          
if            "${twgcount} != $(v_i)" then "jump MDPBB.in loop"
# Otherwise insert the chain directly above the chosen wall atom pointing perpendicular to the wall
create_atoms  1 single ${x0} ${y0} ${z0} mol bs 24987 units box remap yes rotate 0 0 0 1
create_atoms  1 single 3.1748021039364 ${y0} ${z0} mol bs 24987 units box remap yes rotate 0 0 0 1
create_atoms  1 single 3.1748021039364 19.8425131496025 ${z0} mol bs 24987 units box remap yes rotate 0 0 0 1
create_atoms  1 single 3.1748021039364 19.8425131496025 17 mol bs 24987 units box remap yes rotate 0 0 0 1
Created 30 atoms
  create_atoms CPU = 7.11e-05 secs
variable      check1 equal ${check}               # Count the new total number of atoms
variable      check1 equal 2982               
# Check that the molecule has indeed been inserted (This check is no longer an issue).
if            "${check1} != ${check0}" then "create_bonds  single/bond 2 ${randatomi} $b" "next i"
create_bonds  single/bond 2 ${randatomi} $b
create_bonds  single/bond 2 2172 $b
create_bonds  single/bond 2 2172 2953
  2 = max # of 1-2 neighbors
  5 = max # of special neighbors
  special bonds CPU = 0.0027949 secs
next i
jump MDPBB.in loop    # End of the loop
variable      randni equal round(random(1,${ntwall},$s))  # Pick a random "top" wall atom
variable      randni equal round(random(1,2592,$s))  
variable      randni equal round(random(1,2592,234897))  
variable      randatomi equal ${randni}                   # This is to obtain an integer number for atom-id
variable      randatomi equal 1078                   
variable      randzi equal z[${randatomi}]                # Determine the z coordinate of the chosen atom
variable      randzi equal z[1078]                
# if the chosen atom is not a surface atom then restart the loop
if            "${randzi} < $(v_wthick - 0.7)" then "jump MDPBB.in loop"
jump MDPBB.in loop
variable      randni equal round(random(1,${ntwall},$s))  # Pick a random "top" wall atom
variable      randni equal round(random(1,2592,$s))  
variable      randni equal round(random(1,2592,234897))  
variable      randatomi equal ${randni}                   # This is to obtain an integer number for atom-id
variable      randatomi equal 2588                   
variable      randzi equal z[${randatomi}]                # Determine the z coordinate of the chosen atom
variable      randzi equal z[2588]                
# if the chosen atom is not a surface atom then restart the loop
if            "${randzi} < $(v_wthick - 0.7)" then "jump MDPBB.in loop"
set           atom ${randatomi} type 4                    # Set this grafted wall atom as a new type
set           atom 2588 type 4                    
  1 settings made for type
group         twg id ${randatomi}                         # Add this atom to a top-wall-grafted group
group         twg id 2588                         
14 atoms in group twg
variable      twgcount equal count(twg)
print         "twg contains ${twgcount}"
twg contains 14
print         "i = $(v_i)"                                # The index i should always be equal to the number of atom in twg
i = 14
variable      x0 equal x[${randatomi}]                    # Determine its x-coord
variable      x0 equal x[2588]                    
variable      y0 equal y[${randatomi}]                    # Determine its y-coord
variable      y0 equal y[2588]                    
variable      check0 equal ${check}                       # Count the number of atoms in the simulation
variable      check0 equal 2982                       
variable      b equal ${check}+1                          # The grafted bead id will be one higher after being inserted
variable      b equal 2982+1                          
if            "${twgcount} != $(v_i)" then "jump MDPBB.in loop"
# Otherwise insert the chain directly above the chosen wall atom pointing perpendicular to the wall
create_atoms  1 single ${x0} ${y0} ${z0} mol bs 24987 units box remap yes rotate 0 0 0 1
create_atoms  1 single 25.3984168314912 ${y0} ${z0} mol bs 24987 units box remap yes rotate 0 0 0 1
create_atoms  1 single 25.3984168314912 27.7795184094435 ${z0} mol bs 24987 units box remap yes rotate 0 0 0 1
create_atoms  1 single 25.3984168314912 27.7795184094435 17 mol bs 24987 units box remap yes rotate 0 0 0 1
Created 30 atoms
  create_atoms CPU = 0.0001503 secs
variable      check1 equal ${check}               # Count the new total number of atoms
variable      check1 equal 3012               
# Check that the molecule has indeed been inserted (This check is no longer an issue).
if            "${check1} != ${check0}" then "create_bonds  single/bond 2 ${randatomi} $b" "next i"
create_bonds  single/bond 2 ${randatomi} $b
create_bonds  single/bond 2 2588 $b
create_bonds  single/bond 2 2588 2983
  2 = max # of 1-2 neighbors
  5 = max # of special neighbors
  special bonds CPU = 0.0090651 secs
next i
jump MDPBB.in loop    # End of the loop
variable      randni equal round(random(1,${ntwall},$s))  # Pick a random "top" wall atom
variable      randni equal round(random(1,2592,$s))  
variable      randni equal round(random(1,2592,234897))  
variable      randatomi equal ${randni}                   # This is to obtain an integer number for atom-id
variable      randatomi equal 2526                   
variable      randzi equal z[${randatomi}]                # Determine the z coordinate of the chosen atom
variable      randzi equal z[2526]                
# if the chosen atom is not a surface atom then restart the loop
if            "${randzi} < $(v_wthick - 0.7)" then "jump MDPBB.in loop"
jump MDPBB.in loop
variable      randni equal round(random(1,${ntwall},$s))  # Pick a random "top" wall atom
variable      randni equal round(random(1,2592,$s))  
variable      randni equal round(random(1,2592,234897))  
variable      randatomi equal ${randni}                   # This is to obtain an integer number for atom-id
variable      randatomi equal 1878                   
variable      randzi equal z[${randatomi}]                # Determine the z coordinate of the chosen atom
variable      randzi equal z[1878]                
# if the chosen atom is not a surface atom then restart the loop
if            "${randzi} < $(v_wthick - 0.7)" then "jump MDPBB.in loop"
jump MDPBB.in loop
variable      randni equal round(random(1,${ntwall},$s))  # Pick a random "top" wall atom
variable      randni equal round(random(1,2592,$s))  
variable      randni equal round(random(1,2592,234897))  
variable      randatomi equal ${randni}                   # This is to obtain an integer number for atom-id
variable      randatomi equal 2435                   
variable      randzi equal z[${randatomi}]                # Determine the z coordinate of the chosen atom
variable      randzi equal z[2435]                
# if the chosen atom is not a surface atom then restart the loop
if            "${randzi} < $(v_wthick - 0.7)" then "jump MDPBB.in loop"
set           atom ${randatomi} type 4                    # Set this grafted wall atom as a new type
set           atom 2435 type 4                    
  1 settings made for type
group         twg id ${randatomi}                         # Add this atom to a top-wall-grafted group
group         twg id 2435                         
15 atoms in group twg
variable      twgcount equal count(twg)
print         "twg contains ${twgcount}"
twg contains 15
print         "i = $(v_i)"                                # The index i should always be equal to the number of atom in twg
i = 15
variable      x0 equal x[${randatomi}]                    # Determine its x-coord
variable      x0 equal x[2435]                    
variable      y0 equal y[${randatomi}]                    # Determine its y-coord
variable      y0 equal y[2435]                    
variable      check0 equal ${check}                       # Count the number of atoms in the simulation
variable      check0 equal 3012                       
variable      b equal ${check}+1                          # The grafted bead id will be one higher after being inserted
variable      b equal 3012+1                          
if            "${twgcount} != $(v_i)" then "jump MDPBB.in loop"
# Otherwise insert the chain directly above the chosen wall atom pointing perpendicular to the wall
create_atoms  1 single ${x0} ${y0} ${z0} mol bs 24987 units box remap yes rotate 0 0 0 1
create_atoms  1 single 23.0173152535389 ${y0} ${z0} mol bs 24987 units box remap yes rotate 0 0 0 1
create_atoms  1 single 23.0173152535389 23.811015779523 ${z0} mol bs 24987 units box remap yes rotate 0 0 0 1
create_atoms  1 single 23.0173152535389 23.811015779523 17 mol bs 24987 units box remap yes rotate 0 0 0 1
Created 30 atoms
  create_atoms CPU = 7.37e-05 secs
variable      check1 equal ${check}               # Count the new total number of atoms
variable      check1 equal 3042               
# Check that the molecule has indeed been inserted (This check is no longer an issue).
if            "${check1} != ${check0}" then "create_bonds  single/bond 2 ${randatomi} $b" "next i"
create_bonds  single/bond 2 ${randatomi} $b
create_bonds  single/bond 2 2435 $b
create_bonds  single/bond 2 2435 3013
  2 = max # of 1-2 neighbors
  5 = max # of special neighbors
  special bonds CPU = 0.0054628 secs
next i
jump MDPBB.in loop    # End of the loop
variable      randni equal round(random(1,${ntwall},$s))  # Pick a random "top" wall atom
variable      randni equal round(random(1,2592,$s))  
variable      randni equal round(random(1,2592,234897))  
variable      randatomi equal ${randni}                   # This is to obtain an integer number for atom-id
variable      randatomi equal 612                   
variable      randzi equal z[${randatomi}]                # Determine the z coordinate of the chosen atom
variable      randzi equal z[612]                
# if the chosen atom is not a surface atom then restart the loop
if            "${randzi} < $(v_wthick - 0.7)" then "jump MDPBB.in loop"
jump MDPBB.in loop
variable      randni equal round(random(1,${ntwall},$s))  # Pick a random "top" wall atom
variable      randni equal round(random(1,2592,$s))  
variable      randni equal round(random(1,2592,234897))  
variable      randatomi equal ${randni}                   # This is to obtain an integer number for atom-id
variable      randatomi equal 2418                   
variable      randzi equal z[${randatomi}]                # Determine the z coordinate of the chosen atom
variable      randzi equal z[2418]                
# if the chosen atom is not a surface atom then restart the loop
if            "${randzi} < $(v_wthick - 0.7)" then "jump MDPBB.in loop"
jump MDPBB.in loop
variable      randni equal round(random(1,${ntwall},$s))  # Pick a random "top" wall atom
variable      randni equal round(random(1,2592,$s))  
variable      randni equal round(random(1,2592,234897))  
variable      randatomi equal ${randni}                   # This is to obtain an integer number for atom-id
variable      randatomi equal 339                   
variable      randzi equal z[${randatomi}]                # Determine the z coordinate of the chosen atom
variable      randzi equal z[339]                
# if the chosen atom is not a surface atom then restart the loop
if            "${randzi} < $(v_wthick - 0.7)" then "jump MDPBB.in loop"
jump MDPBB.in loop
variable      randni equal round(random(1,${ntwall},$s))  # Pick a random "top" wall atom
variable      randni equal round(random(1,2592,$s))  
variable      randni equal round(random(1,2592,234897))  
variable      randatomi equal ${randni}                   # This is to obtain an integer number for atom-id
variable      randatomi equal 2204                   
variable      randzi equal z[${randatomi}]                # Determine the z coordinate of the chosen atom
variable      randzi equal z[2204]                
# if the chosen atom is not a surface atom then restart the loop
if            "${randzi} < $(v_wthick - 0.7)" then "jump MDPBB.in loop"
set           atom ${randatomi} type 4                    # Set this grafted wall atom as a new type
set           atom 2204 type 4                    
  1 settings made for type
group         twg id ${randatomi}                         # Add this atom to a top-wall-grafted group
group         twg id 2204                         
15 atoms in group twg
variable      twgcount equal count(twg)
print         "twg contains ${twgcount}"
twg contains 15
print         "i = $(v_i)"                                # The index i should always be equal to the number of atom in twg
i = 16
variable      x0 equal x[${randatomi}]                    # Determine its x-coord
variable      x0 equal x[2204]                    
variable      y0 equal y[${randatomi}]                    # Determine its y-coord
variable      y0 equal y[2204]                    
variable      check0 equal ${check}                       # Count the number of atoms in the simulation
variable      check0 equal 3042                       
variable      b equal ${check}+1                          # The grafted bead id will be one higher after being inserted
variable      b equal 3042+1                          
if            "${twgcount} != $(v_i)" then "jump MDPBB.in loop"
jump MDPBB.in loop
variable      randni equal round(random(1,${ntwall},$s))  # Pick a random "top" wall atom
variable      randni equal round(random(1,2592,$s))  
variable      randni equal round(random(1,2592,234897))  
variable      randatomi equal ${randni}                   # This is to obtain an integer number for atom-id
variable      randatomi equal 2421                   
variable      randzi equal z[${randatomi}]                # Determine the z coordinate of the chosen atom
variable      randzi equal z[2421]                
# if the chosen atom is not a surface atom then restart the loop
if            "${randzi} < $(v_wthick - 0.7)" then "jump MDPBB.in loop"
jump MDPBB.in loop
variable      randni equal round(random(1,${ntwall},$s))  # Pick a random "top" wall atom
variable      randni equal round(random(1,2592,$s))  
variable      randni equal round(random(1,2592,234897))  
variable      randatomi equal ${randni}                   # This is to obtain an integer number for atom-id
variable      randatomi equal 888                   
variable      randzi equal z[${randatomi}]                # Determine the z coordinate of the chosen atom
variable      randzi equal z[888]                
# if the chosen atom is not a surface atom then restart the loop
if            "${randzi} < $(v_wthick - 0.7)" then "jump MDPBB.in loop"
jump MDPBB.in loop
variable      randni equal round(random(1,${ntwall},$s))  # Pick a random "top" wall atom
variable      randni equal round(random(1,2592,$s))  
variable      randni equal round(random(1,2592,234897))  
variable      randatomi equal ${randni}                   # This is to obtain an integer number for atom-id
variable      randatomi equal 675                   
variable      randzi equal z[${randatomi}]                # Determine the z coordinate of the chosen atom
variable      randzi equal z[675]                
# if the chosen atom is not a surface atom then restart the loop
if            "${randzi} < $(v_wthick - 0.7)" then "jump MDPBB.in loop"
jump MDPBB.in loop
variable      randni equal round(random(1,${ntwall},$s))  # Pick a random "top" wall atom
variable      randni equal round(random(1,2592,$s))  
variable      randni equal round(random(1,2592,234897))  
variable      randatomi equal ${randni}                   # This is to obtain an integer number for atom-id
variable      randatomi equal 1721                   
variable      randzi equal z[${randatomi}]                # Determine the z coordinate of the chosen atom
variable      randzi equal z[1721]                
# if the chosen atom is not a surface atom then restart the loop
if            "${randzi} < $(v_wthick - 0.7)" then "jump MDPBB.in loop"
jump MDPBB.in loop
variable      randni equal round(random(1,${ntwall},$s))  # Pick a random "top" wall atom
variable      randni equal round(random(1,2592,$s))  
variable      randni equal round(random(1,2592,234897))  
variable      randatomi equal ${randni}                   # This is to obtain an integer number for atom-id
variable      randatomi equal 1209                   
variable      randzi equal z[${randatomi}]                # Determine the z coordinate of the chosen atom
variable      randzi equal z[1209]                
# if the chosen atom is not a surface atom then restart the loop
if            "${randzi} < $(v_wthick - 0.7)" then "jump MDPBB.in loop"
jump MDPBB.in loop
variable      randni equal round(random(1,${ntwall},$s))  # Pick a random "top" wall atom
variable      randni equal round(random(1,2592,$s))  
variable      randni equal round(random(1,2592,234897))  
variable      randatomi equal ${randni}                   # This is to obtain an integer number for atom-id
variable      randatomi equal 375                   
variable      randzi equal z[${randatomi}]                # Determine the z coordinate of the chosen atom
variable      randzi equal z[375]                
# if the chosen atom is not a surface atom then restart the loop
if            "${randzi} < $(v_wthick - 0.7)" then "jump MDPBB.in loop"
jump MDPBB.in loop
variable      randni equal round(random(1,${ntwall},$s))  # Pick a random "top" wall atom
variable      randni equal round(random(1,2592,$s))  
variable      randni equal round(random(1,2592,234897))  
variable      randatomi equal ${randni}                   # This is to obtain an integer number for atom-id
variable      randatomi equal 2387                   
variable      randzi equal z[${randatomi}]                # Determine the z coordinate of the chosen atom
variable      randzi equal z[2387]                
# if the chosen atom is not a surface atom then restart the loop
if            "${randzi} < $(v_wthick - 0.7)" then "jump MDPBB.in loop"
set           atom ${randatomi} type 4                    # Set this grafted wall atom as a new type
set           atom 2387 type 4                    
  1 settings made for type
group         twg id ${randatomi}                         # Add this atom to a top-wall-grafted group
group         twg id 2387                         
16 atoms in group twg
variable      twgcount equal count(twg)
print         "twg contains ${twgcount}"
twg contains 16
print         "i = $(v_i)"                                # The index i should always be equal to the number of atom in twg
i = 16
variable      x0 equal x[${randatomi}]                    # Determine its x-coord
variable      x0 equal x[2387]                    
variable      y0 equal y[${randatomi}]                    # Determine its y-coord
variable      y0 equal y[2387]                    
variable      check0 equal ${check}                       # Count the number of atoms in the simulation
variable      check0 equal 3042                       
variable      b equal ${check}+1                          # The grafted bead id will be one higher after being inserted
variable      b equal 3042+1                          
if            "${twgcount} != $(v_i)" then "jump MDPBB.in loop"
# Otherwise insert the chain directly above the chosen wall atom pointing perpendicular to the wall
create_atoms  1 single ${x0} ${y0} ${z0} mol bs 24987 units box remap yes rotate 0 0 0 1
create_atoms  1 single 3.9685026299205 ${y0} ${z0} mol bs 24987 units box remap yes rotate 0 0 0 1
create_atoms  1 single 3.9685026299205 23.811015779523 ${z0} mol bs 24987 units box remap yes rotate 0 0 0 1
create_atoms  1 single 3.9685026299205 23.811015779523 17 mol bs 24987 units box remap yes rotate 0 0 0 1
Created 30 atoms
  create_atoms CPU = 0.000124 secs
variable      check1 equal ${check}               # Count the new total number of atoms
variable      check1 equal 3072               
# Check that the molecule has indeed been inserted (This check is no longer an issue).
if            "${check1} != ${check0}" then "create_bonds  single/bond 2 ${randatomi} $b" "next i"
create_bonds  single/bond 2 ${randatomi} $b
create_bonds  single/bond 2 2387 $b
create_bonds  single/bond 2 2387 3043
  2 = max # of 1-2 neighbors
  5 = max # of special neighbors
  special bonds CPU = 0.0035181 secs
next i
jump MDPBB.in loop    # End of the loop
variable      randni equal round(random(1,${ntwall},$s))  # Pick a random "top" wall atom
variable      randni equal round(random(1,2592,$s))  
variable      randni equal round(random(1,2592,234897))  
variable      randatomi equal ${randni}                   # This is to obtain an integer number for atom-id
variable      randatomi equal 2480                   
variable      randzi equal z[${randatomi}]                # Determine the z coordinate of the chosen atom
variable      randzi equal z[2480]                
# if the chosen atom is not a surface atom then restart the loop
if            "${randzi} < $(v_wthick - 0.7)" then "jump MDPBB.in loop"
set           atom ${randatomi} type 4                    # Set this grafted wall atom as a new type
set           atom 2480 type 4                    
  1 settings made for type
group         twg id ${randatomi}                         # Add this atom to a top-wall-grafted group
group         twg id 2480                         
17 atoms in group twg
variable      twgcount equal count(twg)
print         "twg contains ${twgcount}"
twg contains 17
print         "i = $(v_i)"                                # The index i should always be equal to the number of atom in twg
i = 17
variable      x0 equal x[${randatomi}]                    # Determine its x-coord
variable      x0 equal x[2480]                    
variable      y0 equal y[${randatomi}]                    # Determine its y-coord
variable      y0 equal y[2480]                    
variable      check0 equal ${check}                       # Count the number of atoms in the simulation
variable      check0 equal 3072                       
variable      b equal ${check}+1                          # The grafted bead id will be one higher after being inserted
variable      b equal 3072+1                          
if            "${twgcount} != $(v_i)" then "jump MDPBB.in loop"
# Otherwise insert the chain directly above the chosen wall atom pointing perpendicular to the wall
create_atoms  1 single ${x0} ${y0} ${z0} mol bs 24987 units box remap yes rotate 0 0 0 1
create_atoms  1 single 11.1118073637774 ${y0} ${z0} mol bs 24987 units box remap yes rotate 0 0 0 1
create_atoms  1 single 11.1118073637774 26.1921173574753 ${z0} mol bs 24987 units box remap yes rotate 0 0 0 1
create_atoms  1 single 11.1118073637774 26.1921173574753 17 mol bs 24987 units box remap yes rotate 0 0 0 1
Created 30 atoms
  create_atoms CPU = 0.0001182 secs
variable      check1 equal ${check}               # Count the new total number of atoms
variable      check1 equal 3102               
# Check that the molecule has indeed been inserted (This check is no longer an issue).
if            "${check1} != ${check0}" then "create_bonds  single/bond 2 ${randatomi} $b" "next i"
create_bonds  single/bond 2 ${randatomi} $b
create_bonds  single/bond 2 2480 $b
create_bonds  single/bond 2 2480 3073
  2 = max # of 1-2 neighbors
  5 = max # of special neighbors
  special bonds CPU = 0.0025892 secs
next i
jump MDPBB.in loop    # End of the loop
variable      randni equal round(random(1,${ntwall},$s))  # Pick a random "top" wall atom
variable      randni equal round(random(1,2592,$s))  
variable      randni equal round(random(1,2592,234897))  
variable      randatomi equal ${randni}                   # This is to obtain an integer number for atom-id
variable      randatomi equal 2344                   
variable      randzi equal z[${randatomi}]                # Determine the z coordinate of the chosen atom
variable      randzi equal z[2344]                
# if the chosen atom is not a surface atom then restart the loop
if            "${randzi} < $(v_wthick - 0.7)" then "jump MDPBB.in loop"
set           atom ${randatomi} type 4                    # Set this grafted wall atom as a new type
set           atom 2344 type 4                    
  1 settings made for type
group         twg id ${randatomi}                         # Add this atom to a top-wall-grafted group
group         twg id 2344                         
18 atoms in group twg
variable      twgcount equal count(twg)
print         "twg contains ${twgcount}"
twg contains 18
print         "i = $(v_i)"                                # The index i should always be equal to the number of atom in twg
i = 18
variable      x0 equal x[${randatomi}]                    # Determine its x-coord
variable      x0 equal x[2344]                    
variable      y0 equal y[${randatomi}]                    # Determine its y-coord
variable      y0 equal y[2344]                    
variable      check0 equal ${check}                       # Count the number of atoms in the simulation
variable      check0 equal 3102                       
variable      b equal ${check}+1                          # The grafted bead id will be one higher after being inserted
variable      b equal 3102+1                          
if            "${twgcount} != $(v_i)" then "jump MDPBB.in loop"
# Otherwise insert the chain directly above the chosen wall atom pointing perpendicular to the wall
create_atoms  1 single ${x0} ${y0} ${z0} mol bs 24987 units box remap yes rotate 0 0 0 1
create_atoms  1 single 14.2866094677138 ${y0} ${z0} mol bs 24987 units box remap yes rotate 0 0 0 1
create_atoms  1 single 14.2866094677138 23.0173152535389 ${z0} mol bs 24987 units box remap yes rotate 0 0 0 1
create_atoms  1 single 14.2866094677138 23.0173152535389 17 mol bs 24987 units box remap yes rotate 0 0 0 1
Created 30 atoms
  create_atoms CPU = 7.51e-05 secs
variable      check1 equal ${check}               # Count the new total number of atoms
variable      check1 equal 3132               
# Check that the molecule has indeed been inserted (This check is no longer an issue).
if            "${check1} != ${check0}" then "create_bonds  single/bond 2 ${randatomi} $b" "next i"
create_bonds  single/bond 2 ${randatomi} $b
create_bonds  single/bond 2 2344 $b
create_bonds  single/bond 2 2344 3103
  2 = max # of 1-2 neighbors
  5 = max # of special neighbors
  special bonds CPU = 0.0033441 secs
next i
jump MDPBB.in loop    # End of the loop
variable      randni equal round(random(1,${ntwall},$s))  # Pick a random "top" wall atom
variable      randni equal round(random(1,2592,$s))  
variable      randni equal round(random(1,2592,234897))  
variable      randatomi equal ${randni}                   # This is to obtain an integer number for atom-id
variable      randatomi equal 2066                   
variable      randzi equal z[${randatomi}]                # Determine the z coordinate of the chosen atom
variable      randzi equal z[2066]                
# if the chosen atom is not a surface atom then restart the loop
if            "${randzi} < $(v_wthick - 0.7)" then "jump MDPBB.in loop"
jump MDPBB.in loop
variable      randni equal round(random(1,${ntwall},$s))  # Pick a random "top" wall atom
variable      randni equal round(random(1,2592,$s))  
variable      randni equal round(random(1,2592,234897))  
variable      randatomi equal ${randni}                   # This is to obtain an integer number for atom-id
variable      randatomi equal 1137                   
variable      randzi equal z[${randatomi}]                # Determine the z coordinate of the chosen atom
variable      randzi equal z[1137]                
# if the chosen atom is not a surface atom then restart the loop
if            "${randzi} < $(v_wthick - 0.7)" then "jump MDPBB.in loop"
jump MDPBB.in loop
variable      randni equal round(random(1,${ntwall},$s))  # Pick a random "top" wall atom
variable      randni equal round(random(1,2592,$s))  
variable      randni equal round(random(1,2592,234897))  
variable      randatomi equal ${randni}                   # This is to obtain an integer number for atom-id
variable      randatomi equal 962                   
variable      randzi equal z[${randatomi}]                # Determine the z coordinate of the chosen atom
variable      randzi equal z[962]                
# if the chosen atom is not a surface atom then restart the loop
if            "${randzi} < $(v_wthick - 0.7)" then "jump MDPBB.in loop"
jump MDPBB.in loop
variable      randni equal round(random(1,${ntwall},$s))  # Pick a random "top" wall atom
variable      randni equal round(random(1,2592,$s))  
variable      randni equal round(random(1,2592,234897))  
variable      randatomi equal ${randni}                   # This is to obtain an integer number for atom-id
variable      randatomi equal 1818                   
variable      randzi equal z[${randatomi}]                # Determine the z coordinate of the chosen atom
variable      randzi equal z[1818]                
# if the chosen atom is not a surface atom then restart the loop
if            "${randzi} < $(v_wthick - 0.7)" then "jump MDPBB.in loop"
jump MDPBB.in loop
variable      randni equal round(random(1,${ntwall},$s))  # Pick a random "top" wall atom
variable      randni equal round(random(1,2592,$s))  
variable      randni equal round(random(1,2592,234897))  
variable      randatomi equal ${randni}                   # This is to obtain an integer number for atom-id
variable      randatomi equal 243                   
variable      randzi equal z[${randatomi}]                # Determine the z coordinate of the chosen atom
variable      randzi equal z[243]                
# if the chosen atom is not a surface atom then restart the loop
if            "${randzi} < $(v_wthick - 0.7)" then "jump MDPBB.in loop"
jump MDPBB.in loop
variable      randni equal round(random(1,${ntwall},$s))  # Pick a random "top" wall atom
variable      randni equal round(random(1,2592,$s))  
variable      randni equal round(random(1,2592,234897))  
variable      randatomi equal ${randni}                   # This is to obtain an integer number for atom-id
variable      randatomi equal 982                   
variable      randzi equal z[${randatomi}]                # Determine the z coordinate of the chosen atom
variable      randzi equal z[982]                
# if the chosen atom is not a surface atom then restart the loop
if            "${randzi} < $(v_wthick - 0.7)" then "jump MDPBB.in loop"
jump MDPBB.in loop
variable      randni equal round(random(1,${ntwall},$s))  # Pick a random "top" wall atom
variable      randni equal round(random(1,2592,$s))  
variable      randni equal round(random(1,2592,234897))  
variable      randatomi equal ${randni}                   # This is to obtain an integer number for atom-id
variable      randatomi equal 1131                   
variable      randzi equal z[${randatomi}]                # Determine the z coordinate of the chosen atom
variable      randzi equal z[1131]                
# if the chosen atom is not a surface atom then restart the loop
if            "${randzi} < $(v_wthick - 0.7)" then "jump MDPBB.in loop"
jump MDPBB.in loop
variable      randni equal round(random(1,${ntwall},$s))  # Pick a random "top" wall atom
variable      randni equal round(random(1,2592,$s))  
variable      randni equal round(random(1,2592,234897))  
variable      randatomi equal ${randni}                   # This is to obtain an integer number for atom-id
variable      randatomi equal 852                   
variable      randzi equal z[${randatomi}]                # Determine the z coordinate of the chosen atom
variable      randzi equal z[852]                
# if the chosen atom is not a surface atom then restart the loop
if            "${randzi} < $(v_wthick - 0.7)" then "jump MDPBB.in loop"
jump MDPBB.in loop
variable      randni equal round(random(1,${ntwall},$s))  # Pick a random "top" wall atom
variable      randni equal round(random(1,2592,$s))  
variable      randni equal round(random(1,2592,234897))  
variable      randatomi equal ${randni}                   # This is to obtain an integer number for atom-id
variable      randatomi equal 1581                   
variable      randzi equal z[${randatomi}]                # Determine the z coordinate of the chosen atom
variable      randzi equal z[1581]                
# if the chosen atom is not a surface atom then restart the loop
if            "${randzi} < $(v_wthick - 0.7)" then "jump MDPBB.in loop"
jump MDPBB.in loop
variable      randni equal round(random(1,${ntwall},$s))  # Pick a random "top" wall atom
variable      randni equal round(random(1,2592,$s))  
variable      randni equal round(random(1,2592,234897))  
variable      randatomi equal ${randni}                   # This is to obtain an integer number for atom-id
variable      randatomi equal 742                   
variable      randzi equal z[${randatomi}]                # Determine the z coordinate of the chosen atom
variable      randzi equal z[742]                
# if the chosen atom is not a surface atom then restart the loop
if            "${randzi} < $(v_wthick - 0.7)" then "jump MDPBB.in loop"
jump MDPBB.in loop
variable      randni equal round(random(1,${ntwall},$s))  # Pick a random "top" wall atom
variable      randni equal round(random(1,2592,$s))  
variable      randni equal round(random(1,2592,234897))  
variable      randatomi equal ${randni}                   # This is to obtain an integer number for atom-id
variable      randatomi equal 618                   
variable      randzi equal z[${randatomi}]                # Determine the z coordinate of the chosen atom
variable      randzi equal z[618]                
# if the chosen atom is not a surface atom then restart the loop
if            "${randzi} < $(v_wthick - 0.7)" then "jump MDPBB.in loop"
jump MDPBB.in loop
variable      randni equal round(random(1,${ntwall},$s))  # Pick a random "top" wall atom
variable      randni equal round(random(1,2592,$s))  
variable      randni equal round(random(1,2592,234897))  
variable      randatomi equal ${randni}                   # This is to obtain an integer number for atom-id
variable      randatomi equal 223                   
variable      randzi equal z[${randatomi}]                # Determine the z coordinate of the chosen atom
variable      randzi equal z[223]                
# if the chosen atom is not a surface atom then restart the loop
if            "${randzi} < $(v_wthick - 0.7)" then "jump MDPBB.in loop"
jump MDPBB.in loop
variable      randni equal round(random(1,${ntwall},$s))  # Pick a random "top" wall atom
variable      randni equal round(random(1,2592,$s))  
variable      randni equal round(random(1,2592,234897))  
variable      randatomi equal ${randni}                   # This is to obtain an integer number for atom-id
variable      randatomi equal 1765                   
variable      randzi equal z[${randatomi}]                # Determine the z coordinate of the chosen atom
variable      randzi equal z[1765]                
# if the chosen atom is not a surface atom then restart the loop
if            "${randzi} < $(v_wthick - 0.7)" then "jump MDPBB.in loop"
jump MDPBB.in loop
variable      randni equal round(random(1,${ntwall},$s))  # Pick a random "top" wall atom
variable      randni equal round(random(1,2592,$s))  
variable      randni equal round(random(1,2592,234897))  
variable      randatomi equal ${randni}                   # This is to obtain an integer number for atom-id
variable      randatomi equal 1901                   
variable      randzi equal z[${randatomi}]                # Determine the z coordinate of the chosen atom
variable      randzi equal z[1901]                
# if the chosen atom is not a surface atom then restart the loop
if            "${randzi} < $(v_wthick - 0.7)" then "jump MDPBB.in loop"
jump MDPBB.in loop
variable      randni equal round(random(1,${ntwall},$s))  # Pick a random "top" wall atom
variable      randni equal round(random(1,2592,$s))  
variable      randni equal round(random(1,2592,234897))  
variable      randatomi equal ${randni}                   # This is to obtain an integer number for atom-id
variable      randatomi equal 873                   
variable      randzi equal z[${randatomi}]                # Determine the z coordinate of the chosen atom
variable      randzi equal z[873]                
# if the chosen atom is not a surface atom then restart the loop
if            "${randzi} < $(v_wthick - 0.7)" then "jump MDPBB.in loop"
jump MDPBB.in loop
variable      randni equal round(random(1,${ntwall},$s))  # Pick a random "top" wall atom
variable      randni equal round(random(1,2592,$s))  
variable      randni equal round(random(1,2592,234897))  
variable      randatomi equal ${randni}                   # This is to obtain an integer number for atom-id
variable      randatomi equal 1296                   
variable      randzi equal z[${randatomi}]                # Determine the z coordinate of the chosen atom
variable      randzi equal z[1296]                
# if the chosen atom is not a surface atom then restart the loop
if            "${randzi} < $(v_wthick - 0.7)" then "jump MDPBB.in loop"
jump MDPBB.in loop
variable      randni equal round(random(1,${ntwall},$s))  # Pick a random "top" wall atom
variable      randni equal round(random(1,2592,$s))  
variable      randni equal round(random(1,2592,234897))  
variable      randatomi equal ${randni}                   # This is to obtain an integer number for atom-id
variable      randatomi equal 1116                   
variable      randzi equal z[${randatomi}]                # Determine the z coordinate of the chosen atom
variable      randzi equal z[1116]                
# if the chosen atom is not a surface atom then restart the loop
if            "${randzi} < $(v_wthick - 0.7)" then "jump MDPBB.in loop"
jump MDPBB.in loop
variable      randni equal round(random(1,${ntwall},$s))  # Pick a random "top" wall atom
variable      randni equal round(random(1,2592,$s))  
variable      randni equal round(random(1,2592,234897))  
variable      randatomi equal ${randni}                   # This is to obtain an integer number for atom-id
variable      randatomi equal 587                   
variable      randzi equal z[${randatomi}]                # Determine the z coordinate of the chosen atom
variable      randzi equal z[587]                
# if the chosen atom is not a surface atom then restart the loop
if            "${randzi} < $(v_wthick - 0.7)" then "jump MDPBB.in loop"
jump MDPBB.in loop
variable      randni equal round(random(1,${ntwall},$s))  # Pick a random "top" wall atom
variable      randni equal round(random(1,2592,$s))  
variable      randni equal round(random(1,2592,234897))  
variable      randatomi equal ${randni}                   # This is to obtain an integer number for atom-id
variable      randatomi equal 1502                   
variable      randzi equal z[${randatomi}]                # Determine the z coordinate of the chosen atom
variable      randzi equal z[1502]                
# if the chosen atom is not a surface atom then restart the loop
if            "${randzi} < $(v_wthick - 0.7)" then "jump MDPBB.in loop"
jump MDPBB.in loop
variable      randni equal round(random(1,${ntwall},$s))  # Pick a random "top" wall atom
variable      randni equal round(random(1,2592,$s))  
variable      randni equal round(random(1,2592,234897))  
variable      randatomi equal ${randni}                   # This is to obtain an integer number for atom-id
variable      randatomi equal 474                   
variable      randzi equal z[${randatomi}]                # Determine the z coordinate of the chosen atom
variable      randzi equal z[474]                
# if the chosen atom is not a surface atom then restart the loop
if            "${randzi} < $(v_wthick - 0.7)" then "jump MDPBB.in loop"
jump MDPBB.in loop
variable      randni equal round(random(1,${ntwall},$s))  # Pick a random "top" wall atom
variable      randni equal round(random(1,2592,$s))  
variable      randni equal round(random(1,2592,234897))  
variable      randatomi equal ${randni}                   # This is to obtain an integer number for atom-id
variable      randatomi equal 2287                   
variable      randzi equal z[${randatomi}]                # Determine the z coordinate of the chosen atom
variable      randzi equal z[2287]                
# if the chosen atom is not a surface atom then restart the loop
if            "${randzi} < $(v_wthick - 0.7)" then "jump MDPBB.in loop"
set           atom ${randatomi} type 4                    # Set this grafted wall atom as a new type
set           atom 2287 type 4                    
  1 settings made for type
group         twg id ${randatomi}                         # Add this atom to a top-wall-grafted group
group         twg id 2287                         
19 atoms in group twg
variable      twgcount equal count(twg)
print         "twg contains ${twgcount}"
twg contains 19
print         "i = $(v_i)"                                # The index i should always be equal to the number of atom in twg
i = 19
variable      x0 equal x[${randatomi}]                    # Determine its x-coord
variable      x0 equal x[2287]                    
variable      y0 equal y[${randatomi}]                    # Determine its y-coord
variable      y0 equal y[2287]                    
variable      check0 equal ${check}                       # Count the number of atoms in the simulation
variable      check0 equal 3132                       
variable      b equal ${check}+1                          # The grafted bead id will be one higher after being inserted
variable      b equal 3132+1                          
if            "${twgcount} != $(v_i)" then "jump MDPBB.in loop"
# Otherwise insert the chain directly above the chosen wall atom pointing perpendicular to the wall
create_atoms  1 single ${x0} ${y0} ${z0} mol bs 24987 units box remap yes rotate 0 0 0 1
create_atoms  1 single 21.4299142015707 ${y0} ${z0} mol bs 24987 units box remap yes rotate 0 0 0 1
create_atoms  1 single 21.4299142015707 20.6362136755866 ${z0} mol bs 24987 units box remap yes rotate 0 0 0 1
create_atoms  1 single 21.4299142015707 20.6362136755866 17 mol bs 24987 units box remap yes rotate 0 0 0 1
Created 30 atoms
  create_atoms CPU = 0.0001767 secs
variable      check1 equal ${check}               # Count the new total number of atoms
variable      check1 equal 3162               
# Check that the molecule has indeed been inserted (This check is no longer an issue).
if            "${check1} != ${check0}" then "create_bonds  single/bond 2 ${randatomi} $b" "next i"
create_bonds  single/bond 2 ${randatomi} $b
create_bonds  single/bond 2 2287 $b
create_bonds  single/bond 2 2287 3133
  2 = max # of 1-2 neighbors
  5 = max # of special neighbors
  special bonds CPU = 0.0042121 secs
next i
jump MDPBB.in loop    # End of the loop
variable      randni equal round(random(1,${ntwall},$s))  # Pick a random "top" wall atom
variable      randni equal round(random(1,2592,$s))  
variable      randni equal round(random(1,2592,234897))  
variable      randatomi equal ${randni}                   # This is to obtain an integer number for atom-id
variable      randatomi equal 1195                   
variable      randzi equal z[${randatomi}]                # Determine the z coordinate of the chosen atom
variable      randzi equal z[1195]                
# if the chosen atom is not a surface atom then restart the loop
if            "${randzi} < $(v_wthick - 0.7)" then "jump MDPBB.in loop"
jump MDPBB.in loop
variable      randni equal round(random(1,${ntwall},$s))  # Pick a random "top" wall atom
variable      randni equal round(random(1,2592,$s))  
variable      randni equal round(random(1,2592,234897))  
variable      randatomi equal ${randni}                   # This is to obtain an integer number for atom-id
variable      randatomi equal 2543                   
variable      randzi equal z[${randatomi}]                # Determine the z coordinate of the chosen atom
variable      randzi equal z[2543]                
# if the chosen atom is not a surface atom then restart the loop
if            "${randzi} < $(v_wthick - 0.7)" then "jump MDPBB.in loop"
set           atom ${randatomi} type 4                    # Set this grafted wall atom as a new type
set           atom 2543 type 4                    
  1 settings made for type
group         twg id ${randatomi}                         # Add this atom to a top-wall-grafted group
group         twg id 2543                         
20 atoms in group twg
variable      twgcount equal count(twg)
print         "twg contains ${twgcount}"
twg contains 20
print         "i = $(v_i)"                                # The index i should always be equal to the number of atom in twg
i = 20
variable      x0 equal x[${randatomi}]                    # Determine its x-coord
variable      x0 equal x[2543]                    
variable      y0 equal y[${randatomi}]                    # Determine its y-coord
variable      y0 equal y[2543]                    
variable      check0 equal ${check}                       # Count the number of atoms in the simulation
variable      check0 equal 3162                       
variable      b equal ${check}+1                          # The grafted bead id will be one higher after being inserted
variable      b equal 3162+1                          
if            "${twgcount} != $(v_i)" then "jump MDPBB.in loop"
# Otherwise insert the chain directly above the chosen wall atom pointing perpendicular to the wall
create_atoms  1 single ${x0} ${y0} ${z0} mol bs 24987 units box remap yes rotate 0 0 0 1
create_atoms  1 single 8.7307057858251 ${y0} ${z0} mol bs 24987 units box remap yes rotate 0 0 0 1
create_atoms  1 single 8.7307057858251 26.9858178834594 ${z0} mol bs 24987 units box remap yes rotate 0 0 0 1
create_atoms  1 single 8.7307057858251 26.9858178834594 17 mol bs 24987 units box remap yes rotate 0 0 0 1
Created 30 atoms
  create_atoms CPU = 8.69e-05 secs
variable      check1 equal ${check}               # Count the new total number of atoms
variable      check1 equal 3192               
# Check that the molecule has indeed been inserted (This check is no longer an issue).
if            "${check1} != ${check0}" then "create_bonds  single/bond 2 ${randatomi} $b" "next i"
create_bonds  single/bond 2 ${randatomi} $b
create_bonds  single/bond 2 2543 $b
create_bonds  single/bond 2 2543 3163
  2 = max # of 1-2 neighbors
  5 = max # of special neighbors
  special bonds CPU = 0.0024147 secs
next i
jump MDPBB.in loop    # End of the loop
variable      randni equal round(random(1,${ntwall},$s))  # Pick a random "top" wall atom
variable      randni equal round(random(1,2592,$s))  
variable      randni equal round(random(1,2592,234897))  
variable      randatomi equal ${randni}                   # This is to obtain an integer number for atom-id
variable      randatomi equal 1989                   
variable      randzi equal z[${randatomi}]                # Determine the z coordinate of the chosen atom
variable      randzi equal z[1989]                
# if the chosen atom is not a surface atom then restart the loop
if            "${randzi} < $(v_wthick - 0.7)" then "jump MDPBB.in loop"
jump MDPBB.in loop
variable      randni equal round(random(1,${ntwall},$s))  # Pick a random "top" wall atom
variable      randni equal round(random(1,2592,$s))  
variable      randni equal round(random(1,2592,234897))  
variable      randatomi equal ${randni}                   # This is to obtain an integer number for atom-id
variable      randatomi equal 2383                   
variable      randzi equal z[${randatomi}]                # Determine the z coordinate of the chosen atom
variable      randzi equal z[2383]                
# if the chosen atom is not a surface atom then restart the loop
if            "${randzi} < $(v_wthick - 0.7)" then "jump MDPBB.in loop"
set           atom ${randatomi} type 4                    # Set this grafted wall atom as a new type
set           atom 2383 type 4                    
  1 settings made for type
group         twg id ${randatomi}                         # Add this atom to a top-wall-grafted group
group         twg id 2383                         
21 atoms in group twg
variable      twgcount equal count(twg)
print         "twg contains ${twgcount}"
twg contains 21
print         "i = $(v_i)"                                # The index i should always be equal to the number of atom in twg
i = 21
variable      x0 equal x[${randatomi}]                    # Determine its x-coord
variable      x0 equal x[2383]                    
variable      y0 equal y[${randatomi}]                    # Determine its y-coord
variable      y0 equal y[2383]                    
variable      check0 equal ${check}                       # Count the number of atoms in the simulation
variable      check0 equal 3192                       
variable      b equal ${check}+1                          # The grafted bead id will be one higher after being inserted
variable      b equal 3192+1                          
if            "${twgcount} != $(v_i)" then "jump MDPBB.in loop"
# Otherwise insert the chain directly above the chosen wall atom pointing perpendicular to the wall
create_atoms  1 single ${x0} ${y0} ${z0} mol bs 24987 units box remap yes rotate 0 0 0 1
create_atoms  1 single 2.3811015779523 ${y0} ${z0} mol bs 24987 units box remap yes rotate 0 0 0 1
create_atoms  1 single 2.3811015779523 23.811015779523 ${z0} mol bs 24987 units box remap yes rotate 0 0 0 1
create_atoms  1 single 2.3811015779523 23.811015779523 17 mol bs 24987 units box remap yes rotate 0 0 0 1
Created 30 atoms
  create_atoms CPU = 8.37e-05 secs
variable      check1 equal ${check}               # Count the new total number of atoms
variable      check1 equal 3222               
# Check that the molecule has indeed been inserted (This check is no longer an issue).
if            "${check1} != ${check0}" then "create_bonds  single/bond 2 ${randatomi} $b" "next i"
create_bonds  single/bond 2 ${randatomi} $b
create_bonds  single/bond 2 2383 $b
create_bonds  single/bond 2 2383 3193
  2 = max # of 1-2 neighbors
  5 = max # of special neighbors
  special bonds CPU = 0.0041083 secs
next i
jump MDPBB.in loop    # End of the loop
variable      randni equal round(random(1,${ntwall},$s))  # Pick a random "top" wall atom
variable      randni equal round(random(1,2592,$s))  
variable      randni equal round(random(1,2592,234897))  
variable      randatomi equal ${randni}                   # This is to obtain an integer number for atom-id
variable      randatomi equal 2577                   
variable      randzi equal z[${randatomi}]                # Determine the z coordinate of the chosen atom
variable      randzi equal z[2577]                
# if the chosen atom is not a surface atom then restart the loop
if            "${randzi} < $(v_wthick - 0.7)" then "jump MDPBB.in loop"
jump MDPBB.in loop
variable      randni equal round(random(1,${ntwall},$s))  # Pick a random "top" wall atom
variable      randni equal round(random(1,2592,$s))  
variable      randni equal round(random(1,2592,234897))  
variable      randatomi equal ${randni}                   # This is to obtain an integer number for atom-id
variable      randatomi equal 1228                   
variable      randzi equal z[${randatomi}]                # Determine the z coordinate of the chosen atom
variable      randzi equal z[1228]                
# if the chosen atom is not a surface atom then restart the loop
if            "${randzi} < $(v_wthick - 0.7)" then "jump MDPBB.in loop"
jump MDPBB.in loop
variable      randni equal round(random(1,${ntwall},$s))  # Pick a random "top" wall atom
variable      randni equal round(random(1,2592,$s))  
variable      randni equal round(random(1,2592,234897))  
variable      randatomi equal ${randni}                   # This is to obtain an integer number for atom-id
variable      randatomi equal 861                   
variable      randzi equal z[${randatomi}]                # Determine the z coordinate of the chosen atom
variable      randzi equal z[861]                
# if the chosen atom is not a surface atom then restart the loop
if            "${randzi} < $(v_wthick - 0.7)" then "jump MDPBB.in loop"
jump MDPBB.in loop
variable      randni equal round(random(1,${ntwall},$s))  # Pick a random "top" wall atom
variable      randni equal round(random(1,2592,$s))  
variable      randni equal round(random(1,2592,234897))  
variable      randatomi equal ${randni}                   # This is to obtain an integer number for atom-id
variable      randatomi equal 182                   
variable      randzi equal z[${randatomi}]                # Determine the z coordinate of the chosen atom
variable      randzi equal z[182]                
# if the chosen atom is not a surface atom then restart the loop
if            "${randzi} < $(v_wthick - 0.7)" then "jump MDPBB.in loop"
jump MDPBB.in loop
variable      randni equal round(random(1,${ntwall},$s))  # Pick a random "top" wall atom
variable      randni equal round(random(1,2592,$s))  
variable      randni equal round(random(1,2592,234897))  
variable      randatomi equal ${randni}                   # This is to obtain an integer number for atom-id
variable      randatomi equal 670                   
variable      randzi equal z[${randatomi}]                # Determine the z coordinate of the chosen atom
variable      randzi equal z[670]                
# if the chosen atom is not a surface atom then restart the loop
if            "${randzi} < $(v_wthick - 0.7)" then "jump MDPBB.in loop"
jump MDPBB.in loop
variable      randni equal round(random(1,${ntwall},$s))  # Pick a random "top" wall atom
variable      randni equal round(random(1,2592,$s))  
variable      randni equal round(random(1,2592,234897))  
variable      randatomi equal ${randni}                   # This is to obtain an integer number for atom-id
variable      randatomi equal 470                   
variable      randzi equal z[${randatomi}]                # Determine the z coordinate of the chosen atom
variable      randzi equal z[470]                
# if the chosen atom is not a surface atom then restart the loop
if            "${randzi} < $(v_wthick - 0.7)" then "jump MDPBB.in loop"
jump MDPBB.in loop
variable      randni equal round(random(1,${ntwall},$s))  # Pick a random "top" wall atom
variable      randni equal round(random(1,2592,$s))  
variable      randni equal round(random(1,2592,234897))  
variable      randatomi equal ${randni}                   # This is to obtain an integer number for atom-id
variable      randatomi equal 1063                   
variable      randzi equal z[${randatomi}]                # Determine the z coordinate of the chosen atom
variable      randzi equal z[1063]                
# if the chosen atom is not a surface atom then restart the loop
if            "${randzi} < $(v_wthick - 0.7)" then "jump MDPBB.in loop"
jump MDPBB.in loop
variable      randni equal round(random(1,${ntwall},$s))  # Pick a random "top" wall atom
variable      randni equal round(random(1,2592,$s))  
variable      randni equal round(random(1,2592,234897))  
variable      randatomi equal ${randni}                   # This is to obtain an integer number for atom-id
variable      randatomi equal 1549                   
variable      randzi equal z[${randatomi}]                # Determine the z coordinate of the chosen atom
variable      randzi equal z[1549]                
# if the chosen atom is not a surface atom then restart the loop
if            "${randzi} < $(v_wthick - 0.7)" then "jump MDPBB.in loop"
jump MDPBB.in loop
variable      randni equal round(random(1,${ntwall},$s))  # Pick a random "top" wall atom
variable      randni equal round(random(1,2592,$s))  
variable      randni equal round(random(1,2592,234897))  
variable      randatomi equal ${randni}                   # This is to obtain an integer number for atom-id
variable      randatomi equal 1233                   
variable      randzi equal z[${randatomi}]                # Determine the z coordinate of the chosen atom
variable      randzi equal z[1233]                
# if the chosen atom is not a surface atom then restart the loop
if            "${randzi} < $(v_wthick - 0.7)" then "jump MDPBB.in loop"
jump MDPBB.in loop
variable      randni equal round(random(1,${ntwall},$s))  # Pick a random "top" wall atom
variable      randni equal round(random(1,2592,$s))  
variable      randni equal round(random(1,2592,234897))  
variable      randatomi equal ${randni}                   # This is to obtain an integer number for atom-id
variable      randatomi equal 2152                   
variable      randzi equal z[${randatomi}]                # Determine the z coordinate of the chosen atom
variable      randzi equal z[2152]                
# if the chosen atom is not a surface atom then restart the loop
if            "${randzi} < $(v_wthick - 0.7)" then "jump MDPBB.in loop"
set           atom ${randatomi} type 4                    # Set this grafted wall atom as a new type
set           atom 2152 type 4                    
  1 settings made for type
group         twg id ${randatomi}                         # Add this atom to a top-wall-grafted group
group         twg id 2152                         
22 atoms in group twg
variable      twgcount equal count(twg)
print         "twg contains ${twgcount}"
twg contains 22
print         "i = $(v_i)"                                # The index i should always be equal to the number of atom in twg
i = 22
variable      x0 equal x[${randatomi}]                    # Determine its x-coord
variable      x0 equal x[2152]                    
variable      y0 equal y[${randatomi}]                    # Determine its y-coord
variable      y0 equal y[2152]                    
variable      check0 equal ${check}                       # Count the number of atoms in the simulation
variable      check0 equal 3222                       
variable      b equal ${check}+1                          # The grafted bead id will be one higher after being inserted
variable      b equal 3222+1                          
if            "${twgcount} != $(v_i)" then "jump MDPBB.in loop"
# Otherwise insert the chain directly above the chosen wall atom pointing perpendicular to the wall
create_atoms  1 single ${x0} ${y0} ${z0} mol bs 24987 units box remap yes rotate 0 0 0 1
create_atoms  1 single 23.811015779523 ${y0} ${z0} mol bs 24987 units box remap yes rotate 0 0 0 1
create_atoms  1 single 23.811015779523 18.2551120976343 ${z0} mol bs 24987 units box remap yes rotate 0 0 0 1
create_atoms  1 single 23.811015779523 18.2551120976343 17 mol bs 24987 units box remap yes rotate 0 0 0 1
Created 30 atoms
  create_atoms CPU = 0.0001318 secs
variable      check1 equal ${check}               # Count the new total number of atoms
variable      check1 equal 3252               
# Check that the molecule has indeed been inserted (This check is no longer an issue).
if            "${check1} != ${check0}" then "create_bonds  single/bond 2 ${randatomi} $b" "next i"
create_bonds  single/bond 2 ${randatomi} $b
create_bonds  single/bond 2 2152 $b
create_bonds  single/bond 2 2152 3223
  2 = max # of 1-2 neighbors
  5 = max # of special neighbors
  special bonds CPU = 0.0026171 secs
next i
jump MDPBB.in loop    # End of the loop
variable      randni equal round(random(1,${ntwall},$s))  # Pick a random "top" wall atom
variable      randni equal round(random(1,2592,$s))  
variable      randni equal round(random(1,2592,234897))  
variable      randatomi equal ${randni}                   # This is to obtain an integer number for atom-id
variable      randatomi equal 386                   
variable      randzi equal z[${randatomi}]                # Determine the z coordinate of the chosen atom
variable      randzi equal z[386]                
# if the chosen atom is not a surface atom then restart the loop
if            "${randzi} < $(v_wthick - 0.7)" then "jump MDPBB.in loop"
jump MDPBB.in loop
variable      randni equal round(random(1,${ntwall},$s))  # Pick a random "top" wall atom
variable      randni equal round(random(1,2592,$s))  
variable      randni equal round(random(1,2592,234897))  
variable      randatomi equal ${randni}                   # This is to obtain an integer number for atom-id
variable      randatomi equal 430                   
variable      randzi equal z[${randatomi}]                # Determine the z coordinate of the chosen atom
variable      randzi equal z[430]                
# if the chosen atom is not a surface atom then restart the loop
if            "${randzi} < $(v_wthick - 0.7)" then "jump MDPBB.in loop"
jump MDPBB.in loop
variable      randni equal round(random(1,${ntwall},$s))  # Pick a random "top" wall atom
variable      randni equal round(random(1,2592,$s))  
variable      randni equal round(random(1,2592,234897))  
variable      randatomi equal ${randni}                   # This is to obtain an integer number for atom-id
variable      randatomi equal 2079                   
variable      randzi equal z[${randatomi}]                # Determine the z coordinate of the chosen atom
variable      randzi equal z[2079]                
# if the chosen atom is not a surface atom then restart the loop
if            "${randzi} < $(v_wthick - 0.7)" then "jump MDPBB.in loop"
set           atom ${randatomi} type 4                    # Set this grafted wall atom as a new type
set           atom 2079 type 4                    
  1 settings made for type
group         twg id ${randatomi}                         # Add this atom to a top-wall-grafted group
group         twg id 2079                         
23 atoms in group twg
variable      twgcount equal count(twg)
print         "twg contains ${twgcount}"
twg contains 23
print         "i = $(v_i)"                                # The index i should always be equal to the number of atom in twg
i = 23
variable      x0 equal x[${randatomi}]                    # Determine its x-coord
variable      x0 equal x[2079]                    
variable      y0 equal y[${randatomi}]                    # Determine its y-coord
variable      y0 equal y[2079]                    
variable      check0 equal ${check}                       # Count the number of atoms in the simulation
variable      check0 equal 3252                       
variable      b equal ${check}+1                          # The grafted bead id will be one higher after being inserted
variable      b equal 3252+1                          
if            "${twgcount} != $(v_i)" then "jump MDPBB.in loop"
# Otherwise insert the chain directly above the chosen wall atom pointing perpendicular to the wall
create_atoms  1 single ${x0} ${y0} ${z0} mol bs 24987 units box remap yes rotate 0 0 0 1
create_atoms  1 single 24.6047163055071 ${y0} ${z0} mol bs 24987 units box remap yes rotate 0 0 0 1
create_atoms  1 single 24.6047163055071 15.874010519682 ${z0} mol bs 24987 units box remap yes rotate 0 0 0 1
create_atoms  1 single 24.6047163055071 15.874010519682 17 mol bs 24987 units box remap yes rotate 0 0 0 1
Created 30 atoms
  create_atoms CPU = 9.58e-05 secs
variable      check1 equal ${check}               # Count the new total number of atoms
variable      check1 equal 3282               
# Check that the molecule has indeed been inserted (This check is no longer an issue).
if            "${check1} != ${check0}" then "create_bonds  single/bond 2 ${randatomi} $b" "next i"
create_bonds  single/bond 2 ${randatomi} $b
create_bonds  single/bond 2 2079 $b
create_bonds  single/bond 2 2079 3253
  2 = max # of 1-2 neighbors
  5 = max # of special neighbors
  special bonds CPU = 0.0068958 secs
next i
jump MDPBB.in loop    # End of the loop
variable      randni equal round(random(1,${ntwall},$s))  # Pick a random "top" wall atom
variable      randni equal round(random(1,2592,$s))  
variable      randni equal round(random(1,2592,234897))  
variable      randatomi equal ${randni}                   # This is to obtain an integer number for atom-id
variable      randatomi equal 1644                   
variable      randzi equal z[${randatomi}]                # Determine the z coordinate of the chosen atom
variable      randzi equal z[1644]                
# if the chosen atom is not a surface atom then restart the loop
if            "${randzi} < $(v_wthick - 0.7)" then "jump MDPBB.in loop"
set           atom ${randatomi} type 4                    # Set this grafted wall atom as a new type
set           atom 1644 type 4                    
  1 settings made for type
group         twg id ${randatomi}                         # Add this atom to a top-wall-grafted group
group         twg id 1644                         
24 atoms in group twg
variable      twgcount equal count(twg)
print         "twg contains ${twgcount}"
twg contains 24
print         "i = $(v_i)"                                # The index i should always be equal to the number of atom in twg
i = 24
variable      x0 equal x[${randatomi}]                    # Determine its x-coord
variable      x0 equal x[1644]                    
variable      y0 equal y[${randatomi}]                    # Determine its y-coord
variable      y0 equal y[1644]                    
variable      check0 equal ${check}                       # Count the number of atoms in the simulation
variable      check0 equal 3282                       
variable      b equal ${check}+1                          # The grafted bead id will be one higher after being inserted
variable      b equal 3282+1                          
if            "${twgcount} != $(v_i)" then "jump MDPBB.in loop"
# Otherwise insert the chain directly above the chosen wall atom pointing perpendicular to the wall
create_atoms  1 single ${x0} ${y0} ${z0} mol bs 24987 units box remap yes rotate 0 0 0 1
create_atoms  1 single 22.2236147275548 ${y0} ${z0} mol bs 24987 units box remap yes rotate 0 0 0 1
create_atoms  1 single 22.2236147275548 7.1433047338569 ${z0} mol bs 24987 units box remap yes rotate 0 0 0 1
create_atoms  1 single 22.2236147275548 7.1433047338569 17 mol bs 24987 units box remap yes rotate 0 0 0 1
Created 30 atoms
  create_atoms CPU = 0.0001027 secs
variable      check1 equal ${check}               # Count the new total number of atoms
variable      check1 equal 3312               
# Check that the molecule has indeed been inserted (This check is no longer an issue).
if            "${check1} != ${check0}" then "create_bonds  single/bond 2 ${randatomi} $b" "next i"
create_bonds  single/bond 2 ${randatomi} $b
create_bonds  single/bond 2 1644 $b
create_bonds  single/bond 2 1644 3283
  2 = max # of 1-2 neighbors
  5 = max # of special neighbors
  special bonds CPU = 0.0041497 secs
next i
jump MDPBB.in loop    # End of the loop
variable      randni equal round(random(1,${ntwall},$s))  # Pick a random "top" wall atom
variable      randni equal round(random(1,2592,$s))  
variable      randni equal round(random(1,2592,234897))  
variable      randatomi equal ${randni}                   # This is to obtain an integer number for atom-id
variable      randatomi equal 586                   
variable      randzi equal z[${randatomi}]                # Determine the z coordinate of the chosen atom
variable      randzi equal z[586]                
# if the chosen atom is not a surface atom then restart the loop
if            "${randzi} < $(v_wthick - 0.7)" then "jump MDPBB.in loop"
jump MDPBB.in loop
variable      randni equal round(random(1,${ntwall},$s))  # Pick a random "top" wall atom
variable      randni equal round(random(1,2592,$s))  
variable      randni equal round(random(1,2592,234897))  
variable      randatomi equal ${randni}                   # This is to obtain an integer number for atom-id
variable      randatomi equal 836                   
variable      randzi equal z[${randatomi}]                # Determine the z coordinate of the chosen atom
variable      randzi equal z[836]                
# if the chosen atom is not a surface atom then restart the loop
if            "${randzi} < $(v_wthick - 0.7)" then "jump MDPBB.in loop"
jump MDPBB.in loop
variable      randni equal round(random(1,${ntwall},$s))  # Pick a random "top" wall atom
variable      randni equal round(random(1,2592,$s))  
variable      randni equal round(random(1,2592,234897))  
variable      randatomi equal ${randni}                   # This is to obtain an integer number for atom-id
variable      randatomi equal 699                   
variable      randzi equal z[${randatomi}]                # Determine the z coordinate of the chosen atom
variable      randzi equal z[699]                
# if the chosen atom is not a surface atom then restart the loop
if            "${randzi} < $(v_wthick - 0.7)" then "jump MDPBB.in loop"
jump MDPBB.in loop
variable      randni equal round(random(1,${ntwall},$s))  # Pick a random "top" wall atom
variable      randni equal round(random(1,2592,$s))  
variable      randni equal round(random(1,2592,234897))  
variable      randatomi equal ${randni}                   # This is to obtain an integer number for atom-id
variable      randatomi equal 2040                   
variable      randzi equal z[${randatomi}]                # Determine the z coordinate of the chosen atom
variable      randzi equal z[2040]                
# if the chosen atom is not a surface atom then restart the loop
if            "${randzi} < $(v_wthick - 0.7)" then "jump MDPBB.in loop"
set           atom ${randatomi} type 4                    # Set this grafted wall atom as a new type
set           atom 2040 type 4                    
  1 settings made for type
group         twg id ${randatomi}                         # Add this atom to a top-wall-grafted group
group         twg id 2040                         
25 atoms in group twg
variable      twgcount equal count(twg)
print         "twg contains ${twgcount}"
twg contains 25
print         "i = $(v_i)"                                # The index i should always be equal to the number of atom in twg
i = 25
variable      x0 equal x[${randatomi}]                    # Determine its x-coord
variable      x0 equal x[2040]                    
variable      y0 equal y[${randatomi}]                    # Determine its y-coord
variable      y0 equal y[2040]                    
variable      check0 equal ${check}                       # Count the number of atoms in the simulation
variable      check0 equal 3312                       
variable      b equal ${check}+1                          # The grafted bead id will be one higher after being inserted
variable      b equal 3312+1                          
if            "${twgcount} != $(v_i)" then "jump MDPBB.in loop"
# Otherwise insert the chain directly above the chosen wall atom pointing perpendicular to the wall
create_atoms  1 single ${x0} ${y0} ${z0} mol bs 24987 units box remap yes rotate 0 0 0 1
create_atoms  1 single 7.937005259841 ${y0} ${z0} mol bs 24987 units box remap yes rotate 0 0 0 1
create_atoms  1 single 7.937005259841 16.6677110456661 ${z0} mol bs 24987 units box remap yes rotate 0 0 0 1
create_atoms  1 single 7.937005259841 16.6677110456661 17 mol bs 24987 units box remap yes rotate 0 0 0 1
Created 30 atoms
  create_atoms CPU = 0.0001467 secs
variable      check1 equal ${check}               # Count the new total number of atoms
variable      check1 equal 3342               
# Check that the molecule has indeed been inserted (This check is no longer an issue).
if            "${check1} != ${check0}" then "create_bonds  single/bond 2 ${randatomi} $b" "next i"
create_bonds  single/bond 2 ${randatomi} $b
create_bonds  single/bond 2 2040 $b
create_bonds  single/bond 2 2040 3313
  2 = max # of 1-2 neighbors
  5 = max # of special neighbors
  special bonds CPU = 0.0024961 secs
next i
jump MDPBB.in loop    # End of the loop
variable      randni equal round(random(1,${ntwall},$s))  # Pick a random "top" wall atom
variable      randni equal round(random(1,2592,$s))  
variable      randni equal round(random(1,2592,234897))  
variable      randatomi equal ${randni}                   # This is to obtain an integer number for atom-id
variable      randatomi equal 2257                   
variable      randzi equal z[${randatomi}]                # Determine the z coordinate of the chosen atom
variable      randzi equal z[2257]                
# if the chosen atom is not a surface atom then restart the loop
if            "${randzi} < $(v_wthick - 0.7)" then "jump MDPBB.in loop"
jump MDPBB.in loop
variable      randni equal round(random(1,${ntwall},$s))  # Pick a random "top" wall atom
variable      randni equal round(random(1,2592,$s))  
variable      randni equal round(random(1,2592,234897))  
variable      randatomi equal ${randni}                   # This is to obtain an integer number for atom-id
variable      randatomi equal 1127                   
variable      randzi equal z[${randatomi}]                # Determine the z coordinate of the chosen atom
variable      randzi equal z[1127]                
# if the chosen atom is not a surface atom then restart the loop
if            "${randzi} < $(v_wthick - 0.7)" then "jump MDPBB.in loop"
jump MDPBB.in loop
variable      randni equal round(random(1,${ntwall},$s))  # Pick a random "top" wall atom
variable      randni equal round(random(1,2592,$s))  
variable      randni equal round(random(1,2592,234897))  
variable      randatomi equal ${randni}                   # This is to obtain an integer number for atom-id
variable      randatomi equal 2587                   
variable      randzi equal z[${randatomi}]                # Determine the z coordinate of the chosen atom
variable      randzi equal z[2587]                
# if the chosen atom is not a surface atom then restart the loop
if            "${randzi} < $(v_wthick - 0.7)" then "jump MDPBB.in loop"
set           atom ${randatomi} type 4                    # Set this grafted wall atom as a new type
set           atom 2587 type 4                    
  1 settings made for type
group         twg id ${randatomi}                         # Add this atom to a top-wall-grafted group
group         twg id 2587                         
26 atoms in group twg
variable      twgcount equal count(twg)
print         "twg contains ${twgcount}"
twg contains 26
print         "i = $(v_i)"                                # The index i should always be equal to the number of atom in twg
i = 26
variable      x0 equal x[${randatomi}]                    # Determine its x-coord
variable      x0 equal x[2587]                    
variable      y0 equal y[${randatomi}]                    # Determine its y-coord
variable      y0 equal y[2587]                    
variable      check0 equal ${check}                       # Count the number of atoms in the simulation
variable      check0 equal 3342                       
variable      b equal ${check}+1                          # The grafted bead id will be one higher after being inserted
variable      b equal 3342+1                          
if            "${twgcount} != $(v_i)" then "jump MDPBB.in loop"
# Otherwise insert the chain directly above the chosen wall atom pointing perpendicular to the wall
create_atoms  1 single ${x0} ${y0} ${z0} mol bs 24987 units box remap yes rotate 0 0 0 1
create_atoms  1 single 26.1921173574753 ${y0} ${z0} mol bs 24987 units box remap yes rotate 0 0 0 1
create_atoms  1 single 26.1921173574753 26.9858178834594 ${z0} mol bs 24987 units box remap yes rotate 0 0 0 1
create_atoms  1 single 26.1921173574753 26.9858178834594 17 mol bs 24987 units box remap yes rotate 0 0 0 1
Created 30 atoms
  create_atoms CPU = 7.82e-05 secs
variable      check1 equal ${check}               # Count the new total number of atoms
variable      check1 equal 3372               
# Check that the molecule has indeed been inserted (This check is no longer an issue).
if            "${check1} != ${check0}" then "create_bonds  single/bond 2 ${randatomi} $b" "next i"
create_bonds  single/bond 2 ${randatomi} $b
create_bonds  single/bond 2 2587 $b
create_bonds  single/bond 2 2587 3343
  2 = max # of 1-2 neighbors
  5 = max # of special neighbors
  special bonds CPU = 0.0037946 secs
next i
jump MDPBB.in loop    # End of the loop
variable      randni equal round(random(1,${ntwall},$s))  # Pick a random "top" wall atom
variable      randni equal round(random(1,2592,$s))  
variable      randni equal round(random(1,2592,234897))  
variable      randatomi equal ${randni}                   # This is to obtain an integer number for atom-id
variable      randatomi equal 1690                   
variable      randzi equal z[${randatomi}]                # Determine the z coordinate of the chosen atom
variable      randzi equal z[1690]                
# if the chosen atom is not a surface atom then restart the loop
if            "${randzi} < $(v_wthick - 0.7)" then "jump MDPBB.in loop"
jump MDPBB.in loop
variable      randni equal round(random(1,${ntwall},$s))  # Pick a random "top" wall atom
variable      randni equal round(random(1,2592,$s))  
variable      randni equal round(random(1,2592,234897))  
variable      randatomi equal ${randni}                   # This is to obtain an integer number for atom-id
variable      randatomi equal 2374                   
variable      randzi equal z[${randatomi}]                # Determine the z coordinate of the chosen atom
variable      randzi equal z[2374]                
# if the chosen atom is not a surface atom then restart the loop
if            "${randzi} < $(v_wthick - 0.7)" then "jump MDPBB.in loop"
jump MDPBB.in loop
variable      randni equal round(random(1,${ntwall},$s))  # Pick a random "top" wall atom
variable      randni equal round(random(1,2592,$s))  
variable      randni equal round(random(1,2592,234897))  
variable      randatomi equal ${randni}                   # This is to obtain an integer number for atom-id
variable      randatomi equal 1116                   
variable      randzi equal z[${randatomi}]                # Determine the z coordinate of the chosen atom
variable      randzi equal z[1116]                
# if the chosen atom is not a surface atom then restart the loop
if            "${randzi} < $(v_wthick - 0.7)" then "jump MDPBB.in loop"
jump MDPBB.in loop
variable      randni equal round(random(1,${ntwall},$s))  # Pick a random "top" wall atom
variable      randni equal round(random(1,2592,$s))  
variable      randni equal round(random(1,2592,234897))  
variable      randatomi equal ${randni}                   # This is to obtain an integer number for atom-id
variable      randatomi equal 1406                   
variable      randzi equal z[${randatomi}]                # Determine the z coordinate of the chosen atom
variable      randzi equal z[1406]                
# if the chosen atom is not a surface atom then restart the loop
if            "${randzi} < $(v_wthick - 0.7)" then "jump MDPBB.in loop"
jump MDPBB.in loop
variable      randni equal round(random(1,${ntwall},$s))  # Pick a random "top" wall atom
variable      randni equal round(random(1,2592,$s))  
variable      randni equal round(random(1,2592,234897))  
variable      randatomi equal ${randni}                   # This is to obtain an integer number for atom-id
variable      randatomi equal 1897                   
variable      randzi equal z[${randatomi}]                # Determine the z coordinate of the chosen atom
variable      randzi equal z[1897]                
# if the chosen atom is not a surface atom then restart the loop
if            "${randzi} < $(v_wthick - 0.7)" then "jump MDPBB.in loop"
jump MDPBB.in loop
variable      randni equal round(random(1,${ntwall},$s))  # Pick a random "top" wall atom
variable      randni equal round(random(1,2592,$s))  
variable      randni equal round(random(1,2592,234897))  
variable      randatomi equal ${randni}                   # This is to obtain an integer number for atom-id
variable      randatomi equal 1123                   
variable      randzi equal z[${randatomi}]                # Determine the z coordinate of the chosen atom
variable      randzi equal z[1123]                
# if the chosen atom is not a surface atom then restart the loop
if            "${randzi} < $(v_wthick - 0.7)" then "jump MDPBB.in loop"
jump MDPBB.in loop
variable      randni equal round(random(1,${ntwall},$s))  # Pick a random "top" wall atom
variable      randni equal round(random(1,2592,$s))  
variable      randni equal round(random(1,2592,234897))  
variable      randatomi equal ${randni}                   # This is to obtain an integer number for atom-id
variable      randatomi equal 760                   
variable      randzi equal z[${randatomi}]                # Determine the z coordinate of the chosen atom
variable      randzi equal z[760]                
# if the chosen atom is not a surface atom then restart the loop
if            "${randzi} < $(v_wthick - 0.7)" then "jump MDPBB.in loop"
jump MDPBB.in loop
variable      randni equal round(random(1,${ntwall},$s))  # Pick a random "top" wall atom
variable      randni equal round(random(1,2592,$s))  
variable      randni equal round(random(1,2592,234897))  
variable      randatomi equal ${randni}                   # This is to obtain an integer number for atom-id
variable      randatomi equal 36                   
variable      randzi equal z[${randatomi}]                # Determine the z coordinate of the chosen atom
variable      randzi equal z[36]                
# if the chosen atom is not a surface atom then restart the loop
if            "${randzi} < $(v_wthick - 0.7)" then "jump MDPBB.in loop"
jump MDPBB.in loop
variable      randni equal round(random(1,${ntwall},$s))  # Pick a random "top" wall atom
variable      randni equal round(random(1,2592,$s))  
variable      randni equal round(random(1,2592,234897))  
variable      randatomi equal ${randni}                   # This is to obtain an integer number for atom-id
variable      randatomi equal 389                   
variable      randzi equal z[${randatomi}]                # Determine the z coordinate of the chosen atom
variable      randzi equal z[389]                
# if the chosen atom is not a surface atom then restart the loop
if            "${randzi} < $(v_wthick - 0.7)" then "jump MDPBB.in loop"
jump MDPBB.in loop
variable      randni equal round(random(1,${ntwall},$s))  # Pick a random "top" wall atom
variable      randni equal round(random(1,2592,$s))  
variable      randni equal round(random(1,2592,234897))  
variable      randatomi equal ${randni}                   # This is to obtain an integer number for atom-id
variable      randatomi equal 1494                   
variable      randzi equal z[${randatomi}]                # Determine the z coordinate of the chosen atom
variable      randzi equal z[1494]                
# if the chosen atom is not a surface atom then restart the loop
if            "${randzi} < $(v_wthick - 0.7)" then "jump MDPBB.in loop"
jump MDPBB.in loop
variable      randni equal round(random(1,${ntwall},$s))  # Pick a random "top" wall atom
variable      randni equal round(random(1,2592,$s))  
variable      randni equal round(random(1,2592,234897))  
variable      randatomi equal ${randni}                   # This is to obtain an integer number for atom-id
variable      randatomi equal 275                   
variable      randzi equal z[${randatomi}]                # Determine the z coordinate of the chosen atom
variable      randzi equal z[275]                
# if the chosen atom is not a surface atom then restart the loop
if            "${randzi} < $(v_wthick - 0.7)" then "jump MDPBB.in loop"
jump MDPBB.in loop
variable      randni equal round(random(1,${ntwall},$s))  # Pick a random "top" wall atom
variable      randni equal round(random(1,2592,$s))  
variable      randni equal round(random(1,2592,234897))  
variable      randatomi equal ${randni}                   # This is to obtain an integer number for atom-id
variable      randatomi equal 1315                   
variable      randzi equal z[${randatomi}]                # Determine the z coordinate of the chosen atom
variable      randzi equal z[1315]                
# if the chosen atom is not a surface atom then restart the loop
if            "${randzi} < $(v_wthick - 0.7)" then "jump MDPBB.in loop"
set           atom ${randatomi} type 4                    # Set this grafted wall atom as a new type
set           atom 1315 type 4                    
  1 settings made for type
group         twg id ${randatomi}                         # Add this atom to a top-wall-grafted group
group         twg id 1315                         
27 atoms in group twg
variable      twgcount equal count(twg)
print         "twg contains ${twgcount}"
twg contains 27
print         "i = $(v_i)"                                # The index i should always be equal to the number of atom in twg
i = 27
variable      x0 equal x[${randatomi}]                    # Determine its x-coord
variable      x0 equal x[1315]                    
variable      y0 equal y[${randatomi}]                    # Determine its y-coord
variable      y0 equal y[1315]                    
variable      check0 equal ${check}                       # Count the number of atoms in the simulation
variable      check0 equal 3372                       
variable      b equal ${check}+1                          # The grafted bead id will be one higher after being inserted
variable      b equal 3372+1                          
if            "${twgcount} != $(v_i)" then "jump MDPBB.in loop"
# Otherwise insert the chain directly above the chosen wall atom pointing perpendicular to the wall
create_atoms  1 single ${x0} ${y0} ${z0} mol bs 24987 units box remap yes rotate 0 0 0 1
create_atoms  1 single 7.1433047338569 ${y0} ${z0} mol bs 24987 units box remap yes rotate 0 0 0 1
create_atoms  1 single 7.1433047338569 0 ${z0} mol bs 24987 units box remap yes rotate 0 0 0 1
create_atoms  1 single 7.1433047338569 0 17 mol bs 24987 units box remap yes rotate 0 0 0 1
Created 30 atoms
  create_atoms CPU = 8.32e-05 secs
variable      check1 equal ${check}               # Count the new total number of atoms
variable      check1 equal 3402               
# Check that the molecule has indeed been inserted (This check is no longer an issue).
if            "${check1} != ${check0}" then "create_bonds  single/bond 2 ${randatomi} $b" "next i"
create_bonds  single/bond 2 ${randatomi} $b
create_bonds  single/bond 2 1315 $b
create_bonds  single/bond 2 1315 3373
  2 = max # of 1-2 neighbors
  5 = max # of special neighbors
  special bonds CPU = 0.0043645 secs
next i
jump MDPBB.in loop    # End of the loop
variable      randni equal round(random(1,${ntwall},$s))  # Pick a random "top" wall atom
variable      randni equal round(random(1,2592,$s))  
variable      randni equal round(random(1,2592,234897))  
variable      randatomi equal ${randni}                   # This is to obtain an integer number for atom-id
variable      randatomi equal 467                   
variable      randzi equal z[${randatomi}]                # Determine the z coordinate of the chosen atom
variable      randzi equal z[467]                
# if the chosen atom is not a surface atom then restart the loop
if            "${randzi} < $(v_wthick - 0.7)" then "jump MDPBB.in loop"
jump MDPBB.in loop
variable      randni equal round(random(1,${ntwall},$s))  # Pick a random "top" wall atom
variable      randni equal round(random(1,2592,$s))  
variable      randni equal round(random(1,2592,234897))  
variable      randatomi equal ${randni}                   # This is to obtain an integer number for atom-id
variable      randatomi equal 852                   
variable      randzi equal z[${randatomi}]                # Determine the z coordinate of the chosen atom
variable      randzi equal z[852]                
# if the chosen atom is not a surface atom then restart the loop
if            "${randzi} < $(v_wthick - 0.7)" then "jump MDPBB.in loop"
jump MDPBB.in loop
variable      randni equal round(random(1,${ntwall},$s))  # Pick a random "top" wall atom
variable      randni equal round(random(1,2592,$s))  
variable      randni equal round(random(1,2592,234897))  
variable      randatomi equal ${randni}                   # This is to obtain an integer number for atom-id
variable      randatomi equal 100                   
variable      randzi equal z[${randatomi}]                # Determine the z coordinate of the chosen atom
variable      randzi equal z[100]                
# if the chosen atom is not a surface atom then restart the loop
if            "${randzi} < $(v_wthick - 0.7)" then "jump MDPBB.in loop"
jump MDPBB.in loop
variable      randni equal round(random(1,${ntwall},$s))  # Pick a random "top" wall atom
variable      randni equal round(random(1,2592,$s))  
variable      randni equal round(random(1,2592,234897))  
variable      randatomi equal ${randni}                   # This is to obtain an integer number for atom-id
variable      randatomi equal 2435                   
variable      randzi equal z[${randatomi}]                # Determine the z coordinate of the chosen atom
variable      randzi equal z[2435]                
# if the chosen atom is not a surface atom then restart the loop
if            "${randzi} < $(v_wthick - 0.7)" then "jump MDPBB.in loop"
set           atom ${randatomi} type 4                    # Set this grafted wall atom as a new type
set           atom 2435 type 4                    
  1 settings made for type
group         twg id ${randatomi}                         # Add this atom to a top-wall-grafted group
group         twg id 2435                         
27 atoms in group twg
variable      twgcount equal count(twg)
print         "twg contains ${twgcount}"
twg contains 27
print         "i = $(v_i)"                                # The index i should always be equal to the number of atom in twg
i = 28
variable      x0 equal x[${randatomi}]                    # Determine its x-coord
variable      x0 equal x[2435]                    
variable      y0 equal y[${randatomi}]                    # Determine its y-coord
variable      y0 equal y[2435]                    
variable      check0 equal ${check}                       # Count the number of atoms in the simulation
variable      check0 equal 3402                       
variable      b equal ${check}+1                          # The grafted bead id will be one higher after being inserted
variable      b equal 3402+1                          
if            "${twgcount} != $(v_i)" then "jump MDPBB.in loop"
jump MDPBB.in loop
variable      randni equal round(random(1,${ntwall},$s))  # Pick a random "top" wall atom
variable      randni equal round(random(1,2592,$s))  
variable      randni equal round(random(1,2592,234897))  
variable      randatomi equal ${randni}                   # This is to obtain an integer number for atom-id
variable      randatomi equal 892                   
variable      randzi equal z[${randatomi}]                # Determine the z coordinate of the chosen atom
variable      randzi equal z[892]                
# if the chosen atom is not a surface atom then restart the loop
if            "${randzi} < $(v_wthick - 0.7)" then "jump MDPBB.in loop"
jump MDPBB.in loop
variable      randni equal round(random(1,${ntwall},$s))  # Pick a random "top" wall atom
variable      randni equal round(random(1,2592,$s))  
variable      randni equal round(random(1,2592,234897))  
variable      randatomi equal ${randni}                   # This is to obtain an integer number for atom-id
variable      randatomi equal 936                   
variable      randzi equal z[${randatomi}]                # Determine the z coordinate of the chosen atom
variable      randzi equal z[936]                
# if the chosen atom is not a surface atom then restart the loop
if            "${randzi} < $(v_wthick - 0.7)" then "jump MDPBB.in loop"
jump MDPBB.in loop
variable      randni equal round(random(1,${ntwall},$s))  # Pick a random "top" wall atom
variable      randni equal round(random(1,2592,$s))  
variable      randni equal round(random(1,2592,234897))  
variable      randatomi equal ${randni}                   # This is to obtain an integer number for atom-id
variable      randatomi equal 1264                   
variable      randzi equal z[${randatomi}]                # Determine the z coordinate of the chosen atom
variable      randzi equal z[1264]                
# if the chosen atom is not a surface atom then restart the loop
if            "${randzi} < $(v_wthick - 0.7)" then "jump MDPBB.in loop"
jump MDPBB.in loop
variable      randni equal round(random(1,${ntwall},$s))  # Pick a random "top" wall atom
variable      randni equal round(random(1,2592,$s))  
variable      randni equal round(random(1,2592,234897))  
variable      randatomi equal ${randni}                   # This is to obtain an integer number for atom-id
variable      randatomi equal 1906                   
variable      randzi equal z[${randatomi}]                # Determine the z coordinate of the chosen atom
variable      randzi equal z[1906]                
# if the chosen atom is not a surface atom then restart the loop
if            "${randzi} < $(v_wthick - 0.7)" then "jump MDPBB.in loop"
jump MDPBB.in loop
variable      randni equal round(random(1,${ntwall},$s))  # Pick a random "top" wall atom
variable      randni equal round(random(1,2592,$s))  
variable      randni equal round(random(1,2592,234897))  
variable      randatomi equal ${randni}                   # This is to obtain an integer number for atom-id
variable      randatomi equal 476                   
variable      randzi equal z[${randatomi}]                # Determine the z coordinate of the chosen atom
variable      randzi equal z[476]                
# if the chosen atom is not a surface atom then restart the loop
if            "${randzi} < $(v_wthick - 0.7)" then "jump MDPBB.in loop"
jump MDPBB.in loop
variable      randni equal round(random(1,${ntwall},$s))  # Pick a random "top" wall atom
variable      randni equal round(random(1,2592,$s))  
variable      randni equal round(random(1,2592,234897))  
variable      randatomi equal ${randni}                   # This is to obtain an integer number for atom-id
variable      randatomi equal 1310                   
variable      randzi equal z[${randatomi}]                # Determine the z coordinate of the chosen atom
variable      randzi equal z[1310]                
# if the chosen atom is not a surface atom then restart the loop
if            "${randzi} < $(v_wthick - 0.7)" then "jump MDPBB.in loop"
jump MDPBB.in loop
variable      randni equal round(random(1,${ntwall},$s))  # Pick a random "top" wall atom
variable      randni equal round(random(1,2592,$s))  
variable      randni equal round(random(1,2592,234897))  
variable      randatomi equal ${randni}                   # This is to obtain an integer number for atom-id
variable      randatomi equal 1243                   
variable      randzi equal z[${randatomi}]                # Determine the z coordinate of the chosen atom
variable      randzi equal z[1243]                
# if the chosen atom is not a surface atom then restart the loop
if            "${randzi} < $(v_wthick - 0.7)" then "jump MDPBB.in loop"
jump MDPBB.in loop
variable      randni equal round(random(1,${ntwall},$s))  # Pick a random "top" wall atom
variable      randni equal round(random(1,2592,$s))  
variable      randni equal round(random(1,2592,234897))  
variable      randatomi equal ${randni}                   # This is to obtain an integer number for atom-id
variable      randatomi equal 2393                   
variable      randzi equal z[${randatomi}]                # Determine the z coordinate of the chosen atom
variable      randzi equal z[2393]                
# if the chosen atom is not a surface atom then restart the loop
if            "${randzi} < $(v_wthick - 0.7)" then "jump MDPBB.in loop"
jump MDPBB.in loop
variable      randni equal round(random(1,${ntwall},$s))  # Pick a random "top" wall atom
variable      randni equal round(random(1,2592,$s))  
variable      randni equal round(random(1,2592,234897))  
variable      randatomi equal ${randni}                   # This is to obtain an integer number for atom-id
variable      randatomi equal 631                   
variable      randzi equal z[${randatomi}]                # Determine the z coordinate of the chosen atom
variable      randzi equal z[631]                
# if the chosen atom is not a surface atom then restart the loop
if            "${randzi} < $(v_wthick - 0.7)" then "jump MDPBB.in loop"
jump MDPBB.in loop
variable      randni equal round(random(1,${ntwall},$s))  # Pick a random "top" wall atom
variable      randni equal round(random(1,2592,$s))  
variable      randni equal round(random(1,2592,234897))  
variable      randatomi equal ${randni}                   # This is to obtain an integer number for atom-id
variable      randatomi equal 1603                   
variable      randzi equal z[${randatomi}]                # Determine the z coordinate of the chosen atom
variable      randzi equal z[1603]                
# if the chosen atom is not a surface atom then restart the loop
if            "${randzi} < $(v_wthick - 0.7)" then "jump MDPBB.in loop"
set           atom ${randatomi} type 4                    # Set this grafted wall atom as a new type
set           atom 1603 type 4                    
  1 settings made for type
group         twg id ${randatomi}                         # Add this atom to a top-wall-grafted group
group         twg id 1603                         
28 atoms in group twg
variable      twgcount equal count(twg)
print         "twg contains ${twgcount}"
twg contains 28
print         "i = $(v_i)"                                # The index i should always be equal to the number of atom in twg
i = 28
variable      x0 equal x[${randatomi}]                    # Determine its x-coord
variable      x0 equal x[1603]                    
variable      y0 equal y[${randatomi}]                    # Determine its y-coord
variable      y0 equal y[1603]                    
variable      check0 equal ${check}                       # Count the number of atoms in the simulation
variable      check0 equal 3402                       
variable      b equal ${check}+1                          # The grafted bead id will be one higher after being inserted
variable      b equal 3402+1                          
if            "${twgcount} != $(v_i)" then "jump MDPBB.in loop"
# Otherwise insert the chain directly above the chosen wall atom pointing perpendicular to the wall
create_atoms  1 single ${x0} ${y0} ${z0} mol bs 24987 units box remap yes rotate 0 0 0 1
create_atoms  1 single 7.1433047338569 ${y0} ${z0} mol bs 24987 units box remap yes rotate 0 0 0 1
create_atoms  1 single 7.1433047338569 6.3496042078728 ${z0} mol bs 24987 units box remap yes rotate 0 0 0 1
create_atoms  1 single 7.1433047338569 6.3496042078728 17 mol bs 24987 units box remap yes rotate 0 0 0 1
Created 30 atoms
  create_atoms CPU = 0.0001142 secs
variable      check1 equal ${check}               # Count the new total number of atoms
variable      check1 equal 3432               
# Check that the molecule has indeed been inserted (This check is no longer an issue).
if            "${check1} != ${check0}" then "create_bonds  single/bond 2 ${randatomi} $b" "next i"
create_bonds  single/bond 2 ${randatomi} $b
create_bonds  single/bond 2 1603 $b
create_bonds  single/bond 2 1603 3403
  2 = max # of 1-2 neighbors
  5 = max # of special neighbors
  special bonds CPU = 0.0047488 secs
next i
jump MDPBB.in loop    # End of the loop
variable      randni equal round(random(1,${ntwall},$s))  # Pick a random "top" wall atom
variable      randni equal round(random(1,2592,$s))  
variable      randni equal round(random(1,2592,234897))  
variable      randatomi equal ${randni}                   # This is to obtain an integer number for atom-id
variable      randatomi equal 555                   
variable      randzi equal z[${randatomi}]                # Determine the z coordinate of the chosen atom
variable      randzi equal z[555]                
# if the chosen atom is not a surface atom then restart the loop
if            "${randzi} < $(v_wthick - 0.7)" then "jump MDPBB.in loop"
jump MDPBB.in loop
variable      randni equal round(random(1,${ntwall},$s))  # Pick a random "top" wall atom
variable      randni equal round(random(1,2592,$s))  
variable      randni equal round(random(1,2592,234897))  
variable      randatomi equal ${randni}                   # This is to obtain an integer number for atom-id
variable      randatomi equal 2309                   
variable      randzi equal z[${randatomi}]                # Determine the z coordinate of the chosen atom
variable      randzi equal z[2309]                
# if the chosen atom is not a surface atom then restart the loop
if            "${randzi} < $(v_wthick - 0.7)" then "jump MDPBB.in loop"
jump MDPBB.in loop
variable      randni equal round(random(1,${ntwall},$s))  # Pick a random "top" wall atom
variable      randni equal round(random(1,2592,$s))  
variable      randni equal round(random(1,2592,234897))  
variable      randatomi equal ${randni}                   # This is to obtain an integer number for atom-id
variable      randatomi equal 461                   
variable      randzi equal z[${randatomi}]                # Determine the z coordinate of the chosen atom
variable      randzi equal z[461]                
# if the chosen atom is not a surface atom then restart the loop
if            "${randzi} < $(v_wthick - 0.7)" then "jump MDPBB.in loop"
jump MDPBB.in loop
variable      randni equal round(random(1,${ntwall},$s))  # Pick a random "top" wall atom
variable      randni equal round(random(1,2592,$s))  
variable      randni equal round(random(1,2592,234897))  
variable      randatomi equal ${randni}                   # This is to obtain an integer number for atom-id
variable      randatomi equal 823                   
variable      randzi equal z[${randatomi}]                # Determine the z coordinate of the chosen atom
variable      randzi equal z[823]                
# if the chosen atom is not a surface atom then restart the loop
if            "${randzi} < $(v_wthick - 0.7)" then "jump MDPBB.in loop"
jump MDPBB.in loop
variable      randni equal round(random(1,${ntwall},$s))  # Pick a random "top" wall atom
variable      randni equal round(random(1,2592,$s))  
variable      randni equal round(random(1,2592,234897))  
variable      randatomi equal ${randni}                   # This is to obtain an integer number for atom-id
variable      randatomi equal 986                   
variable      randzi equal z[${randatomi}]                # Determine the z coordinate of the chosen atom
variable      randzi equal z[986]                
# if the chosen atom is not a surface atom then restart the loop
if            "${randzi} < $(v_wthick - 0.7)" then "jump MDPBB.in loop"
jump MDPBB.in loop
variable      randni equal round(random(1,${ntwall},$s))  # Pick a random "top" wall atom
variable      randni equal round(random(1,2592,$s))  
variable      randni equal round(random(1,2592,234897))  
variable      randatomi equal ${randni}                   # This is to obtain an integer number for atom-id
variable      randatomi equal 1386                   
variable      randzi equal z[${randatomi}]                # Determine the z coordinate of the chosen atom
variable      randzi equal z[1386]                
# if the chosen atom is not a surface atom then restart the loop
if            "${randzi} < $(v_wthick - 0.7)" then "jump MDPBB.in loop"
jump MDPBB.in loop
variable      randni equal round(random(1,${ntwall},$s))  # Pick a random "top" wall atom
variable      randni equal round(random(1,2592,$s))  
variable      randni equal round(random(1,2592,234897))  
variable      randatomi equal ${randni}                   # This is to obtain an integer number for atom-id
variable      randatomi equal 1076                   
variable      randzi equal z[${randatomi}]                # Determine the z coordinate of the chosen atom
variable      randzi equal z[1076]                
# if the chosen atom is not a surface atom then restart the loop
if            "${randzi} < $(v_wthick - 0.7)" then "jump MDPBB.in loop"
jump MDPBB.in loop
variable      randni equal round(random(1,${ntwall},$s))  # Pick a random "top" wall atom
variable      randni equal round(random(1,2592,$s))  
variable      randni equal round(random(1,2592,234897))  
variable      randatomi equal ${randni}                   # This is to obtain an integer number for atom-id
variable      randatomi equal 2061                   
variable      randzi equal z[${randatomi}]                # Determine the z coordinate of the chosen atom
variable      randzi equal z[2061]                
# if the chosen atom is not a surface atom then restart the loop
if            "${randzi} < $(v_wthick - 0.7)" then "jump MDPBB.in loop"
jump MDPBB.in loop
variable      randni equal round(random(1,${ntwall},$s))  # Pick a random "top" wall atom
variable      randni equal round(random(1,2592,$s))  
variable      randni equal round(random(1,2592,234897))  
variable      randatomi equal ${randni}                   # This is to obtain an integer number for atom-id
variable      randatomi equal 1478                   
variable      randzi equal z[${randatomi}]                # Determine the z coordinate of the chosen atom
variable      randzi equal z[1478]                
# if the chosen atom is not a surface atom then restart the loop
if            "${randzi} < $(v_wthick - 0.7)" then "jump MDPBB.in loop"
jump MDPBB.in loop
variable      randni equal round(random(1,${ntwall},$s))  # Pick a random "top" wall atom
variable      randni equal round(random(1,2592,$s))  
variable      randni equal round(random(1,2592,234897))  
variable      randatomi equal ${randni}                   # This is to obtain an integer number for atom-id
variable      randatomi equal 1266                   
variable      randzi equal z[${randatomi}]                # Determine the z coordinate of the chosen atom
variable      randzi equal z[1266]                
# if the chosen atom is not a surface atom then restart the loop
if            "${randzi} < $(v_wthick - 0.7)" then "jump MDPBB.in loop"
jump MDPBB.in loop
variable      randni equal round(random(1,${ntwall},$s))  # Pick a random "top" wall atom
variable      randni equal round(random(1,2592,$s))  
variable      randni equal round(random(1,2592,234897))  
variable      randatomi equal ${randni}                   # This is to obtain an integer number for atom-id
variable      randatomi equal 1509                   
variable      randzi equal z[${randatomi}]                # Determine the z coordinate of the chosen atom
variable      randzi equal z[1509]                
# if the chosen atom is not a surface atom then restart the loop
if            "${randzi} < $(v_wthick - 0.7)" then "jump MDPBB.in loop"
jump MDPBB.in loop
variable      randni equal round(random(1,${ntwall},$s))  # Pick a random "top" wall atom
variable      randni equal round(random(1,2592,$s))  
variable      randni equal round(random(1,2592,234897))  
variable      randatomi equal ${randni}                   # This is to obtain an integer number for atom-id
variable      randatomi equal 167                   
variable      randzi equal z[${randatomi}]                # Determine the z coordinate of the chosen atom
variable      randzi equal z[167]                
# if the chosen atom is not a surface atom then restart the loop
if            "${randzi} < $(v_wthick - 0.7)" then "jump MDPBB.in loop"
jump MDPBB.in loop
variable      randni equal round(random(1,${ntwall},$s))  # Pick a random "top" wall atom
variable      randni equal round(random(1,2592,$s))  
variable      randni equal round(random(1,2592,234897))  
variable      randatomi equal ${randni}                   # This is to obtain an integer number for atom-id
variable      randatomi equal 300                   
variable      randzi equal z[${randatomi}]                # Determine the z coordinate of the chosen atom
variable      randzi equal z[300]                
# if the chosen atom is not a surface atom then restart the loop
if            "${randzi} < $(v_wthick - 0.7)" then "jump MDPBB.in loop"
jump MDPBB.in loop
variable      randni equal round(random(1,${ntwall},$s))  # Pick a random "top" wall atom
variable      randni equal round(random(1,2592,$s))  
variable      randni equal round(random(1,2592,234897))  
variable      randatomi equal ${randni}                   # This is to obtain an integer number for atom-id
variable      randatomi equal 1060                   
variable      randzi equal z[${randatomi}]                # Determine the z coordinate of the chosen atom
variable      randzi equal z[1060]                
# if the chosen atom is not a surface atom then restart the loop
if            "${randzi} < $(v_wthick - 0.7)" then "jump MDPBB.in loop"
jump MDPBB.in loop
variable      randni equal round(random(1,${ntwall},$s))  # Pick a random "top" wall atom
variable      randni equal round(random(1,2592,$s))  
variable      randni equal round(random(1,2592,234897))  
variable      randatomi equal ${randni}                   # This is to obtain an integer number for atom-id
variable      randatomi equal 887                   
variable      randzi equal z[${randatomi}]                # Determine the z coordinate of the chosen atom
variable      randzi equal z[887]                
# if the chosen atom is not a surface atom then restart the loop
if            "${randzi} < $(v_wthick - 0.7)" then "jump MDPBB.in loop"
jump MDPBB.in loop
variable      randni equal round(random(1,${ntwall},$s))  # Pick a random "top" wall atom
variable      randni equal round(random(1,2592,$s))  
variable      randni equal round(random(1,2592,234897))  
variable      randatomi equal ${randni}                   # This is to obtain an integer number for atom-id
variable      randatomi equal 990                   
variable      randzi equal z[${randatomi}]                # Determine the z coordinate of the chosen atom
variable      randzi equal z[990]                
# if the chosen atom is not a surface atom then restart the loop
if            "${randzi} < $(v_wthick - 0.7)" then "jump MDPBB.in loop"
jump MDPBB.in loop
variable      randni equal round(random(1,${ntwall},$s))  # Pick a random "top" wall atom
variable      randni equal round(random(1,2592,$s))  
variable      randni equal round(random(1,2592,234897))  
variable      randatomi equal ${randni}                   # This is to obtain an integer number for atom-id
variable      randatomi equal 1285                   
variable      randzi equal z[${randatomi}]                # Determine the z coordinate of the chosen atom
variable      randzi equal z[1285]                
# if the chosen atom is not a surface atom then restart the loop
if            "${randzi} < $(v_wthick - 0.7)" then "jump MDPBB.in loop"
jump MDPBB.in loop
variable      randni equal round(random(1,${ntwall},$s))  # Pick a random "top" wall atom
variable      randni equal round(random(1,2592,$s))  
variable      randni equal round(random(1,2592,234897))  
variable      randatomi equal ${randni}                   # This is to obtain an integer number for atom-id
variable      randatomi equal 2152                   
variable      randzi equal z[${randatomi}]                # Determine the z coordinate of the chosen atom
variable      randzi equal z[2152]                
# if the chosen atom is not a surface atom then restart the loop
if            "${randzi} < $(v_wthick - 0.7)" then "jump MDPBB.in loop"
set           atom ${randatomi} type 4                    # Set this grafted wall atom as a new type
set           atom 2152 type 4                    
  1 settings made for type
group         twg id ${randatomi}                         # Add this atom to a top-wall-grafted group
group         twg id 2152                         
28 atoms in group twg
variable      twgcount equal count(twg)
print         "twg contains ${twgcount}"
twg contains 28
print         "i = $(v_i)"                                # The index i should always be equal to the number of atom in twg
i = 29
variable      x0 equal x[${randatomi}]                    # Determine its x-coord
variable      x0 equal x[2152]                    
variable      y0 equal y[${randatomi}]                    # Determine its y-coord
variable      y0 equal y[2152]                    
variable      check0 equal ${check}                       # Count the number of atoms in the simulation
variable      check0 equal 3432                       
variable      b equal ${check}+1                          # The grafted bead id will be one higher after being inserted
variable      b equal 3432+1                          
if            "${twgcount} != $(v_i)" then "jump MDPBB.in loop"
jump MDPBB.in loop
variable      randni equal round(random(1,${ntwall},$s))  # Pick a random "top" wall atom
variable      randni equal round(random(1,2592,$s))  
variable      randni equal round(random(1,2592,234897))  
variable      randatomi equal ${randni}                   # This is to obtain an integer number for atom-id
variable      randatomi equal 2081                   
variable      randzi equal z[${randatomi}]                # Determine the z coordinate of the chosen atom
variable      randzi equal z[2081]                
# if the chosen atom is not a surface atom then restart the loop
if            "${randzi} < $(v_wthick - 0.7)" then "jump MDPBB.in loop"
jump MDPBB.in loop
variable      randni equal round(random(1,${ntwall},$s))  # Pick a random "top" wall atom
variable      randni equal round(random(1,2592,$s))  
variable      randni equal round(random(1,2592,234897))  
variable      randatomi equal ${randni}                   # This is to obtain an integer number for atom-id
variable      randatomi equal 2566                   
variable      randzi equal z[${randatomi}]                # Determine the z coordinate of the chosen atom
variable      randzi equal z[2566]                
# if the chosen atom is not a surface atom then restart the loop
if            "${randzi} < $(v_wthick - 0.7)" then "jump MDPBB.in loop"
jump MDPBB.in loop
variable      randni equal round(random(1,${ntwall},$s))  # Pick a random "top" wall atom
variable      randni equal round(random(1,2592,$s))  
variable      randni equal round(random(1,2592,234897))  
variable      randatomi equal ${randni}                   # This is to obtain an integer number for atom-id
variable      randatomi equal 261                   
variable      randzi equal z[${randatomi}]                # Determine the z coordinate of the chosen atom
variable      randzi equal z[261]                
# if the chosen atom is not a surface atom then restart the loop
if            "${randzi} < $(v_wthick - 0.7)" then "jump MDPBB.in loop"
jump MDPBB.in loop
variable      randni equal round(random(1,${ntwall},$s))  # Pick a random "top" wall atom
variable      randni equal round(random(1,2592,$s))  
variable      randni equal round(random(1,2592,234897))  
variable      randatomi equal ${randni}                   # This is to obtain an integer number for atom-id
variable      randatomi equal 1361                   
variable      randzi equal z[${randatomi}]                # Determine the z coordinate of the chosen atom
variable      randzi equal z[1361]                
# if the chosen atom is not a surface atom then restart the loop
if            "${randzi} < $(v_wthick - 0.7)" then "jump MDPBB.in loop"
jump MDPBB.in loop
variable      randni equal round(random(1,${ntwall},$s))  # Pick a random "top" wall atom
variable      randni equal round(random(1,2592,$s))  
variable      randni equal round(random(1,2592,234897))  
variable      randatomi equal ${randni}                   # This is to obtain an integer number for atom-id
variable      randatomi equal 2219                   
variable      randzi equal z[${randatomi}]                # Determine the z coordinate of the chosen atom
variable      randzi equal z[2219]                
# if the chosen atom is not a surface atom then restart the loop
if            "${randzi} < $(v_wthick - 0.7)" then "jump MDPBB.in loop"
set           atom ${randatomi} type 4                    # Set this grafted wall atom as a new type
set           atom 2219 type 4                    
  1 settings made for type
group         twg id ${randatomi}                         # Add this atom to a top-wall-grafted group
group         twg id 2219                         
29 atoms in group twg
variable      twgcount equal count(twg)
print         "twg contains ${twgcount}"
twg contains 29
print         "i = $(v_i)"                                # The index i should always be equal to the number of atom in twg
i = 29
variable      x0 equal x[${randatomi}]                    # Determine its x-coord
variable      x0 equal x[2219]                    
variable      y0 equal y[${randatomi}]                    # Determine its y-coord
variable      y0 equal y[2219]                    
variable      check0 equal ${check}                       # Count the number of atoms in the simulation
variable      check0 equal 3432                       
variable      b equal ${check}+1                          # The grafted bead id will be one higher after being inserted
variable      b equal 3432+1                          
if            "${twgcount} != $(v_i)" then "jump MDPBB.in loop"
# Otherwise insert the chain directly above the chosen wall atom pointing perpendicular to the wall
create_atoms  1 single ${x0} ${y0} ${z0} mol bs 24987 units box remap yes rotate 0 0 0 1
create_atoms  1 single 23.0173152535389 ${y0} ${z0} mol bs 24987 units box remap yes rotate 0 0 0 1
create_atoms  1 single 23.0173152535389 19.0488126236184 ${z0} mol bs 24987 units box remap yes rotate 0 0 0 1
create_atoms  1 single 23.0173152535389 19.0488126236184 17 mol bs 24987 units box remap yes rotate 0 0 0 1
Created 30 atoms
  create_atoms CPU = 0.0001084 secs
variable      check1 equal ${check}               # Count the new total number of atoms
variable      check1 equal 3462               
# Check that the molecule has indeed been inserted (This check is no longer an issue).
if            "${check1} != ${check0}" then "create_bonds  single/bond 2 ${randatomi} $b" "next i"
create_bonds  single/bond 2 ${randatomi} $b
create_bonds  single/bond 2 2219 $b
create_bonds  single/bond 2 2219 3433
  2 = max # of 1-2 neighbors
  5 = max # of special neighbors
  special bonds CPU = 0.0048084 secs
next i
jump MDPBB.in loop    # End of the loop
variable      randni equal round(random(1,${ntwall},$s))  # Pick a random "top" wall atom
variable      randni equal round(random(1,2592,$s))  
variable      randni equal round(random(1,2592,234897))  
variable      randatomi equal ${randni}                   # This is to obtain an integer number for atom-id
variable      randatomi equal 2447                   
variable      randzi equal z[${randatomi}]                # Determine the z coordinate of the chosen atom
variable      randzi equal z[2447]                
# if the chosen atom is not a surface atom then restart the loop
if            "${randzi} < $(v_wthick - 0.7)" then "jump MDPBB.in loop"
set           atom ${randatomi} type 4                    # Set this grafted wall atom as a new type
set           atom 2447 type 4                    
  1 settings made for type
group         twg id ${randatomi}                         # Add this atom to a top-wall-grafted group
group         twg id 2447                         
30 atoms in group twg
variable      twgcount equal count(twg)
print         "twg contains ${twgcount}"
twg contains 30
print         "i = $(v_i)"                                # The index i should always be equal to the number of atom in twg
i = 30
variable      x0 equal x[${randatomi}]                    # Determine its x-coord
variable      x0 equal x[2447]                    
variable      y0 equal y[${randatomi}]                    # Determine its y-coord
variable      y0 equal y[2447]                    
variable      check0 equal ${check}                       # Count the number of atoms in the simulation
variable      check0 equal 3462                       
variable      b equal ${check}+1                          # The grafted bead id will be one higher after being inserted
variable      b equal 3462+1                          
if            "${twgcount} != $(v_i)" then "jump MDPBB.in loop"
# Otherwise insert the chain directly above the chosen wall atom pointing perpendicular to the wall
create_atoms  1 single ${x0} ${y0} ${z0} mol bs 24987 units box remap yes rotate 0 0 0 1
create_atoms  1 single 27.7795184094435 ${y0} ${z0} mol bs 24987 units box remap yes rotate 0 0 0 1
create_atoms  1 single 27.7795184094435 23.811015779523 ${z0} mol bs 24987 units box remap yes rotate 0 0 0 1
create_atoms  1 single 27.7795184094435 23.811015779523 17 mol bs 24987 units box remap yes rotate 0 0 0 1
Created 30 atoms
  create_atoms CPU = 9.11e-05 secs
variable      check1 equal ${check}               # Count the new total number of atoms
variable      check1 equal 3492               
# Check that the molecule has indeed been inserted (This check is no longer an issue).
if            "${check1} != ${check0}" then "create_bonds  single/bond 2 ${randatomi} $b" "next i"
create_bonds  single/bond 2 ${randatomi} $b
create_bonds  single/bond 2 2447 $b
create_bonds  single/bond 2 2447 3463
  2 = max # of 1-2 neighbors
  5 = max # of special neighbors
  special bonds CPU = 0.0045297 secs
next i
jump MDPBB.in loop    # End of the loop
variable      randni equal round(random(1,${ntwall},$s))  # Pick a random "top" wall atom
variable      randni equal round(random(1,2592,$s))  
variable      randni equal round(random(1,2592,234897))  
variable      randatomi equal ${randni}                   # This is to obtain an integer number for atom-id
variable      randatomi equal 858                   
variable      randzi equal z[${randatomi}]                # Determine the z coordinate of the chosen atom
variable      randzi equal z[858]                
# if the chosen atom is not a surface atom then restart the loop
if            "${randzi} < $(v_wthick - 0.7)" then "jump MDPBB.in loop"
jump MDPBB.in loop
variable      randni equal round(random(1,${ntwall},$s))  # Pick a random "top" wall atom
variable      randni equal round(random(1,2592,$s))  
variable      randni equal round(random(1,2592,234897))  
variable      randatomi equal ${randni}                   # This is to obtain an integer number for atom-id
variable      randatomi equal 1434                   
variable      randzi equal z[${randatomi}]                # Determine the z coordinate of the chosen atom
variable      randzi equal z[1434]                
# if the chosen atom is not a surface atom then restart the loop
if            "${randzi} < $(v_wthick - 0.7)" then "jump MDPBB.in loop"
jump MDPBB.in loop
variable      randni equal round(random(1,${ntwall},$s))  # Pick a random "top" wall atom
variable      randni equal round(random(1,2592,$s))  
variable      randni equal round(random(1,2592,234897))  
variable      randatomi equal ${randni}                   # This is to obtain an integer number for atom-id
variable      randatomi equal 1045                   
variable      randzi equal z[${randatomi}]                # Determine the z coordinate of the chosen atom
variable      randzi equal z[1045]                
# if the chosen atom is not a surface atom then restart the loop
if            "${randzi} < $(v_wthick - 0.7)" then "jump MDPBB.in loop"
jump MDPBB.in loop
variable      randni equal round(random(1,${ntwall},$s))  # Pick a random "top" wall atom
variable      randni equal round(random(1,2592,$s))  
variable      randni equal round(random(1,2592,234897))  
variable      randatomi equal ${randni}                   # This is to obtain an integer number for atom-id
variable      randatomi equal 892                   
variable      randzi equal z[${randatomi}]                # Determine the z coordinate of the chosen atom
variable      randzi equal z[892]                
# if the chosen atom is not a surface atom then restart the loop
if            "${randzi} < $(v_wthick - 0.7)" then "jump MDPBB.in loop"
jump MDPBB.in loop
variable      randni equal round(random(1,${ntwall},$s))  # Pick a random "top" wall atom
variable      randni equal round(random(1,2592,$s))  
variable      randni equal round(random(1,2592,234897))  
variable      randatomi equal ${randni}                   # This is to obtain an integer number for atom-id
variable      randatomi equal 2095                   
variable      randzi equal z[${randatomi}]                # Determine the z coordinate of the chosen atom
variable      randzi equal z[2095]                
# if the chosen atom is not a surface atom then restart the loop
if            "${randzi} < $(v_wthick - 0.7)" then "jump MDPBB.in loop"
set           atom ${randatomi} type 4                    # Set this grafted wall atom as a new type
set           atom 2095 type 4                    
  1 settings made for type
group         twg id ${randatomi}                         # Add this atom to a top-wall-grafted group
group         twg id 2095                         
31 atoms in group twg
variable      twgcount equal count(twg)
print         "twg contains ${twgcount}"
twg contains 31
print         "i = $(v_i)"                                # The index i should always be equal to the number of atom in twg
i = 31
variable      x0 equal x[${randatomi}]                    # Determine its x-coord
variable      x0 equal x[2095]                    
variable      y0 equal y[${randatomi}]                    # Determine its y-coord
variable      y0 equal y[2095]                    
variable      check0 equal ${check}                       # Count the number of atoms in the simulation
variable      check0 equal 3492                       
variable      b equal ${check}+1                          # The grafted bead id will be one higher after being inserted
variable      b equal 3492+1                          
if            "${twgcount} != $(v_i)" then "jump MDPBB.in loop"
# Otherwise insert the chain directly above the chosen wall atom pointing perpendicular to the wall
create_atoms  1 single ${x0} ${y0} ${z0} mol bs 24987 units box remap yes rotate 0 0 0 1
create_atoms  1 single 2.3811015779523 ${y0} ${z0} mol bs 24987 units box remap yes rotate 0 0 0 1
create_atoms  1 single 2.3811015779523 17.4614115716502 ${z0} mol bs 24987 units box remap yes rotate 0 0 0 1
create_atoms  1 single 2.3811015779523 17.4614115716502 17 mol bs 24987 units box remap yes rotate 0 0 0 1
Created 30 atoms
  create_atoms CPU = 0.0001192 secs
variable      check1 equal ${check}               # Count the new total number of atoms
variable      check1 equal 3522               
# Check that the molecule has indeed been inserted (This check is no longer an issue).
if            "${check1} != ${check0}" then "create_bonds  single/bond 2 ${randatomi} $b" "next i"
create_bonds  single/bond 2 ${randatomi} $b
create_bonds  single/bond 2 2095 $b
create_bonds  single/bond 2 2095 3493
  2 = max # of 1-2 neighbors
  5 = max # of special neighbors
  special bonds CPU = 0.0027706 secs
next i
jump MDPBB.in loop    # End of the loop
variable      randni equal round(random(1,${ntwall},$s))  # Pick a random "top" wall atom
variable      randni equal round(random(1,2592,$s))  
variable      randni equal round(random(1,2592,234897))  
variable      randatomi equal ${randni}                   # This is to obtain an integer number for atom-id
variable      randatomi equal 1769                   
variable      randzi equal z[${randatomi}]                # Determine the z coordinate of the chosen atom
variable      randzi equal z[1769]                
# if the chosen atom is not a surface atom then restart the loop
if            "${randzi} < $(v_wthick - 0.7)" then "jump MDPBB.in loop"
jump MDPBB.in loop
variable      randni equal round(random(1,${ntwall},$s))  # Pick a random "top" wall atom
variable      randni equal round(random(1,2592,$s))  
variable      randni equal round(random(1,2592,234897))  
variable      randatomi equal ${randni}                   # This is to obtain an integer number for atom-id
variable      randatomi equal 2540                   
variable      randzi equal z[${randatomi}]                # Determine the z coordinate of the chosen atom
variable      randzi equal z[2540]                
# if the chosen atom is not a surface atom then restart the loop
if            "${randzi} < $(v_wthick - 0.7)" then "jump MDPBB.in loop"
set           atom ${randatomi} type 4                    # Set this grafted wall atom as a new type
set           atom 2540 type 4                    
  1 settings made for type
group         twg id ${randatomi}                         # Add this atom to a top-wall-grafted group
group         twg id 2540                         
32 atoms in group twg
variable      twgcount equal count(twg)
print         "twg contains ${twgcount}"
twg contains 32
print         "i = $(v_i)"                                # The index i should always be equal to the number of atom in twg
i = 32
variable      x0 equal x[${randatomi}]                    # Determine its x-coord
variable      x0 equal x[2540]                    
variable      y0 equal y[${randatomi}]                    # Determine its y-coord
variable      y0 equal y[2540]                    
variable      check0 equal ${check}                       # Count the number of atoms in the simulation
variable      check0 equal 3522                       
variable      b equal ${check}+1                          # The grafted bead id will be one higher after being inserted
variable      b equal 3522+1                          
if            "${twgcount} != $(v_i)" then "jump MDPBB.in loop"
# Otherwise insert the chain directly above the chosen wall atom pointing perpendicular to the wall
create_atoms  1 single ${x0} ${y0} ${z0} mol bs 24987 units box remap yes rotate 0 0 0 1
create_atoms  1 single 6.3496042078728 ${y0} ${z0} mol bs 24987 units box remap yes rotate 0 0 0 1
create_atoms  1 single 6.3496042078728 27.7795184094435 ${z0} mol bs 24987 units box remap yes rotate 0 0 0 1
create_atoms  1 single 6.3496042078728 27.7795184094435 17 mol bs 24987 units box remap yes rotate 0 0 0 1
Created 30 atoms
  create_atoms CPU = 0.0001011 secs
variable      check1 equal ${check}               # Count the new total number of atoms
variable      check1 equal 3552               
# Check that the molecule has indeed been inserted (This check is no longer an issue).
if            "${check1} != ${check0}" then "create_bonds  single/bond 2 ${randatomi} $b" "next i"
create_bonds  single/bond 2 ${randatomi} $b
create_bonds  single/bond 2 2540 $b
create_bonds  single/bond 2 2540 3523
  2 = max # of 1-2 neighbors
  5 = max # of special neighbors
  special bonds CPU = 0.0041923 secs
next i
jump MDPBB.in loop    # End of the loop
variable      randni equal round(random(1,${ntwall},$s))  # Pick a random "top" wall atom
variable      randni equal round(random(1,2592,$s))  
variable      randni equal round(random(1,2592,234897))  
variable      randatomi equal ${randni}                   # This is to obtain an integer number for atom-id
variable      randatomi equal 452                   
variable      randzi equal z[${randatomi}]                # Determine the z coordinate of the chosen atom
variable      randzi equal z[452]                
# if the chosen atom is not a surface atom then restart the loop
if            "${randzi} < $(v_wthick - 0.7)" then "jump MDPBB.in loop"
jump MDPBB.in loop
variable      randni equal round(random(1,${ntwall},$s))  # Pick a random "top" wall atom
variable      randni equal round(random(1,2592,$s))  
variable      randni equal round(random(1,2592,234897))  
variable      randatomi equal ${randni}                   # This is to obtain an integer number for atom-id
variable      randatomi equal 382                   
variable      randzi equal z[${randatomi}]                # Determine the z coordinate of the chosen atom
variable      randzi equal z[382]                
# if the chosen atom is not a surface atom then restart the loop
if            "${randzi} < $(v_wthick - 0.7)" then "jump MDPBB.in loop"
jump MDPBB.in loop
variable      randni equal round(random(1,${ntwall},$s))  # Pick a random "top" wall atom
variable      randni equal round(random(1,2592,$s))  
variable      randni equal round(random(1,2592,234897))  
variable      randatomi equal ${randni}                   # This is to obtain an integer number for atom-id
variable      randatomi equal 751                   
variable      randzi equal z[${randatomi}]                # Determine the z coordinate of the chosen atom
variable      randzi equal z[751]                
# if the chosen atom is not a surface atom then restart the loop
if            "${randzi} < $(v_wthick - 0.7)" then "jump MDPBB.in loop"
jump MDPBB.in loop
variable      randni equal round(random(1,${ntwall},$s))  # Pick a random "top" wall atom
variable      randni equal round(random(1,2592,$s))  
variable      randni equal round(random(1,2592,234897))  
variable      randatomi equal ${randni}                   # This is to obtain an integer number for atom-id
variable      randatomi equal 1931                   
variable      randzi equal z[${randatomi}]                # Determine the z coordinate of the chosen atom
variable      randzi equal z[1931]                
# if the chosen atom is not a surface atom then restart the loop
if            "${randzi} < $(v_wthick - 0.7)" then "jump MDPBB.in loop"
set           atom ${randatomi} type 4                    # Set this grafted wall atom as a new type
set           atom 1931 type 4                    
  1 settings made for type
group         twg id ${randatomi}                         # Add this atom to a top-wall-grafted group
group         twg id 1931                         
33 atoms in group twg
variable      twgcount equal count(twg)
print         "twg contains ${twgcount}"
twg contains 33
print         "i = $(v_i)"                                # The index i should always be equal to the number of atom in twg
i = 33
variable      x0 equal x[${randatomi}]                    # Determine its x-coord
variable      x0 equal x[1931]                    
variable      y0 equal y[${randatomi}]                    # Determine its y-coord
variable      y0 equal y[1931]                    
variable      check0 equal ${check}                       # Count the number of atoms in the simulation
variable      check0 equal 3552                       
variable      b equal ${check}+1                          # The grafted bead id will be one higher after being inserted
variable      b equal 3552+1                          
if            "${twgcount} != $(v_i)" then "jump MDPBB.in loop"
# Otherwise insert the chain directly above the chosen wall atom pointing perpendicular to the wall
create_atoms  1 single ${x0} ${y0} ${z0} mol bs 24987 units box remap yes rotate 0 0 0 1
create_atoms  1 single 23.0173152535389 ${y0} ${z0} mol bs 24987 units box remap yes rotate 0 0 0 1
create_atoms  1 single 23.0173152535389 12.6992084157456 ${z0} mol bs 24987 units box remap yes rotate 0 0 0 1
create_atoms  1 single 23.0173152535389 12.6992084157456 17 mol bs 24987 units box remap yes rotate 0 0 0 1
Created 30 atoms
  create_atoms CPU = 0.0001042 secs
variable      check1 equal ${check}               # Count the new total number of atoms
variable      check1 equal 3582               
# Check that the molecule has indeed been inserted (This check is no longer an issue).
if            "${check1} != ${check0}" then "create_bonds  single/bond 2 ${randatomi} $b" "next i"
create_bonds  single/bond 2 ${randatomi} $b
create_bonds  single/bond 2 1931 $b
create_bonds  single/bond 2 1931 3553
  2 = max # of 1-2 neighbors
  5 = max # of special neighbors
  special bonds CPU = 0.004223 secs
next i
jump MDPBB.in loop    # End of the loop
variable      randni equal round(random(1,${ntwall},$s))  # Pick a random "top" wall atom
variable      randni equal round(random(1,2592,$s))  
variable      randni equal round(random(1,2592,234897))  
variable      randatomi equal ${randni}                   # This is to obtain an integer number for atom-id
variable      randatomi equal 2246                   
variable      randzi equal z[${randatomi}]                # Determine the z coordinate of the chosen atom
variable      randzi equal z[2246]                
# if the chosen atom is not a surface atom then restart the loop
if            "${randzi} < $(v_wthick - 0.7)" then "jump MDPBB.in loop"
jump MDPBB.in loop
variable      randni equal round(random(1,${ntwall},$s))  # Pick a random "top" wall atom
variable      randni equal round(random(1,2592,$s))  
variable      randni equal round(random(1,2592,234897))  
variable      randatomi equal ${randni}                   # This is to obtain an integer number for atom-id
variable      randatomi equal 79                   
variable      randzi equal z[${randatomi}]                # Determine the z coordinate of the chosen atom
variable      randzi equal z[79]                
# if the chosen atom is not a surface atom then restart the loop
if            "${randzi} < $(v_wthick - 0.7)" then "jump MDPBB.in loop"
jump MDPBB.in loop
variable      randni equal round(random(1,${ntwall},$s))  # Pick a random "top" wall atom
variable      randni equal round(random(1,2592,$s))  
variable      randni equal round(random(1,2592,234897))  
variable      randatomi equal ${randni}                   # This is to obtain an integer number for atom-id
variable      randatomi equal 50                   
variable      randzi equal z[${randatomi}]                # Determine the z coordinate of the chosen atom
variable      randzi equal z[50]                
# if the chosen atom is not a surface atom then restart the loop
if            "${randzi} < $(v_wthick - 0.7)" then "jump MDPBB.in loop"
jump MDPBB.in loop
variable      randni equal round(random(1,${ntwall},$s))  # Pick a random "top" wall atom
variable      randni equal round(random(1,2592,$s))  
variable      randni equal round(random(1,2592,234897))  
variable      randatomi equal ${randni}                   # This is to obtain an integer number for atom-id
variable      randatomi equal 968                   
variable      randzi equal z[${randatomi}]                # Determine the z coordinate of the chosen atom
variable      randzi equal z[968]                
# if the chosen atom is not a surface atom then restart the loop
if            "${randzi} < $(v_wthick - 0.7)" then "jump MDPBB.in loop"
jump MDPBB.in loop
variable      randni equal round(random(1,${ntwall},$s))  # Pick a random "top" wall atom
variable      randni equal round(random(1,2592,$s))  
variable      randni equal round(random(1,2592,234897))  
variable      randatomi equal ${randni}                   # This is to obtain an integer number for atom-id
variable      randatomi equal 1432                   
variable      randzi equal z[${randatomi}]                # Determine the z coordinate of the chosen atom
variable      randzi equal z[1432]                
# if the chosen atom is not a surface atom then restart the loop
if            "${randzi} < $(v_wthick - 0.7)" then "jump MDPBB.in loop"
set           atom ${randatomi} type 4                    # Set this grafted wall atom as a new type
set           atom 1432 type 4                    
  1 settings made for type
group         twg id ${randatomi}                         # Add this atom to a top-wall-grafted group
group         twg id 1432                         
34 atoms in group twg
variable      twgcount equal count(twg)
print         "twg contains ${twgcount}"
twg contains 34
print         "i = $(v_i)"                                # The index i should always be equal to the number of atom in twg
i = 34
variable      x0 equal x[${randatomi}]                    # Determine its x-coord
variable      x0 equal x[1432]                    
variable      y0 equal y[${randatomi}]                    # Determine its y-coord
variable      y0 equal y[1432]                    
variable      check0 equal ${check}                       # Count the number of atoms in the simulation
variable      check0 equal 3582                       
variable      b equal ${check}+1                          # The grafted bead id will be one higher after being inserted
variable      b equal 3582+1                          
if            "${twgcount} != $(v_i)" then "jump MDPBB.in loop"
# Otherwise insert the chain directly above the chosen wall atom pointing perpendicular to the wall
create_atoms  1 single ${x0} ${y0} ${z0} mol bs 24987 units box remap yes rotate 0 0 0 1
create_atoms  1 single 23.811015779523 ${y0} ${z0} mol bs 24987 units box remap yes rotate 0 0 0 1
create_atoms  1 single 23.811015779523 2.3811015779523 ${z0} mol bs 24987 units box remap yes rotate 0 0 0 1
create_atoms  1 single 23.811015779523 2.3811015779523 17 mol bs 24987 units box remap yes rotate 0 0 0 1
Created 30 atoms
  create_atoms CPU = 0.0001527 secs
variable      check1 equal ${check}               # Count the new total number of atoms
variable      check1 equal 3612               
# Check that the molecule has indeed been inserted (This check is no longer an issue).
if            "${check1} != ${check0}" then "create_bonds  single/bond 2 ${randatomi} $b" "next i"
create_bonds  single/bond 2 ${randatomi} $b
create_bonds  single/bond 2 1432 $b
create_bonds  single/bond 2 1432 3583
  2 = max # of 1-2 neighbors
  5 = max # of special neighbors
  special bonds CPU = 0.0038248 secs
next i
jump MDPBB.in loop    # End of the loop
variable      randni equal round(random(1,${ntwall},$s))  # Pick a random "top" wall atom
variable      randni equal round(random(1,2592,$s))  
variable      randni equal round(random(1,2592,234897))  
variable      randatomi equal ${randni}                   # This is to obtain an integer number for atom-id
variable      randatomi equal 2052                   
variable      randzi equal z[${randatomi}]                # Determine the z coordinate of the chosen atom
variable      randzi equal z[2052]                
# if the chosen atom is not a surface atom then restart the loop
if            "${randzi} < $(v_wthick - 0.7)" then "jump MDPBB.in loop"
set           atom ${randatomi} type 4                    # Set this grafted wall atom as a new type
set           atom 2052 type 4                    
  1 settings made for type
group         twg id ${randatomi}                         # Add this atom to a top-wall-grafted group
group         twg id 2052                         
35 atoms in group twg
variable      twgcount equal count(twg)
print         "twg contains ${twgcount}"
twg contains 35
print         "i = $(v_i)"                                # The index i should always be equal to the number of atom in twg
i = 35
variable      x0 equal x[${randatomi}]                    # Determine its x-coord
variable      x0 equal x[2052]                    
variable      y0 equal y[${randatomi}]                    # Determine its y-coord
variable      y0 equal y[2052]                    
variable      check0 equal ${check}                       # Count the number of atoms in the simulation
variable      check0 equal 3612                       
variable      b equal ${check}+1                          # The grafted bead id will be one higher after being inserted
variable      b equal 3612+1                          
if            "${twgcount} != $(v_i)" then "jump MDPBB.in loop"
# Otherwise insert the chain directly above the chosen wall atom pointing perpendicular to the wall
create_atoms  1 single ${x0} ${y0} ${z0} mol bs 24987 units box remap yes rotate 0 0 0 1
create_atoms  1 single 12.6992084157456 ${y0} ${z0} mol bs 24987 units box remap yes rotate 0 0 0 1
create_atoms  1 single 12.6992084157456 16.6677110456661 ${z0} mol bs 24987 units box remap yes rotate 0 0 0 1
create_atoms  1 single 12.6992084157456 16.6677110456661 17 mol bs 24987 units box remap yes rotate 0 0 0 1
Created 30 atoms
  create_atoms CPU = 0.000114 secs
variable      check1 equal ${check}               # Count the new total number of atoms
variable      check1 equal 3642               
# Check that the molecule has indeed been inserted (This check is no longer an issue).
if            "${check1} != ${check0}" then "create_bonds  single/bond 2 ${randatomi} $b" "next i"
create_bonds  single/bond 2 ${randatomi} $b
create_bonds  single/bond 2 2052 $b
create_bonds  single/bond 2 2052 3613
  2 = max # of 1-2 neighbors
  5 = max # of special neighbors
  special bonds CPU = 0.0066118 secs
next i
jump MDPBB.in loop    # End of the loop
variable      randni equal round(random(1,${ntwall},$s))  # Pick a random "top" wall atom
variable      randni equal round(random(1,2592,$s))  
variable      randni equal round(random(1,2592,234897))  
variable      randatomi equal ${randni}                   # This is to obtain an integer number for atom-id
variable      randatomi equal 1046                   
variable      randzi equal z[${randatomi}]                # Determine the z coordinate of the chosen atom
variable      randzi equal z[1046]                
# if the chosen atom is not a surface atom then restart the loop
if            "${randzi} < $(v_wthick - 0.7)" then "jump MDPBB.in loop"
jump MDPBB.in loop
variable      randni equal round(random(1,${ntwall},$s))  # Pick a random "top" wall atom
variable      randni equal round(random(1,2592,$s))  
variable      randni equal round(random(1,2592,234897))  
variable      randatomi equal ${randni}                   # This is to obtain an integer number for atom-id
variable      randatomi equal 1912                   
variable      randzi equal z[${randatomi}]                # Determine the z coordinate of the chosen atom
variable      randzi equal z[1912]                
# if the chosen atom is not a surface atom then restart the loop
if            "${randzi} < $(v_wthick - 0.7)" then "jump MDPBB.in loop"
set           atom ${randatomi} type 4                    # Set this grafted wall atom as a new type
set           atom 1912 type 4                    
  1 settings made for type
group         twg id ${randatomi}                         # Add this atom to a top-wall-grafted group
group         twg id 1912                         
36 atoms in group twg
variable      twgcount equal count(twg)
print         "twg contains ${twgcount}"
twg contains 36
print         "i = $(v_i)"                                # The index i should always be equal to the number of atom in twg
i = 36
variable      x0 equal x[${randatomi}]                    # Determine its x-coord
variable      x0 equal x[1912]                    
variable      y0 equal y[${randatomi}]                    # Determine its y-coord
variable      y0 equal y[1912]                    
variable      check0 equal ${check}                       # Count the number of atoms in the simulation
variable      check0 equal 3642                       
variable      b equal ${check}+1                          # The grafted bead id will be one higher after being inserted
variable      b equal 3642+1                          
if            "${twgcount} != $(v_i)" then "jump MDPBB.in loop"
# Otherwise insert the chain directly above the chosen wall atom pointing perpendicular to the wall
create_atoms  1 single ${x0} ${y0} ${z0} mol bs 24987 units box remap yes rotate 0 0 0 1
create_atoms  1 single 14.2866094677138 ${y0} ${z0} mol bs 24987 units box remap yes rotate 0 0 0 1
create_atoms  1 single 14.2866094677138 13.4929089417297 ${z0} mol bs 24987 units box remap yes rotate 0 0 0 1
create_atoms  1 single 14.2866094677138 13.4929089417297 17 mol bs 24987 units box remap yes rotate 0 0 0 1
Created 30 atoms
  create_atoms CPU = 0.0001647 secs
variable      check1 equal ${check}               # Count the new total number of atoms
variable      check1 equal 3672               
# Check that the molecule has indeed been inserted (This check is no longer an issue).
if            "${check1} != ${check0}" then "create_bonds  single/bond 2 ${randatomi} $b" "next i"
create_bonds  single/bond 2 ${randatomi} $b
create_bonds  single/bond 2 1912 $b
create_bonds  single/bond 2 1912 3643
  2 = max # of 1-2 neighbors
  5 = max # of special neighbors
  special bonds CPU = 0.0046697 secs
next i
jump MDPBB.in loop    # End of the loop
variable      randni equal round(random(1,${ntwall},$s))  # Pick a random "top" wall atom
variable      randni equal round(random(1,2592,$s))  
variable      randni equal round(random(1,2592,234897))  
variable      randatomi equal ${randni}                   # This is to obtain an integer number for atom-id
variable      randatomi equal 1175                   
variable      randzi equal z[${randatomi}]                # Determine the z coordinate of the chosen atom
variable      randzi equal z[1175]                
# if the chosen atom is not a surface atom then restart the loop
if            "${randzi} < $(v_wthick - 0.7)" then "jump MDPBB.in loop"
jump MDPBB.in loop
variable      randni equal round(random(1,${ntwall},$s))  # Pick a random "top" wall atom
variable      randni equal round(random(1,2592,$s))  
variable      randni equal round(random(1,2592,234897))  
variable      randatomi equal ${randni}                   # This is to obtain an integer number for atom-id
variable      randatomi equal 79                   
variable      randzi equal z[${randatomi}]                # Determine the z coordinate of the chosen atom
variable      randzi equal z[79]                
# if the chosen atom is not a surface atom then restart the loop
if            "${randzi} < $(v_wthick - 0.7)" then "jump MDPBB.in loop"
jump MDPBB.in loop
variable      randni equal round(random(1,${ntwall},$s))  # Pick a random "top" wall atom
variable      randni equal round(random(1,2592,$s))  
variable      randni equal round(random(1,2592,234897))  
variable      randatomi equal ${randni}                   # This is to obtain an integer number for atom-id
variable      randatomi equal 350                   
variable      randzi equal z[${randatomi}]                # Determine the z coordinate of the chosen atom
variable      randzi equal z[350]                
# if the chosen atom is not a surface atom then restart the loop
if            "${randzi} < $(v_wthick - 0.7)" then "jump MDPBB.in loop"
jump MDPBB.in loop
variable      randni equal round(random(1,${ntwall},$s))  # Pick a random "top" wall atom
variable      randni equal round(random(1,2592,$s))  
variable      randni equal round(random(1,2592,234897))  
variable      randatomi equal ${randni}                   # This is to obtain an integer number for atom-id
variable      randatomi equal 2273                   
variable      randzi equal z[${randatomi}]                # Determine the z coordinate of the chosen atom
variable      randzi equal z[2273]                
# if the chosen atom is not a surface atom then restart the loop
if            "${randzi} < $(v_wthick - 0.7)" then "jump MDPBB.in loop"
jump MDPBB.in loop
variable      randni equal round(random(1,${ntwall},$s))  # Pick a random "top" wall atom
variable      randni equal round(random(1,2592,$s))  
variable      randni equal round(random(1,2592,234897))  
variable      randatomi equal ${randni}                   # This is to obtain an integer number for atom-id
variable      randatomi equal 2384                   
variable      randzi equal z[${randatomi}]                # Determine the z coordinate of the chosen atom
variable      randzi equal z[2384]                
# if the chosen atom is not a surface atom then restart the loop
if            "${randzi} < $(v_wthick - 0.7)" then "jump MDPBB.in loop"
set           atom ${randatomi} type 4                    # Set this grafted wall atom as a new type
set           atom 2384 type 4                    
  1 settings made for type
group         twg id ${randatomi}                         # Add this atom to a top-wall-grafted group
group         twg id 2384                         
37 atoms in group twg
variable      twgcount equal count(twg)
print         "twg contains ${twgcount}"
twg contains 37
print         "i = $(v_i)"                                # The index i should always be equal to the number of atom in twg
i = 37
variable      x0 equal x[${randatomi}]                    # Determine its x-coord
variable      x0 equal x[2384]                    
variable      y0 equal y[${randatomi}]                    # Determine its y-coord
variable      y0 equal y[2384]                    
variable      check0 equal ${check}                       # Count the number of atoms in the simulation
variable      check0 equal 3672                       
variable      b equal ${check}+1                          # The grafted bead id will be one higher after being inserted
variable      b equal 3672+1                          
if            "${twgcount} != $(v_i)" then "jump MDPBB.in loop"
# Otherwise insert the chain directly above the chosen wall atom pointing perpendicular to the wall
create_atoms  1 single ${x0} ${y0} ${z0} mol bs 24987 units box remap yes rotate 0 0 0 1
create_atoms  1 single 1.5874010519682 ${y0} ${z0} mol bs 24987 units box remap yes rotate 0 0 0 1
create_atoms  1 single 1.5874010519682 24.6047163055071 ${z0} mol bs 24987 units box remap yes rotate 0 0 0 1
create_atoms  1 single 1.5874010519682 24.6047163055071 17 mol bs 24987 units box remap yes rotate 0 0 0 1
Created 30 atoms
  create_atoms CPU = 0.0001227 secs
variable      check1 equal ${check}               # Count the new total number of atoms
variable      check1 equal 3702               
# Check that the molecule has indeed been inserted (This check is no longer an issue).
if            "${check1} != ${check0}" then "create_bonds  single/bond 2 ${randatomi} $b" "next i"
create_bonds  single/bond 2 ${randatomi} $b
create_bonds  single/bond 2 2384 $b
create_bonds  single/bond 2 2384 3673
  2 = max # of 1-2 neighbors
  5 = max # of special neighbors
  special bonds CPU = 0.0036978 secs
next i
jump MDPBB.in loop    # End of the loop
variable      randni equal round(random(1,${ntwall},$s))  # Pick a random "top" wall atom
variable      randni equal round(random(1,2592,$s))  
variable      randni equal round(random(1,2592,234897))  
variable      randatomi equal ${randni}                   # This is to obtain an integer number for atom-id
variable      randatomi equal 319                   
variable      randzi equal z[${randatomi}]                # Determine the z coordinate of the chosen atom
variable      randzi equal z[319]                
# if the chosen atom is not a surface atom then restart the loop
if            "${randzi} < $(v_wthick - 0.7)" then "jump MDPBB.in loop"
jump MDPBB.in loop
variable      randni equal round(random(1,${ntwall},$s))  # Pick a random "top" wall atom
variable      randni equal round(random(1,2592,$s))  
variable      randni equal round(random(1,2592,234897))  
variable      randatomi equal ${randni}                   # This is to obtain an integer number for atom-id
variable      randatomi equal 1600                   
variable      randzi equal z[${randatomi}]                # Determine the z coordinate of the chosen atom
variable      randzi equal z[1600]                
# if the chosen atom is not a surface atom then restart the loop
if            "${randzi} < $(v_wthick - 0.7)" then "jump MDPBB.in loop"
set           atom ${randatomi} type 4                    # Set this grafted wall atom as a new type
set           atom 1600 type 4                    
  1 settings made for type
group         twg id ${randatomi}                         # Add this atom to a top-wall-grafted group
group         twg id 1600                         
38 atoms in group twg
variable      twgcount equal count(twg)
print         "twg contains ${twgcount}"
twg contains 38
print         "i = $(v_i)"                                # The index i should always be equal to the number of atom in twg
i = 38
variable      x0 equal x[${randatomi}]                    # Determine its x-coord
variable      x0 equal x[1600]                    
variable      y0 equal y[${randatomi}]                    # Determine its y-coord
variable      y0 equal y[1600]                    
variable      check0 equal ${check}                       # Count the number of atoms in the simulation
variable      check0 equal 3702                       
variable      b equal ${check}+1                          # The grafted bead id will be one higher after being inserted
variable      b equal 3702+1                          
if            "${twgcount} != $(v_i)" then "jump MDPBB.in loop"
# Otherwise insert the chain directly above the chosen wall atom pointing perpendicular to the wall
create_atoms  1 single ${x0} ${y0} ${z0} mol bs 24987 units box remap yes rotate 0 0 0 1
create_atoms  1 single 4.7622031559046 ${y0} ${z0} mol bs 24987 units box remap yes rotate 0 0 0 1
create_atoms  1 single 4.7622031559046 7.1433047338569 ${z0} mol bs 24987 units box remap yes rotate 0 0 0 1
create_atoms  1 single 4.7622031559046 7.1433047338569 17 mol bs 24987 units box remap yes rotate 0 0 0 1
Created 30 atoms
  create_atoms CPU = 0.0001095 secs
variable      check1 equal ${check}               # Count the new total number of atoms
variable      check1 equal 3732               
# Check that the molecule has indeed been inserted (This check is no longer an issue).
if            "${check1} != ${check0}" then "create_bonds  single/bond 2 ${randatomi} $b" "next i"
create_bonds  single/bond 2 ${randatomi} $b
create_bonds  single/bond 2 1600 $b
create_bonds  single/bond 2 1600 3703
  2 = max # of 1-2 neighbors
  5 = max # of special neighbors
  special bonds CPU = 0.0057854 secs
next i
jump MDPBB.in loop    # End of the loop
variable      randni equal round(random(1,${ntwall},$s))  # Pick a random "top" wall atom
variable      randni equal round(random(1,2592,$s))  
variable      randni equal round(random(1,2592,234897))  
variable      randatomi equal ${randni}                   # This is to obtain an integer number for atom-id
variable      randatomi equal 2108                   
variable      randzi equal z[${randatomi}]                # Determine the z coordinate of the chosen atom
variable      randzi equal z[2108]                
# if the chosen atom is not a surface atom then restart the loop
if            "${randzi} < $(v_wthick - 0.7)" then "jump MDPBB.in loop"
set           atom ${randatomi} type 4                    # Set this grafted wall atom as a new type
set           atom 2108 type 4                    
  1 settings made for type
group         twg id ${randatomi}                         # Add this atom to a top-wall-grafted group
group         twg id 2108                         
39 atoms in group twg
variable      twgcount equal count(twg)
print         "twg contains ${twgcount}"
twg contains 39
print         "i = $(v_i)"                                # The index i should always be equal to the number of atom in twg
i = 39
variable      x0 equal x[${randatomi}]                    # Determine its x-coord
variable      x0 equal x[2108]                    
variable      y0 equal y[${randatomi}]                    # Determine its y-coord
variable      y0 equal y[2108]                    
variable      check0 equal ${check}                       # Count the number of atoms in the simulation
variable      check0 equal 3732                       
variable      b equal ${check}+1                          # The grafted bead id will be one higher after being inserted
variable      b equal 3732+1                          
if            "${twgcount} != $(v_i)" then "jump MDPBB.in loop"
# Otherwise insert the chain directly above the chosen wall atom pointing perpendicular to the wall
create_atoms  1 single ${x0} ${y0} ${z0} mol bs 24987 units box remap yes rotate 0 0 0 1
create_atoms  1 single 6.3496042078728 ${y0} ${z0} mol bs 24987 units box remap yes rotate 0 0 0 1
create_atoms  1 single 6.3496042078728 18.2551120976343 ${z0} mol bs 24987 units box remap yes rotate 0 0 0 1
create_atoms  1 single 6.3496042078728 18.2551120976343 17 mol bs 24987 units box remap yes rotate 0 0 0 1
Created 30 atoms
  create_atoms CPU = 0.0001657 secs
variable      check1 equal ${check}               # Count the new total number of atoms
variable      check1 equal 3762               
# Check that the molecule has indeed been inserted (This check is no longer an issue).
if            "${check1} != ${check0}" then "create_bonds  single/bond 2 ${randatomi} $b" "next i"
create_bonds  single/bond 2 ${randatomi} $b
create_bonds  single/bond 2 2108 $b
create_bonds  single/bond 2 2108 3733
  2 = max # of 1-2 neighbors
  5 = max # of special neighbors
  special bonds CPU = 0.0037651 secs
next i
jump MDPBB.in loop    # End of the loop
variable      randni equal round(random(1,${ntwall},$s))  # Pick a random "top" wall atom
variable      randni equal round(random(1,2592,$s))  
variable      randni equal round(random(1,2592,234897))  
variable      randatomi equal ${randni}                   # This is to obtain an integer number for atom-id
variable      randatomi equal 2013                   
variable      randzi equal z[${randatomi}]                # Determine the z coordinate of the chosen atom
variable      randzi equal z[2013]                
# if the chosen atom is not a surface atom then restart the loop
if            "${randzi} < $(v_wthick - 0.7)" then "jump MDPBB.in loop"
jump MDPBB.in loop
variable      randni equal round(random(1,${ntwall},$s))  # Pick a random "top" wall atom
variable      randni equal round(random(1,2592,$s))  
variable      randni equal round(random(1,2592,234897))  
variable      randatomi equal ${randni}                   # This is to obtain an integer number for atom-id
variable      randatomi equal 2342                   
variable      randzi equal z[${randatomi}]                # Determine the z coordinate of the chosen atom
variable      randzi equal z[2342]                
# if the chosen atom is not a surface atom then restart the loop
if            "${randzi} < $(v_wthick - 0.7)" then "jump MDPBB.in loop"
jump MDPBB.in loop
variable      randni equal round(random(1,${ntwall},$s))  # Pick a random "top" wall atom
variable      randni equal round(random(1,2592,$s))  
variable      randni equal round(random(1,2592,234897))  
variable      randatomi equal ${randni}                   # This is to obtain an integer number for atom-id
variable      randatomi equal 2561                   
variable      randzi equal z[${randatomi}]                # Determine the z coordinate of the chosen atom
variable      randzi equal z[2561]                
# if the chosen atom is not a surface atom then restart the loop
if            "${randzi} < $(v_wthick - 0.7)" then "jump MDPBB.in loop"
jump MDPBB.in loop
variable      randni equal round(random(1,${ntwall},$s))  # Pick a random "top" wall atom
variable      randni equal round(random(1,2592,$s))  
variable      randni equal round(random(1,2592,234897))  
variable      randatomi equal ${randni}                   # This is to obtain an integer number for atom-id
variable      randatomi equal 539                   
variable      randzi equal z[${randatomi}]                # Determine the z coordinate of the chosen atom
variable      randzi equal z[539]                
# if the chosen atom is not a surface atom then restart the loop
if            "${randzi} < $(v_wthick - 0.7)" then "jump MDPBB.in loop"
jump MDPBB.in loop
variable      randni equal round(random(1,${ntwall},$s))  # Pick a random "top" wall atom
variable      randni equal round(random(1,2592,$s))  
variable      randni equal round(random(1,2592,234897))  
variable      randatomi equal ${randni}                   # This is to obtain an integer number for atom-id
variable      randatomi equal 663                   
variable      randzi equal z[${randatomi}]                # Determine the z coordinate of the chosen atom
variable      randzi equal z[663]                
# if the chosen atom is not a surface atom then restart the loop
if            "${randzi} < $(v_wthick - 0.7)" then "jump MDPBB.in loop"
jump MDPBB.in loop
variable      randni equal round(random(1,${ntwall},$s))  # Pick a random "top" wall atom
variable      randni equal round(random(1,2592,$s))  
variable      randni equal round(random(1,2592,234897))  
variable      randatomi equal ${randni}                   # This is to obtain an integer number for atom-id
variable      randatomi equal 2211                   
variable      randzi equal z[${randatomi}]                # Determine the z coordinate of the chosen atom
variable      randzi equal z[2211]                
# if the chosen atom is not a surface atom then restart the loop
if            "${randzi} < $(v_wthick - 0.7)" then "jump MDPBB.in loop"
set           atom ${randatomi} type 4                    # Set this grafted wall atom as a new type
set           atom 2211 type 4                    
  1 settings made for type
group         twg id ${randatomi}                         # Add this atom to a top-wall-grafted group
group         twg id 2211                         
40 atoms in group twg
variable      twgcount equal count(twg)
print         "twg contains ${twgcount}"
twg contains 40
print         "i = $(v_i)"                                # The index i should always be equal to the number of atom in twg
i = 40
variable      x0 equal x[${randatomi}]                    # Determine its x-coord
variable      x0 equal x[2211]                    
variable      y0 equal y[${randatomi}]                    # Determine its y-coord
variable      y0 equal y[2211]                    
variable      check0 equal ${check}                       # Count the number of atoms in the simulation
variable      check0 equal 3762                       
variable      b equal ${check}+1                          # The grafted bead id will be one higher after being inserted
variable      b equal 3762+1                          
if            "${twgcount} != $(v_i)" then "jump MDPBB.in loop"
# Otherwise insert the chain directly above the chosen wall atom pointing perpendicular to the wall
create_atoms  1 single ${x0} ${y0} ${z0} mol bs 24987 units box remap yes rotate 0 0 0 1
create_atoms  1 single 19.8425131496025 ${y0} ${z0} mol bs 24987 units box remap yes rotate 0 0 0 1
create_atoms  1 single 19.8425131496025 19.0488126236184 ${z0} mol bs 24987 units box remap yes rotate 0 0 0 1
create_atoms  1 single 19.8425131496025 19.0488126236184 17 mol bs 24987 units box remap yes rotate 0 0 0 1
Created 30 atoms
  create_atoms CPU = 0.0002113 secs
variable      check1 equal ${check}               # Count the new total number of atoms
variable      check1 equal 3792               
# Check that the molecule has indeed been inserted (This check is no longer an issue).
if            "${check1} != ${check0}" then "create_bonds  single/bond 2 ${randatomi} $b" "next i"
create_bonds  single/bond 2 ${randatomi} $b
create_bonds  single/bond 2 2211 $b
create_bonds  single/bond 2 2211 3763
  2 = max # of 1-2 neighbors
  5 = max # of special neighbors
  special bonds CPU = 0.0063139 secs
next i
jump MDPBB.in loop    # End of the loop
variable      randni equal round(random(1,${ntwall},$s))  # Pick a random "top" wall atom
variable      randni equal round(random(1,2592,$s))  
variable      randni equal round(random(1,2592,234897))  
variable      randatomi equal ${randni}                   # This is to obtain an integer number for atom-id
variable      randatomi equal 285                   
variable      randzi equal z[${randatomi}]                # Determine the z coordinate of the chosen atom
variable      randzi equal z[285]                
# if the chosen atom is not a surface atom then restart the loop
if            "${randzi} < $(v_wthick - 0.7)" then "jump MDPBB.in loop"
jump MDPBB.in loop
variable      randni equal round(random(1,${ntwall},$s))  # Pick a random "top" wall atom
variable      randni equal round(random(1,2592,$s))  
variable      randni equal round(random(1,2592,234897))  
variable      randatomi equal ${randni}                   # This is to obtain an integer number for atom-id
variable      randatomi equal 575                   
variable      randzi equal z[${randatomi}]                # Determine the z coordinate of the chosen atom
variable      randzi equal z[575]                
# if the chosen atom is not a surface atom then restart the loop
if            "${randzi} < $(v_wthick - 0.7)" then "jump MDPBB.in loop"
jump MDPBB.in loop
variable      randni equal round(random(1,${ntwall},$s))  # Pick a random "top" wall atom
variable      randni equal round(random(1,2592,$s))  
variable      randni equal round(random(1,2592,234897))  
variable      randatomi equal ${randni}                   # This is to obtain an integer number for atom-id
variable      randatomi equal 475                   
variable      randzi equal z[${randatomi}]                # Determine the z coordinate of the chosen atom
variable      randzi equal z[475]                
# if the chosen atom is not a surface atom then restart the loop
if            "${randzi} < $(v_wthick - 0.7)" then "jump MDPBB.in loop"
jump MDPBB.in loop
variable      randni equal round(random(1,${ntwall},$s))  # Pick a random "top" wall atom
variable      randni equal round(random(1,2592,$s))  
variable      randni equal round(random(1,2592,234897))  
variable      randatomi equal ${randni}                   # This is to obtain an integer number for atom-id
variable      randatomi equal 44                   
variable      randzi equal z[${randatomi}]                # Determine the z coordinate of the chosen atom
variable      randzi equal z[44]                
# if the chosen atom is not a surface atom then restart the loop
if            "${randzi} < $(v_wthick - 0.7)" then "jump MDPBB.in loop"
jump MDPBB.in loop
variable      randni equal round(random(1,${ntwall},$s))  # Pick a random "top" wall atom
variable      randni equal round(random(1,2592,$s))  
variable      randni equal round(random(1,2592,234897))  
variable      randatomi equal ${randni}                   # This is to obtain an integer number for atom-id
variable      randatomi equal 66                   
variable      randzi equal z[${randatomi}]                # Determine the z coordinate of the chosen atom
variable      randzi equal z[66]                
# if the chosen atom is not a surface atom then restart the loop
if            "${randzi} < $(v_wthick - 0.7)" then "jump MDPBB.in loop"
jump MDPBB.in loop
variable      randni equal round(random(1,${ntwall},$s))  # Pick a random "top" wall atom
variable      randni equal round(random(1,2592,$s))  
variable      randni equal round(random(1,2592,234897))  
variable      randatomi equal ${randni}                   # This is to obtain an integer number for atom-id
variable      randatomi equal 632                   
variable      randzi equal z[${randatomi}]                # Determine the z coordinate of the chosen atom
variable      randzi equal z[632]                
# if the chosen atom is not a surface atom then restart the loop
if            "${randzi} < $(v_wthick - 0.7)" then "jump MDPBB.in loop"
jump MDPBB.in loop
variable      randni equal round(random(1,${ntwall},$s))  # Pick a random "top" wall atom
variable      randni equal round(random(1,2592,$s))  
variable      randni equal round(random(1,2592,234897))  
variable      randatomi equal ${randni}                   # This is to obtain an integer number for atom-id
variable      randatomi equal 609                   
variable      randzi equal z[${randatomi}]                # Determine the z coordinate of the chosen atom
variable      randzi equal z[609]                
# if the chosen atom is not a surface atom then restart the loop
if            "${randzi} < $(v_wthick - 0.7)" then "jump MDPBB.in loop"
jump MDPBB.in loop
variable      randni equal round(random(1,${ntwall},$s))  # Pick a random "top" wall atom
variable      randni equal round(random(1,2592,$s))  
variable      randni equal round(random(1,2592,234897))  
variable      randatomi equal ${randni}                   # This is to obtain an integer number for atom-id
variable      randatomi equal 230                   
variable      randzi equal z[${randatomi}]                # Determine the z coordinate of the chosen atom
variable      randzi equal z[230]                
# if the chosen atom is not a surface atom then restart the loop
if            "${randzi} < $(v_wthick - 0.7)" then "jump MDPBB.in loop"
jump MDPBB.in loop
variable      randni equal round(random(1,${ntwall},$s))  # Pick a random "top" wall atom
variable      randni equal round(random(1,2592,$s))  
variable      randni equal round(random(1,2592,234897))  
variable      randatomi equal ${randni}                   # This is to obtain an integer number for atom-id
variable      randatomi equal 1731                   
variable      randzi equal z[${randatomi}]                # Determine the z coordinate of the chosen atom
variable      randzi equal z[1731]                
# if the chosen atom is not a surface atom then restart the loop
if            "${randzi} < $(v_wthick - 0.7)" then "jump MDPBB.in loop"
set           atom ${randatomi} type 4                    # Set this grafted wall atom as a new type
set           atom 1731 type 4                    
  1 settings made for type
group         twg id ${randatomi}                         # Add this atom to a top-wall-grafted group
group         twg id 1731                         
41 atoms in group twg
variable      twgcount equal count(twg)
print         "twg contains ${twgcount}"
twg contains 41
print         "i = $(v_i)"                                # The index i should always be equal to the number of atom in twg
i = 41
variable      x0 equal x[${randatomi}]                    # Determine its x-coord
variable      x0 equal x[1731]                    
variable      y0 equal y[${randatomi}]                    # Determine its y-coord
variable      y0 equal y[1731]                    
variable      check0 equal ${check}                       # Count the number of atoms in the simulation
variable      check0 equal 3792                       
variable      b equal ${check}+1                          # The grafted bead id will be one higher after being inserted
variable      b equal 3792+1                          
if            "${twgcount} != $(v_i)" then "jump MDPBB.in loop"
# Otherwise insert the chain directly above the chosen wall atom pointing perpendicular to the wall
create_atoms  1 single ${x0} ${y0} ${z0} mol bs 24987 units box remap yes rotate 0 0 0 1
create_atoms  1 single 0.7937005259841 ${y0} ${z0} mol bs 24987 units box remap yes rotate 0 0 0 1
create_atoms  1 single 0.7937005259841 9.5244063118092 ${z0} mol bs 24987 units box remap yes rotate 0 0 0 1
create_atoms  1 single 0.7937005259841 9.5244063118092 17 mol bs 24987 units box remap yes rotate 0 0 0 1
Created 30 atoms
  create_atoms CPU = 0.0001196 secs
variable      check1 equal ${check}               # Count the new total number of atoms
variable      check1 equal 3822               
# Check that the molecule has indeed been inserted (This check is no longer an issue).
if            "${check1} != ${check0}" then "create_bonds  single/bond 2 ${randatomi} $b" "next i"
create_bonds  single/bond 2 ${randatomi} $b
create_bonds  single/bond 2 1731 $b
create_bonds  single/bond 2 1731 3793
  2 = max # of 1-2 neighbors
  5 = max # of special neighbors
  special bonds CPU = 0.0034177 secs
next i
jump MDPBB.in loop    # End of the loop
variable      randni equal round(random(1,${ntwall},$s))  # Pick a random "top" wall atom
variable      randni equal round(random(1,2592,$s))  
variable      randni equal round(random(1,2592,234897))  
variable      randatomi equal ${randni}                   # This is to obtain an integer number for atom-id
variable      randatomi equal 2408                   
variable      randzi equal z[${randatomi}]                # Determine the z coordinate of the chosen atom
variable      randzi equal z[2408]                
# if the chosen atom is not a surface atom then restart the loop
if            "${randzi} < $(v_wthick - 0.7)" then "jump MDPBB.in loop"
set           atom ${randatomi} type 4                    # Set this grafted wall atom as a new type
set           atom 2408 type 4                    
  1 settings made for type
group         twg id ${randatomi}                         # Add this atom to a top-wall-grafted group
group         twg id 2408                         
42 atoms in group twg
variable      twgcount equal count(twg)
print         "twg contains ${twgcount}"
twg contains 42
print         "i = $(v_i)"                                # The index i should always be equal to the number of atom in twg
i = 42
variable      x0 equal x[${randatomi}]                    # Determine its x-coord
variable      x0 equal x[2408]                    
variable      y0 equal y[${randatomi}]                    # Determine its y-coord
variable      y0 equal y[2408]                    
variable      check0 equal ${check}                       # Count the number of atoms in the simulation
variable      check0 equal 3822                       
variable      b equal ${check}+1                          # The grafted bead id will be one higher after being inserted
variable      b equal 3822+1                          
if            "${twgcount} != $(v_i)" then "jump MDPBB.in loop"
# Otherwise insert the chain directly above the chosen wall atom pointing perpendicular to the wall
create_atoms  1 single ${x0} ${y0} ${z0} mol bs 24987 units box remap yes rotate 0 0 0 1
create_atoms  1 single 11.1118073637774 ${y0} ${z0} mol bs 24987 units box remap yes rotate 0 0 0 1
create_atoms  1 single 11.1118073637774 24.6047163055071 ${z0} mol bs 24987 units box remap yes rotate 0 0 0 1
create_atoms  1 single 11.1118073637774 24.6047163055071 17 mol bs 24987 units box remap yes rotate 0 0 0 1
Created 30 atoms
  create_atoms CPU = 0.0001499 secs
variable      check1 equal ${check}               # Count the new total number of atoms
variable      check1 equal 3852               
# Check that the molecule has indeed been inserted (This check is no longer an issue).
if            "${check1} != ${check0}" then "create_bonds  single/bond 2 ${randatomi} $b" "next i"
create_bonds  single/bond 2 ${randatomi} $b
create_bonds  single/bond 2 2408 $b
create_bonds  single/bond 2 2408 3823
  2 = max # of 1-2 neighbors
  5 = max # of special neighbors
  special bonds CPU = 0.0049885 secs
next i
jump MDPBB.in loop    # End of the loop
variable      randni equal round(random(1,${ntwall},$s))  # Pick a random "top" wall atom
variable      randni equal round(random(1,2592,$s))  
variable      randni equal round(random(1,2592,234897))  
variable      randatomi equal ${randni}                   # This is to obtain an integer number for atom-id
variable      randatomi equal 1160                   
variable      randzi equal z[${randatomi}]                # Determine the z coordinate of the chosen atom
variable      randzi equal z[1160]                
# if the chosen atom is not a surface atom then restart the loop
if            "${randzi} < $(v_wthick - 0.7)" then "jump MDPBB.in loop"
jump MDPBB.in loop
variable      randni equal round(random(1,${ntwall},$s))  # Pick a random "top" wall atom
variable      randni equal round(random(1,2592,$s))  
variable      randni equal round(random(1,2592,234897))  
variable      randatomi equal ${randni}                   # This is to obtain an integer number for atom-id
variable      randatomi equal 2245                   
variable      randzi equal z[${randatomi}]                # Determine the z coordinate of the chosen atom
variable      randzi equal z[2245]                
# if the chosen atom is not a surface atom then restart the loop
if            "${randzi} < $(v_wthick - 0.7)" then "jump MDPBB.in loop"
jump MDPBB.in loop
variable      randni equal round(random(1,${ntwall},$s))  # Pick a random "top" wall atom
variable      randni equal round(random(1,2592,$s))  
variable      randni equal round(random(1,2592,234897))  
variable      randatomi equal ${randni}                   # This is to obtain an integer number for atom-id
variable      randatomi equal 1872                   
variable      randzi equal z[${randatomi}]                # Determine the z coordinate of the chosen atom
variable      randzi equal z[1872]                
# if the chosen atom is not a surface atom then restart the loop
if            "${randzi} < $(v_wthick - 0.7)" then "jump MDPBB.in loop"
set           atom ${randatomi} type 4                    # Set this grafted wall atom as a new type
set           atom 1872 type 4                    
  1 settings made for type
group         twg id ${randatomi}                         # Add this atom to a top-wall-grafted group
group         twg id 1872                         
43 atoms in group twg
variable      twgcount equal count(twg)
print         "twg contains ${twgcount}"
twg contains 43
print         "i = $(v_i)"                                # The index i should always be equal to the number of atom in twg
i = 43
variable      x0 equal x[${randatomi}]                    # Determine its x-coord
variable      x0 equal x[1872]                    
variable      y0 equal y[${randatomi}]                    # Determine its y-coord
variable      y0 equal y[1872]                    
variable      check0 equal ${check}                       # Count the number of atoms in the simulation
variable      check0 equal 3852                       
variable      b equal ${check}+1                          # The grafted bead id will be one higher after being inserted
variable      b equal 3852+1                          
if            "${twgcount} != $(v_i)" then "jump MDPBB.in loop"
# Otherwise insert the chain directly above the chosen wall atom pointing perpendicular to the wall
create_atoms  1 single ${x0} ${y0} ${z0} mol bs 24987 units box remap yes rotate 0 0 0 1
create_atoms  1 single 26.9858178834594 ${y0} ${z0} mol bs 24987 units box remap yes rotate 0 0 0 1
create_atoms  1 single 26.9858178834594 11.9055078897615 ${z0} mol bs 24987 units box remap yes rotate 0 0 0 1
create_atoms  1 single 26.9858178834594 11.9055078897615 17 mol bs 24987 units box remap yes rotate 0 0 0 1
Created 30 atoms
  create_atoms CPU = 0.0001544 secs
variable      check1 equal ${check}               # Count the new total number of atoms
variable      check1 equal 3882               
# Check that the molecule has indeed been inserted (This check is no longer an issue).
if            "${check1} != ${check0}" then "create_bonds  single/bond 2 ${randatomi} $b" "next i"
create_bonds  single/bond 2 ${randatomi} $b
create_bonds  single/bond 2 1872 $b
create_bonds  single/bond 2 1872 3853
  2 = max # of 1-2 neighbors
  5 = max # of special neighbors
  special bonds CPU = 0.0050046 secs
next i
jump MDPBB.in loop    # End of the loop
variable      randni equal round(random(1,${ntwall},$s))  # Pick a random "top" wall atom
variable      randni equal round(random(1,2592,$s))  
variable      randni equal round(random(1,2592,234897))  
variable      randatomi equal ${randni}                   # This is to obtain an integer number for atom-id
variable      randatomi equal 1952                   
variable      randzi equal z[${randatomi}]                # Determine the z coordinate of the chosen atom
variable      randzi equal z[1952]                
# if the chosen atom is not a surface atom then restart the loop
if            "${randzi} < $(v_wthick - 0.7)" then "jump MDPBB.in loop"
set           atom ${randatomi} type 4                    # Set this grafted wall atom as a new type
set           atom 1952 type 4                    
  1 settings made for type
group         twg id ${randatomi}                         # Add this atom to a top-wall-grafted group
group         twg id 1952                         
44 atoms in group twg
variable      twgcount equal count(twg)
print         "twg contains ${twgcount}"
twg contains 44
print         "i = $(v_i)"                                # The index i should always be equal to the number of atom in twg
i = 44
variable      x0 equal x[${randatomi}]                    # Determine its x-coord
variable      x0 equal x[1952]                    
variable      y0 equal y[${randatomi}]                    # Determine its y-coord
variable      y0 equal y[1952]                    
variable      check0 equal ${check}                       # Count the number of atoms in the simulation
variable      check0 equal 3882                       
variable      b equal ${check}+1                          # The grafted bead id will be one higher after being inserted
variable      b equal 3882+1                          
if            "${twgcount} != $(v_i)" then "jump MDPBB.in loop"
# Otherwise insert the chain directly above the chosen wall atom pointing perpendicular to the wall
create_atoms  1 single ${x0} ${y0} ${z0} mol bs 24987 units box remap yes rotate 0 0 0 1
create_atoms  1 single 1.5874010519682 ${y0} ${z0} mol bs 24987 units box remap yes rotate 0 0 0 1
create_atoms  1 single 1.5874010519682 15.0803099936979 ${z0} mol bs 24987 units box remap yes rotate 0 0 0 1
create_atoms  1 single 1.5874010519682 15.0803099936979 17 mol bs 24987 units box remap yes rotate 0 0 0 1
Created 30 atoms
  create_atoms CPU = 0.0001081 secs
variable      check1 equal ${check}               # Count the new total number of atoms
variable      check1 equal 3912               
# Check that the molecule has indeed been inserted (This check is no longer an issue).
if            "${check1} != ${check0}" then "create_bonds  single/bond 2 ${randatomi} $b" "next i"
create_bonds  single/bond 2 ${randatomi} $b
create_bonds  single/bond 2 1952 $b
create_bonds  single/bond 2 1952 3883
  2 = max # of 1-2 neighbors
  5 = max # of special neighbors
  special bonds CPU = 0.0056071 secs
next i
jump MDPBB.in loop    # End of the loop
variable      randni equal round(random(1,${ntwall},$s))  # Pick a random "top" wall atom
variable      randni equal round(random(1,2592,$s))  
variable      randni equal round(random(1,2592,234897))  
variable      randatomi equal ${randni}                   # This is to obtain an integer number for atom-id
variable      randatomi equal 1320                   
variable      randzi equal z[${randatomi}]                # Determine the z coordinate of the chosen atom
variable      randzi equal z[1320]                
# if the chosen atom is not a surface atom then restart the loop
if            "${randzi} < $(v_wthick - 0.7)" then "jump MDPBB.in loop"
set           atom ${randatomi} type 4                    # Set this grafted wall atom as a new type
set           atom 1320 type 4                    
  1 settings made for type
group         twg id ${randatomi}                         # Add this atom to a top-wall-grafted group
group         twg id 1320                         
45 atoms in group twg
variable      twgcount equal count(twg)
print         "twg contains ${twgcount}"
twg contains 45
print         "i = $(v_i)"                                # The index i should always be equal to the number of atom in twg
i = 45
variable      x0 equal x[${randatomi}]                    # Determine its x-coord
variable      x0 equal x[1320]                    
variable      y0 equal y[${randatomi}]                    # Determine its y-coord
variable      y0 equal y[1320]                    
variable      check0 equal ${check}                       # Count the number of atoms in the simulation
variable      check0 equal 3912                       
variable      b equal ${check}+1                          # The grafted bead id will be one higher after being inserted
variable      b equal 3912+1                          
if            "${twgcount} != $(v_i)" then "jump MDPBB.in loop"
# Otherwise insert the chain directly above the chosen wall atom pointing perpendicular to the wall
create_atoms  1 single ${x0} ${y0} ${z0} mol bs 24987 units box remap yes rotate 0 0 0 1
create_atoms  1 single 7.937005259841 ${y0} ${z0} mol bs 24987 units box remap yes rotate 0 0 0 1
create_atoms  1 single 7.937005259841 0.7937005259841 ${z0} mol bs 24987 units box remap yes rotate 0 0 0 1
create_atoms  1 single 7.937005259841 0.7937005259841 17 mol bs 24987 units box remap yes rotate 0 0 0 1
Created 30 atoms
  create_atoms CPU = 0.0001313 secs
variable      check1 equal ${check}               # Count the new total number of atoms
variable      check1 equal 3942               
# Check that the molecule has indeed been inserted (This check is no longer an issue).
if            "${check1} != ${check0}" then "create_bonds  single/bond 2 ${randatomi} $b" "next i"
create_bonds  single/bond 2 ${randatomi} $b
create_bonds  single/bond 2 1320 $b
create_bonds  single/bond 2 1320 3913
  2 = max # of 1-2 neighbors
  5 = max # of special neighbors
  special bonds CPU = 0.0026964 secs
next i
jump MDPBB.in loop    # End of the loop
variable      randni equal round(random(1,${ntwall},$s))  # Pick a random "top" wall atom
variable      randni equal round(random(1,2592,$s))  
variable      randni equal round(random(1,2592,234897))  
variable      randatomi equal ${randni}                   # This is to obtain an integer number for atom-id
variable      randatomi equal 131                   
variable      randzi equal z[${randatomi}]                # Determine the z coordinate of the chosen atom
variable      randzi equal z[131]                
# if the chosen atom is not a surface atom then restart the loop
if            "${randzi} < $(v_wthick - 0.7)" then "jump MDPBB.in loop"
jump MDPBB.in loop
variable      randni equal round(random(1,${ntwall},$s))  # Pick a random "top" wall atom
variable      randni equal round(random(1,2592,$s))  
variable      randni equal round(random(1,2592,234897))  
variable      randatomi equal ${randni}                   # This is to obtain an integer number for atom-id
variable      randatomi equal 2026                   
variable      randzi equal z[${randatomi}]                # Determine the z coordinate of the chosen atom
variable      randzi equal z[2026]                
# if the chosen atom is not a surface atom then restart the loop
if            "${randzi} < $(v_wthick - 0.7)" then "jump MDPBB.in loop"
jump MDPBB.in loop
variable      randni equal round(random(1,${ntwall},$s))  # Pick a random "top" wall atom
variable      randni equal round(random(1,2592,$s))  
variable      randni equal round(random(1,2592,234897))  
variable      randatomi equal ${randni}                   # This is to obtain an integer number for atom-id
variable      randatomi equal 1913                   
variable      randzi equal z[${randatomi}]                # Determine the z coordinate of the chosen atom
variable      randzi equal z[1913]                
# if the chosen atom is not a surface atom then restart the loop
if            "${randzi} < $(v_wthick - 0.7)" then "jump MDPBB.in loop"
jump MDPBB.in loop
variable      randni equal round(random(1,${ntwall},$s))  # Pick a random "top" wall atom
variable      randni equal round(random(1,2592,$s))  
variable      randni equal round(random(1,2592,234897))  
variable      randatomi equal ${randni}                   # This is to obtain an integer number for atom-id
variable      randatomi equal 129                   
variable      randzi equal z[${randatomi}]                # Determine the z coordinate of the chosen atom
variable      randzi equal z[129]                
# if the chosen atom is not a surface atom then restart the loop
if            "${randzi} < $(v_wthick - 0.7)" then "jump MDPBB.in loop"
jump MDPBB.in loop
variable      randni equal round(random(1,${ntwall},$s))  # Pick a random "top" wall atom
variable      randni equal round(random(1,2592,$s))  
variable      randni equal round(random(1,2592,234897))  
variable      randatomi equal ${randni}                   # This is to obtain an integer number for atom-id
variable      randatomi equal 1274                   
variable      randzi equal z[${randatomi}]                # Determine the z coordinate of the chosen atom
variable      randzi equal z[1274]                
# if the chosen atom is not a surface atom then restart the loop
if            "${randzi} < $(v_wthick - 0.7)" then "jump MDPBB.in loop"
jump MDPBB.in loop
variable      randni equal round(random(1,${ntwall},$s))  # Pick a random "top" wall atom
variable      randni equal round(random(1,2592,$s))  
variable      randni equal round(random(1,2592,234897))  
variable      randatomi equal ${randni}                   # This is to obtain an integer number for atom-id
variable      randatomi equal 598                   
variable      randzi equal z[${randatomi}]                # Determine the z coordinate of the chosen atom
variable      randzi equal z[598]                
# if the chosen atom is not a surface atom then restart the loop
if            "${randzi} < $(v_wthick - 0.7)" then "jump MDPBB.in loop"
jump MDPBB.in loop
variable      randni equal round(random(1,${ntwall},$s))  # Pick a random "top" wall atom
variable      randni equal round(random(1,2592,$s))  
variable      randni equal round(random(1,2592,234897))  
variable      randatomi equal ${randni}                   # This is to obtain an integer number for atom-id
variable      randatomi equal 785                   
variable      randzi equal z[${randatomi}]                # Determine the z coordinate of the chosen atom
variable      randzi equal z[785]                
# if the chosen atom is not a surface atom then restart the loop
if            "${randzi} < $(v_wthick - 0.7)" then "jump MDPBB.in loop"
jump MDPBB.in loop
variable      randni equal round(random(1,${ntwall},$s))  # Pick a random "top" wall atom
variable      randni equal round(random(1,2592,$s))  
variable      randni equal round(random(1,2592,234897))  
variable      randatomi equal ${randni}                   # This is to obtain an integer number for atom-id
variable      randatomi equal 398                   
variable      randzi equal z[${randatomi}]                # Determine the z coordinate of the chosen atom
variable      randzi equal z[398]                
# if the chosen atom is not a surface atom then restart the loop
if            "${randzi} < $(v_wthick - 0.7)" then "jump MDPBB.in loop"
jump MDPBB.in loop
variable      randni equal round(random(1,${ntwall},$s))  # Pick a random "top" wall atom
variable      randni equal round(random(1,2592,$s))  
variable      randni equal round(random(1,2592,234897))  
variable      randatomi equal ${randni}                   # This is to obtain an integer number for atom-id
variable      randatomi equal 2573                   
variable      randzi equal z[${randatomi}]                # Determine the z coordinate of the chosen atom
variable      randzi equal z[2573]                
# if the chosen atom is not a surface atom then restart the loop
if            "${randzi} < $(v_wthick - 0.7)" then "jump MDPBB.in loop"
jump MDPBB.in loop
variable      randni equal round(random(1,${ntwall},$s))  # Pick a random "top" wall atom
variable      randni equal round(random(1,2592,$s))  
variable      randni equal round(random(1,2592,234897))  
variable      randatomi equal ${randni}                   # This is to obtain an integer number for atom-id
variable      randatomi equal 2010                   
variable      randzi equal z[${randatomi}]                # Determine the z coordinate of the chosen atom
variable      randzi equal z[2010]                
# if the chosen atom is not a surface atom then restart the loop
if            "${randzi} < $(v_wthick - 0.7)" then "jump MDPBB.in loop"
jump MDPBB.in loop
variable      randni equal round(random(1,${ntwall},$s))  # Pick a random "top" wall atom
variable      randni equal round(random(1,2592,$s))  
variable      randni equal round(random(1,2592,234897))  
variable      randatomi equal ${randni}                   # This is to obtain an integer number for atom-id
variable      randatomi equal 361                   
variable      randzi equal z[${randatomi}]                # Determine the z coordinate of the chosen atom
variable      randzi equal z[361]                
# if the chosen atom is not a surface atom then restart the loop
if            "${randzi} < $(v_wthick - 0.7)" then "jump MDPBB.in loop"
jump MDPBB.in loop
variable      randni equal round(random(1,${ntwall},$s))  # Pick a random "top" wall atom
variable      randni equal round(random(1,2592,$s))  
variable      randni equal round(random(1,2592,234897))  
variable      randatomi equal ${randni}                   # This is to obtain an integer number for atom-id
variable      randatomi equal 187                   
variable      randzi equal z[${randatomi}]                # Determine the z coordinate of the chosen atom
variable      randzi equal z[187]                
# if the chosen atom is not a surface atom then restart the loop
if            "${randzi} < $(v_wthick - 0.7)" then "jump MDPBB.in loop"
jump MDPBB.in loop
variable      randni equal round(random(1,${ntwall},$s))  # Pick a random "top" wall atom
variable      randni equal round(random(1,2592,$s))  
variable      randni equal round(random(1,2592,234897))  
variable      randatomi equal ${randni}                   # This is to obtain an integer number for atom-id
variable      randatomi equal 1849                   
variable      randzi equal z[${randatomi}]                # Determine the z coordinate of the chosen atom
variable      randzi equal z[1849]                
# if the chosen atom is not a surface atom then restart the loop
if            "${randzi} < $(v_wthick - 0.7)" then "jump MDPBB.in loop"
jump MDPBB.in loop
variable      randni equal round(random(1,${ntwall},$s))  # Pick a random "top" wall atom
variable      randni equal round(random(1,2592,$s))  
variable      randni equal round(random(1,2592,234897))  
variable      randatomi equal ${randni}                   # This is to obtain an integer number for atom-id
variable      randatomi equal 1950                   
variable      randzi equal z[${randatomi}]                # Determine the z coordinate of the chosen atom
variable      randzi equal z[1950]                
# if the chosen atom is not a surface atom then restart the loop
if            "${randzi} < $(v_wthick - 0.7)" then "jump MDPBB.in loop"
jump MDPBB.in loop
variable      randni equal round(random(1,${ntwall},$s))  # Pick a random "top" wall atom
variable      randni equal round(random(1,2592,$s))  
variable      randni equal round(random(1,2592,234897))  
variable      randatomi equal ${randni}                   # This is to obtain an integer number for atom-id
variable      randatomi equal 67                   
variable      randzi equal z[${randatomi}]                # Determine the z coordinate of the chosen atom
variable      randzi equal z[67]                
# if the chosen atom is not a surface atom then restart the loop
if            "${randzi} < $(v_wthick - 0.7)" then "jump MDPBB.in loop"
jump MDPBB.in loop
variable      randni equal round(random(1,${ntwall},$s))  # Pick a random "top" wall atom
variable      randni equal round(random(1,2592,$s))  
variable      randni equal round(random(1,2592,234897))  
variable      randatomi equal ${randni}                   # This is to obtain an integer number for atom-id
variable      randatomi equal 1727                   
variable      randzi equal z[${randatomi}]                # Determine the z coordinate of the chosen atom
variable      randzi equal z[1727]                
# if the chosen atom is not a surface atom then restart the loop
if            "${randzi} < $(v_wthick - 0.7)" then "jump MDPBB.in loop"
set           atom ${randatomi} type 4                    # Set this grafted wall atom as a new type
set           atom 1727 type 4                    
  1 settings made for type
group         twg id ${randatomi}                         # Add this atom to a top-wall-grafted group
group         twg id 1727                         
46 atoms in group twg
variable      twgcount equal count(twg)
print         "twg contains ${twgcount}"
twg contains 46
print         "i = $(v_i)"                                # The index i should always be equal to the number of atom in twg
i = 46
variable      x0 equal x[${randatomi}]                    # Determine its x-coord
variable      x0 equal x[1727]                    
variable      y0 equal y[${randatomi}]                    # Determine its y-coord
variable      y0 equal y[1727]                    
variable      check0 equal ${check}                       # Count the number of atoms in the simulation
variable      check0 equal 3942                       
variable      b equal ${check}+1                          # The grafted bead id will be one higher after being inserted
variable      b equal 3942+1                          
if            "${twgcount} != $(v_i)" then "jump MDPBB.in loop"
# Otherwise insert the chain directly above the chosen wall atom pointing perpendicular to the wall
create_atoms  1 single ${x0} ${y0} ${z0} mol bs 24987 units box remap yes rotate 0 0 0 1
create_atoms  1 single 27.7795184094435 ${y0} ${z0} mol bs 24987 units box remap yes rotate 0 0 0 1
create_atoms  1 single 27.7795184094435 7.937005259841 ${z0} mol bs 24987 units box remap yes rotate 0 0 0 1
create_atoms  1 single 27.7795184094435 7.937005259841 17 mol bs 24987 units box remap yes rotate 0 0 0 1
Created 30 atoms
  create_atoms CPU = 0.0001205 secs
variable      check1 equal ${check}               # Count the new total number of atoms
variable      check1 equal 3972               
# Check that the molecule has indeed been inserted (This check is no longer an issue).
if            "${check1} != ${check0}" then "create_bonds  single/bond 2 ${randatomi} $b" "next i"
create_bonds  single/bond 2 ${randatomi} $b
create_bonds  single/bond 2 1727 $b
create_bonds  single/bond 2 1727 3943
  2 = max # of 1-2 neighbors
  5 = max # of special neighbors
  special bonds CPU = 0.0078352 secs
next i
jump MDPBB.in loop    # End of the loop
variable      randni equal round(random(1,${ntwall},$s))  # Pick a random "top" wall atom
variable      randni equal round(random(1,2592,$s))  
variable      randni equal round(random(1,2592,234897))  
variable      randatomi equal ${randni}                   # This is to obtain an integer number for atom-id
variable      randatomi equal 238                   
variable      randzi equal z[${randatomi}]                # Determine the z coordinate of the chosen atom
variable      randzi equal z[238]                
# if the chosen atom is not a surface atom then restart the loop
if            "${randzi} < $(v_wthick - 0.7)" then "jump MDPBB.in loop"
jump MDPBB.in loop
variable      randni equal round(random(1,${ntwall},$s))  # Pick a random "top" wall atom
variable      randni equal round(random(1,2592,$s))  
variable      randni equal round(random(1,2592,234897))  
variable      randatomi equal ${randni}                   # This is to obtain an integer number for atom-id
variable      randatomi equal 201                   
variable      randzi equal z[${randatomi}]                # Determine the z coordinate of the chosen atom
variable      randzi equal z[201]                
# if the chosen atom is not a surface atom then restart the loop
if            "${randzi} < $(v_wthick - 0.7)" then "jump MDPBB.in loop"
jump MDPBB.in loop
variable      randni equal round(random(1,${ntwall},$s))  # Pick a random "top" wall atom
variable      randni equal round(random(1,2592,$s))  
variable      randni equal round(random(1,2592,234897))  
variable      randatomi equal ${randni}                   # This is to obtain an integer number for atom-id
variable      randatomi equal 1360                   
variable      randzi equal z[${randatomi}]                # Determine the z coordinate of the chosen atom
variable      randzi equal z[1360]                
# if the chosen atom is not a surface atom then restart the loop
if            "${randzi} < $(v_wthick - 0.7)" then "jump MDPBB.in loop"
set           atom ${randatomi} type 4                    # Set this grafted wall atom as a new type
set           atom 1360 type 4                    
  1 settings made for type
group         twg id ${randatomi}                         # Add this atom to a top-wall-grafted group
group         twg id 1360                         
47 atoms in group twg
variable      twgcount equal count(twg)
print         "twg contains ${twgcount}"
twg contains 47
print         "i = $(v_i)"                                # The index i should always be equal to the number of atom in twg
i = 47
variable      x0 equal x[${randatomi}]                    # Determine its x-coord
variable      x0 equal x[1360]                    
variable      y0 equal y[${randatomi}]                    # Determine its y-coord
variable      y0 equal y[1360]                    
variable      check0 equal ${check}                       # Count the number of atoms in the simulation
variable      check0 equal 3972                       
variable      b equal ${check}+1                          # The grafted bead id will be one higher after being inserted
variable      b equal 3972+1                          
if            "${twgcount} != $(v_i)" then "jump MDPBB.in loop"
# Otherwise insert the chain directly above the chosen wall atom pointing perpendicular to the wall
create_atoms  1 single ${x0} ${y0} ${z0} mol bs 24987 units box remap yes rotate 0 0 0 1
create_atoms  1 single 23.811015779523 ${y0} ${z0} mol bs 24987 units box remap yes rotate 0 0 0 1
create_atoms  1 single 23.811015779523 0.7937005259841 ${z0} mol bs 24987 units box remap yes rotate 0 0 0 1
create_atoms  1 single 23.811015779523 0.7937005259841 17 mol bs 24987 units box remap yes rotate 0 0 0 1
Created 30 atoms
  create_atoms CPU = 0.0003429 secs
variable      check1 equal ${check}               # Count the new total number of atoms
variable      check1 equal 4002               
# Check that the molecule has indeed been inserted (This check is no longer an issue).
if            "${check1} != ${check0}" then "create_bonds  single/bond 2 ${randatomi} $b" "next i"
create_bonds  single/bond 2 ${randatomi} $b
create_bonds  single/bond 2 1360 $b
create_bonds  single/bond 2 1360 3973
  2 = max # of 1-2 neighbors
  5 = max # of special neighbors
  special bonds CPU = 0.0087696 secs
next i
jump MDPBB.in loop    # End of the loop
variable      randni equal round(random(1,${ntwall},$s))  # Pick a random "top" wall atom
variable      randni equal round(random(1,2592,$s))  
variable      randni equal round(random(1,2592,234897))  
variable      randatomi equal ${randni}                   # This is to obtain an integer number for atom-id
variable      randatomi equal 822                   
variable      randzi equal z[${randatomi}]                # Determine the z coordinate of the chosen atom
variable      randzi equal z[822]                
# if the chosen atom is not a surface atom then restart the loop
if            "${randzi} < $(v_wthick - 0.7)" then "jump MDPBB.in loop"
jump MDPBB.in loop
variable      randni equal round(random(1,${ntwall},$s))  # Pick a random "top" wall atom
variable      randni equal round(random(1,2592,$s))  
variable      randni equal round(random(1,2592,234897))  
variable      randatomi equal ${randni}                   # This is to obtain an integer number for atom-id
variable      randatomi equal 347                   
variable      randzi equal z[${randatomi}]                # Determine the z coordinate of the chosen atom
variable      randzi equal z[347]                
# if the chosen atom is not a surface atom then restart the loop
if            "${randzi} < $(v_wthick - 0.7)" then "jump MDPBB.in loop"
jump MDPBB.in loop
variable      randni equal round(random(1,${ntwall},$s))  # Pick a random "top" wall atom
variable      randni equal round(random(1,2592,$s))  
variable      randni equal round(random(1,2592,234897))  
variable      randatomi equal ${randni}                   # This is to obtain an integer number for atom-id
variable      randatomi equal 1893                   
variable      randzi equal z[${randatomi}]                # Determine the z coordinate of the chosen atom
variable      randzi equal z[1893]                
# if the chosen atom is not a surface atom then restart the loop
if            "${randzi} < $(v_wthick - 0.7)" then "jump MDPBB.in loop"
jump MDPBB.in loop
variable      randni equal round(random(1,${ntwall},$s))  # Pick a random "top" wall atom
variable      randni equal round(random(1,2592,$s))  
variable      randni equal round(random(1,2592,234897))  
variable      randatomi equal ${randni}                   # This is to obtain an integer number for atom-id
variable      randatomi equal 1612                   
variable      randzi equal z[${randatomi}]                # Determine the z coordinate of the chosen atom
variable      randzi equal z[1612]                
# if the chosen atom is not a surface atom then restart the loop
if            "${randzi} < $(v_wthick - 0.7)" then "jump MDPBB.in loop"
set           atom ${randatomi} type 4                    # Set this grafted wall atom as a new type
set           atom 1612 type 4                    
  1 settings made for type
group         twg id ${randatomi}                         # Add this atom to a top-wall-grafted group
group         twg id 1612                         
48 atoms in group twg
variable      twgcount equal count(twg)
print         "twg contains ${twgcount}"
twg contains 48
print         "i = $(v_i)"                                # The index i should always be equal to the number of atom in twg
i = 48
variable      x0 equal x[${randatomi}]                    # Determine its x-coord
variable      x0 equal x[1612]                    
variable      y0 equal y[${randatomi}]                    # Determine its y-coord
variable      y0 equal y[1612]                    
variable      check0 equal ${check}                       # Count the number of atoms in the simulation
variable      check0 equal 4002                       
variable      b equal ${check}+1                          # The grafted bead id will be one higher after being inserted
variable      b equal 4002+1                          
if            "${twgcount} != $(v_i)" then "jump MDPBB.in loop"
# Otherwise insert the chain directly above the chosen wall atom pointing perpendicular to the wall
create_atoms  1 single ${x0} ${y0} ${z0} mol bs 24987 units box remap yes rotate 0 0 0 1
create_atoms  1 single 9.5244063118092 ${y0} ${z0} mol bs 24987 units box remap yes rotate 0 0 0 1
create_atoms  1 single 9.5244063118092 7.1433047338569 ${z0} mol bs 24987 units box remap yes rotate 0 0 0 1
create_atoms  1 single 9.5244063118092 7.1433047338569 17 mol bs 24987 units box remap yes rotate 0 0 0 1
Created 30 atoms
  create_atoms CPU = 0.0001768 secs
variable      check1 equal ${check}               # Count the new total number of atoms
variable      check1 equal 4032               
# Check that the molecule has indeed been inserted (This check is no longer an issue).
if            "${check1} != ${check0}" then "create_bonds  single/bond 2 ${randatomi} $b" "next i"
create_bonds  single/bond 2 ${randatomi} $b
create_bonds  single/bond 2 1612 $b
create_bonds  single/bond 2 1612 4003
  2 = max # of 1-2 neighbors
  5 = max # of special neighbors
  special bonds CPU = 0.0054079 secs
next i
jump MDPBB.in loop    # End of the loop
variable      randni equal round(random(1,${ntwall},$s))  # Pick a random "top" wall atom
variable      randni equal round(random(1,2592,$s))  
variable      randni equal round(random(1,2592,234897))  
variable      randatomi equal ${randni}                   # This is to obtain an integer number for atom-id
variable      randatomi equal 465                   
variable      randzi equal z[${randatomi}]                # Determine the z coordinate of the chosen atom
variable      randzi equal z[465]                
# if the chosen atom is not a surface atom then restart the loop
if            "${randzi} < $(v_wthick - 0.7)" then "jump MDPBB.in loop"
jump MDPBB.in loop
variable      randni equal round(random(1,${ntwall},$s))  # Pick a random "top" wall atom
variable      randni equal round(random(1,2592,$s))  
variable      randni equal round(random(1,2592,234897))  
variable      randatomi equal ${randni}                   # This is to obtain an integer number for atom-id
variable      randatomi equal 53                   
variable      randzi equal z[${randatomi}]                # Determine the z coordinate of the chosen atom
variable      randzi equal z[53]                
# if the chosen atom is not a surface atom then restart the loop
if            "${randzi} < $(v_wthick - 0.7)" then "jump MDPBB.in loop"
jump MDPBB.in loop
variable      randni equal round(random(1,${ntwall},$s))  # Pick a random "top" wall atom
variable      randni equal round(random(1,2592,$s))  
variable      randni equal round(random(1,2592,234897))  
variable      randatomi equal ${randni}                   # This is to obtain an integer number for atom-id
variable      randatomi equal 564                   
variable      randzi equal z[${randatomi}]                # Determine the z coordinate of the chosen atom
variable      randzi equal z[564]                
# if the chosen atom is not a surface atom then restart the loop
if            "${randzi} < $(v_wthick - 0.7)" then "jump MDPBB.in loop"
jump MDPBB.in loop
variable      randni equal round(random(1,${ntwall},$s))  # Pick a random "top" wall atom
variable      randni equal round(random(1,2592,$s))  
variable      randni equal round(random(1,2592,234897))  
variable      randatomi equal ${randni}                   # This is to obtain an integer number for atom-id
variable      randatomi equal 2000                   
variable      randzi equal z[${randatomi}]                # Determine the z coordinate of the chosen atom
variable      randzi equal z[2000]                
# if the chosen atom is not a surface atom then restart the loop
if            "${randzi} < $(v_wthick - 0.7)" then "jump MDPBB.in loop"
set           atom ${randatomi} type 4                    # Set this grafted wall atom as a new type
set           atom 2000 type 4                    
  1 settings made for type
group         twg id ${randatomi}                         # Add this atom to a top-wall-grafted group
group         twg id 2000                         
49 atoms in group twg
variable      twgcount equal count(twg)
print         "twg contains ${twgcount}"
twg contains 49
print         "i = $(v_i)"                                # The index i should always be equal to the number of atom in twg
i = 49
variable      x0 equal x[${randatomi}]                    # Determine its x-coord
variable      x0 equal x[2000]                    
variable      y0 equal y[${randatomi}]                    # Determine its y-coord
variable      y0 equal y[2000]                    
variable      check0 equal ${check}                       # Count the number of atoms in the simulation
variable      check0 equal 4032                       
variable      b equal ${check}+1                          # The grafted bead id will be one higher after being inserted
variable      b equal 4032+1                          
if            "${twgcount} != $(v_i)" then "jump MDPBB.in loop"
# Otherwise insert the chain directly above the chosen wall atom pointing perpendicular to the wall
create_atoms  1 single ${x0} ${y0} ${z0} mol bs 24987 units box remap yes rotate 0 0 0 1
create_atoms  1 single 20.6362136755866 ${y0} ${z0} mol bs 24987 units box remap yes rotate 0 0 0 1
create_atoms  1 single 20.6362136755866 15.0803099936979 ${z0} mol bs 24987 units box remap yes rotate 0 0 0 1
create_atoms  1 single 20.6362136755866 15.0803099936979 17 mol bs 24987 units box remap yes rotate 0 0 0 1
Created 30 atoms
  create_atoms CPU = 0.0001417 secs
variable      check1 equal ${check}               # Count the new total number of atoms
variable      check1 equal 4062               
# Check that the molecule has indeed been inserted (This check is no longer an issue).
if            "${check1} != ${check0}" then "create_bonds  single/bond 2 ${randatomi} $b" "next i"
create_bonds  single/bond 2 ${randatomi} $b
create_bonds  single/bond 2 2000 $b
create_bonds  single/bond 2 2000 4033
  2 = max # of 1-2 neighbors
  5 = max # of special neighbors
  special bonds CPU = 0.004381 secs
next i
jump MDPBB.in loop    # End of the loop
variable      randni equal round(random(1,${ntwall},$s))  # Pick a random "top" wall atom
variable      randni equal round(random(1,2592,$s))  
variable      randni equal round(random(1,2592,234897))  
variable      randatomi equal ${randni}                   # This is to obtain an integer number for atom-id
variable      randatomi equal 657                   
variable      randzi equal z[${randatomi}]                # Determine the z coordinate of the chosen atom
variable      randzi equal z[657]                
# if the chosen atom is not a surface atom then restart the loop
if            "${randzi} < $(v_wthick - 0.7)" then "jump MDPBB.in loop"
jump MDPBB.in loop
variable      randni equal round(random(1,${ntwall},$s))  # Pick a random "top" wall atom
variable      randni equal round(random(1,2592,$s))  
variable      randni equal round(random(1,2592,234897))  
variable      randatomi equal ${randni}                   # This is to obtain an integer number for atom-id
variable      randatomi equal 859                   
variable      randzi equal z[${randatomi}]                # Determine the z coordinate of the chosen atom
variable      randzi equal z[859]                
# if the chosen atom is not a surface atom then restart the loop
if            "${randzi} < $(v_wthick - 0.7)" then "jump MDPBB.in loop"
jump MDPBB.in loop
variable      randni equal round(random(1,${ntwall},$s))  # Pick a random "top" wall atom
variable      randni equal round(random(1,2592,$s))  
variable      randni equal round(random(1,2592,234897))  
variable      randatomi equal ${randni}                   # This is to obtain an integer number for atom-id
variable      randatomi equal 1119                   
variable      randzi equal z[${randatomi}]                # Determine the z coordinate of the chosen atom
variable      randzi equal z[1119]                
# if the chosen atom is not a surface atom then restart the loop
if            "${randzi} < $(v_wthick - 0.7)" then "jump MDPBB.in loop"
jump MDPBB.in loop
variable      randni equal round(random(1,${ntwall},$s))  # Pick a random "top" wall atom
variable      randni equal round(random(1,2592,$s))  
variable      randni equal round(random(1,2592,234897))  
variable      randatomi equal ${randni}                   # This is to obtain an integer number for atom-id
variable      randatomi equal 484                   
variable      randzi equal z[${randatomi}]                # Determine the z coordinate of the chosen atom
variable      randzi equal z[484]                
# if the chosen atom is not a surface atom then restart the loop
if            "${randzi} < $(v_wthick - 0.7)" then "jump MDPBB.in loop"
jump MDPBB.in loop
variable      randni equal round(random(1,${ntwall},$s))  # Pick a random "top" wall atom
variable      randni equal round(random(1,2592,$s))  
variable      randni equal round(random(1,2592,234897))  
variable      randatomi equal ${randni}                   # This is to obtain an integer number for atom-id
variable      randatomi equal 1275                   
variable      randzi equal z[${randatomi}]                # Determine the z coordinate of the chosen atom
variable      randzi equal z[1275]                
# if the chosen atom is not a surface atom then restart the loop
if            "${randzi} < $(v_wthick - 0.7)" then "jump MDPBB.in loop"
jump MDPBB.in loop
variable      randni equal round(random(1,${ntwall},$s))  # Pick a random "top" wall atom
variable      randni equal round(random(1,2592,$s))  
variable      randni equal round(random(1,2592,234897))  
variable      randatomi equal ${randni}                   # This is to obtain an integer number for atom-id
variable      randatomi equal 1484                   
variable      randzi equal z[${randatomi}]                # Determine the z coordinate of the chosen atom
variable      randzi equal z[1484]                
# if the chosen atom is not a surface atom then restart the loop
if            "${randzi} < $(v_wthick - 0.7)" then "jump MDPBB.in loop"
set           atom ${randatomi} type 4                    # Set this grafted wall atom as a new type
set           atom 1484 type 4                    
  1 settings made for type
group         twg id ${randatomi}                         # Add this atom to a top-wall-grafted group
group         twg id 1484                         
50 atoms in group twg
variable      twgcount equal count(twg)
print         "twg contains ${twgcount}"
twg contains 50
print         "i = $(v_i)"                                # The index i should always be equal to the number of atom in twg
i = 50
variable      x0 equal x[${randatomi}]                    # Determine its x-coord
variable      x0 equal x[1484]                    
variable      y0 equal y[${randatomi}]                    # Determine its y-coord
variable      y0 equal y[1484]                    
variable      check0 equal ${check}                       # Count the number of atoms in the simulation
variable      check0 equal 4062                       
variable      b equal ${check}+1                          # The grafted bead id will be one higher after being inserted
variable      b equal 4062+1                          
if            "${twgcount} != $(v_i)" then "jump MDPBB.in loop"
# Otherwise insert the chain directly above the chosen wall atom pointing perpendicular to the wall
create_atoms  1 single ${x0} ${y0} ${z0} mol bs 24987 units box remap yes rotate 0 0 0 1
create_atoms  1 single 15.874010519682 ${y0} ${z0} mol bs 24987 units box remap yes rotate 0 0 0 1
create_atoms  1 single 15.874010519682 3.9685026299205 ${z0} mol bs 24987 units box remap yes rotate 0 0 0 1
create_atoms  1 single 15.874010519682 3.9685026299205 17 mol bs 24987 units box remap yes rotate 0 0 0 1
Created 30 atoms
  create_atoms CPU = 0.0001134 secs
variable      check1 equal ${check}               # Count the new total number of atoms
variable      check1 equal 4092               
# Check that the molecule has indeed been inserted (This check is no longer an issue).
if            "${check1} != ${check0}" then "create_bonds  single/bond 2 ${randatomi} $b" "next i"
create_bonds  single/bond 2 ${randatomi} $b
create_bonds  single/bond 2 1484 $b
create_bonds  single/bond 2 1484 4063
  2 = max # of 1-2 neighbors
  5 = max # of special neighbors
  special bonds CPU = 0.0051605 secs
next i
jump MDPBB.in loop    # End of the loop
variable      randni equal round(random(1,${ntwall},$s))  # Pick a random "top" wall atom
variable      randni equal round(random(1,2592,$s))  
variable      randni equal round(random(1,2592,234897))  
variable      randatomi equal ${randni}                   # This is to obtain an integer number for atom-id
variable      randatomi equal 681                   
variable      randzi equal z[${randatomi}]                # Determine the z coordinate of the chosen atom
variable      randzi equal z[681]                
# if the chosen atom is not a surface atom then restart the loop
if            "${randzi} < $(v_wthick - 0.7)" then "jump MDPBB.in loop"
jump MDPBB.in loop
variable      randni equal round(random(1,${ntwall},$s))  # Pick a random "top" wall atom
variable      randni equal round(random(1,2592,$s))  
variable      randni equal round(random(1,2592,234897))  
variable      randatomi equal ${randni}                   # This is to obtain an integer number for atom-id
variable      randatomi equal 2346                   
variable      randzi equal z[${randatomi}]                # Determine the z coordinate of the chosen atom
variable      randzi equal z[2346]                
# if the chosen atom is not a surface atom then restart the loop
if            "${randzi} < $(v_wthick - 0.7)" then "jump MDPBB.in loop"
jump MDPBB.in loop
variable      randni equal round(random(1,${ntwall},$s))  # Pick a random "top" wall atom
variable      randni equal round(random(1,2592,$s))  
variable      randni equal round(random(1,2592,234897))  
variable      randatomi equal ${randni}                   # This is to obtain an integer number for atom-id
variable      randatomi equal 1294                   
variable      randzi equal z[${randatomi}]                # Determine the z coordinate of the chosen atom
variable      randzi equal z[1294]                
# if the chosen atom is not a surface atom then restart the loop
if            "${randzi} < $(v_wthick - 0.7)" then "jump MDPBB.in loop"
jump MDPBB.in loop
variable      randni equal round(random(1,${ntwall},$s))  # Pick a random "top" wall atom
variable      randni equal round(random(1,2592,$s))  
variable      randni equal round(random(1,2592,234897))  
variable      randatomi equal ${randni}                   # This is to obtain an integer number for atom-id
variable      randatomi equal 327                   
variable      randzi equal z[${randatomi}]                # Determine the z coordinate of the chosen atom
variable      randzi equal z[327]                
# if the chosen atom is not a surface atom then restart the loop
if            "${randzi} < $(v_wthick - 0.7)" then "jump MDPBB.in loop"
jump MDPBB.in loop
variable      randni equal round(random(1,${ntwall},$s))  # Pick a random "top" wall atom
variable      randni equal round(random(1,2592,$s))  
variable      randni equal round(random(1,2592,234897))  
variable      randatomi equal ${randni}                   # This is to obtain an integer number for atom-id
variable      randatomi equal 497                   
variable      randzi equal z[${randatomi}]                # Determine the z coordinate of the chosen atom
variable      randzi equal z[497]                
# if the chosen atom is not a surface atom then restart the loop
if            "${randzi} < $(v_wthick - 0.7)" then "jump MDPBB.in loop"
jump MDPBB.in loop
variable      randni equal round(random(1,${ntwall},$s))  # Pick a random "top" wall atom
variable      randni equal round(random(1,2592,$s))  
variable      randni equal round(random(1,2592,234897))  
variable      randatomi equal ${randni}                   # This is to obtain an integer number for atom-id
variable      randatomi equal 524                   
variable      randzi equal z[${randatomi}]                # Determine the z coordinate of the chosen atom
variable      randzi equal z[524]                
# if the chosen atom is not a surface atom then restart the loop
if            "${randzi} < $(v_wthick - 0.7)" then "jump MDPBB.in loop"
jump MDPBB.in loop
variable      randni equal round(random(1,${ntwall},$s))  # Pick a random "top" wall atom
variable      randni equal round(random(1,2592,$s))  
variable      randni equal round(random(1,2592,234897))  
variable      randatomi equal ${randni}                   # This is to obtain an integer number for atom-id
variable      randatomi equal 1346                   
variable      randzi equal z[${randatomi}]                # Determine the z coordinate of the chosen atom
variable      randzi equal z[1346]                
# if the chosen atom is not a surface atom then restart the loop
if            "${randzi} < $(v_wthick - 0.7)" then "jump MDPBB.in loop"
jump MDPBB.in loop
variable      randni equal round(random(1,${ntwall},$s))  # Pick a random "top" wall atom
variable      randni equal round(random(1,2592,$s))  
variable      randni equal round(random(1,2592,234897))  
variable      randatomi equal ${randni}                   # This is to obtain an integer number for atom-id
variable      randatomi equal 427                   
variable      randzi equal z[${randatomi}]                # Determine the z coordinate of the chosen atom
variable      randzi equal z[427]                
# if the chosen atom is not a surface atom then restart the loop
if            "${randzi} < $(v_wthick - 0.7)" then "jump MDPBB.in loop"
jump MDPBB.in loop
variable      randni equal round(random(1,${ntwall},$s))  # Pick a random "top" wall atom
variable      randni equal round(random(1,2592,$s))  
variable      randni equal round(random(1,2592,234897))  
variable      randatomi equal ${randni}                   # This is to obtain an integer number for atom-id
variable      randatomi equal 2320                   
variable      randzi equal z[${randatomi}]                # Determine the z coordinate of the chosen atom
variable      randzi equal z[2320]                
# if the chosen atom is not a surface atom then restart the loop
if            "${randzi} < $(v_wthick - 0.7)" then "jump MDPBB.in loop"
set           atom ${randatomi} type 4                    # Set this grafted wall atom as a new type
set           atom 2320 type 4                    
  1 settings made for type
group         twg id ${randatomi}                         # Add this atom to a top-wall-grafted group
group         twg id 2320                         
51 atoms in group twg
variable      twgcount equal count(twg)
print         "twg contains ${twgcount}"
twg contains 51
print         "i = $(v_i)"                                # The index i should always be equal to the number of atom in twg
i = 51
variable      x0 equal x[${randatomi}]                    # Determine its x-coord
variable      x0 equal x[2320]                    
variable      y0 equal y[${randatomi}]                    # Determine its y-coord
variable      y0 equal y[2320]                    
variable      check0 equal ${check}                       # Count the number of atoms in the simulation
variable      check0 equal 4092                       
variable      b equal ${check}+1                          # The grafted bead id will be one higher after being inserted
variable      b equal 4092+1                          
if            "${twgcount} != $(v_i)" then "jump MDPBB.in loop"
# Otherwise insert the chain directly above the chosen wall atom pointing perpendicular to the wall
create_atoms  1 single ${x0} ${y0} ${z0} mol bs 24987 units box remap yes rotate 0 0 0 1
create_atoms  1 single 4.7622031559046 ${y0} ${z0} mol bs 24987 units box remap yes rotate 0 0 0 1
create_atoms  1 single 4.7622031559046 23.0173152535389 ${z0} mol bs 24987 units box remap yes rotate 0 0 0 1
create_atoms  1 single 4.7622031559046 23.0173152535389 17 mol bs 24987 units box remap yes rotate 0 0 0 1
Created 30 atoms
  create_atoms CPU = 0.0001343 secs
variable      check1 equal ${check}               # Count the new total number of atoms
variable      check1 equal 4122               
# Check that the molecule has indeed been inserted (This check is no longer an issue).
if            "${check1} != ${check0}" then "create_bonds  single/bond 2 ${randatomi} $b" "next i"
create_bonds  single/bond 2 ${randatomi} $b
create_bonds  single/bond 2 2320 $b
create_bonds  single/bond 2 2320 4093
  2 = max # of 1-2 neighbors
  5 = max # of special neighbors
  special bonds CPU = 0.005541 secs
next i
jump MDPBB.in loop    # End of the loop
variable      randni equal round(random(1,${ntwall},$s))  # Pick a random "top" wall atom
variable      randni equal round(random(1,2592,$s))  
variable      randni equal round(random(1,2592,234897))  
variable      randatomi equal ${randni}                   # This is to obtain an integer number for atom-id
variable      randatomi equal 2341                   
variable      randzi equal z[${randatomi}]                # Determine the z coordinate of the chosen atom
variable      randzi equal z[2341]                
# if the chosen atom is not a surface atom then restart the loop
if            "${randzi} < $(v_wthick - 0.7)" then "jump MDPBB.in loop"
jump MDPBB.in loop
variable      randni equal round(random(1,${ntwall},$s))  # Pick a random "top" wall atom
variable      randni equal round(random(1,2592,$s))  
variable      randni equal round(random(1,2592,234897))  
variable      randatomi equal ${randni}                   # This is to obtain an integer number for atom-id
variable      randatomi equal 2510                   
variable      randzi equal z[${randatomi}]                # Determine the z coordinate of the chosen atom
variable      randzi equal z[2510]                
# if the chosen atom is not a surface atom then restart the loop
if            "${randzi} < $(v_wthick - 0.7)" then "jump MDPBB.in loop"
jump MDPBB.in loop
variable      randni equal round(random(1,${ntwall},$s))  # Pick a random "top" wall atom
variable      randni equal round(random(1,2592,$s))  
variable      randni equal round(random(1,2592,234897))  
variable      randatomi equal ${randni}                   # This is to obtain an integer number for atom-id
variable      randatomi equal 1760                   
variable      randzi equal z[${randatomi}]                # Determine the z coordinate of the chosen atom
variable      randzi equal z[1760]                
# if the chosen atom is not a surface atom then restart the loop
if            "${randzi} < $(v_wthick - 0.7)" then "jump MDPBB.in loop"
set           atom ${randatomi} type 4                    # Set this grafted wall atom as a new type
set           atom 1760 type 4                    
  1 settings made for type
group         twg id ${randatomi}                         # Add this atom to a top-wall-grafted group
group         twg id 1760                         
52 atoms in group twg
variable      twgcount equal count(twg)
print         "twg contains ${twgcount}"
twg contains 52
print         "i = $(v_i)"                                # The index i should always be equal to the number of atom in twg
i = 52
variable      x0 equal x[${randatomi}]                    # Determine its x-coord
variable      x0 equal x[1760]                    
variable      y0 equal y[${randatomi}]                    # Determine its y-coord
variable      y0 equal y[1760]                    
variable      check0 equal ${check}                       # Count the number of atoms in the simulation
variable      check0 equal 4122                       
variable      b equal ${check}+1                          # The grafted bead id will be one higher after being inserted
variable      b equal 4122+1                          
if            "${twgcount} != $(v_i)" then "jump MDPBB.in loop"
# Otherwise insert the chain directly above the chosen wall atom pointing perpendicular to the wall
create_atoms  1 single ${x0} ${y0} ${z0} mol bs 24987 units box remap yes rotate 0 0 0 1
create_atoms  1 single 11.1118073637774 ${y0} ${z0} mol bs 24987 units box remap yes rotate 0 0 0 1
create_atoms  1 single 11.1118073637774 10.3181068377933 ${z0} mol bs 24987 units box remap yes rotate 0 0 0 1
create_atoms  1 single 11.1118073637774 10.3181068377933 17 mol bs 24987 units box remap yes rotate 0 0 0 1
Created 30 atoms
  create_atoms CPU = 0.0001066 secs
variable      check1 equal ${check}               # Count the new total number of atoms
variable      check1 equal 4152               
# Check that the molecule has indeed been inserted (This check is no longer an issue).
if            "${check1} != ${check0}" then "create_bonds  single/bond 2 ${randatomi} $b" "next i"
create_bonds  single/bond 2 ${randatomi} $b
create_bonds  single/bond 2 1760 $b
create_bonds  single/bond 2 1760 4123
  2 = max # of 1-2 neighbors
  5 = max # of special neighbors
  special bonds CPU = 0.0045439 secs
next i
jump MDPBB.in loop    # End of the loop
variable      randni equal round(random(1,${ntwall},$s))  # Pick a random "top" wall atom
variable      randni equal round(random(1,2592,$s))  
variable      randni equal round(random(1,2592,234897))  
variable      randatomi equal ${randni}                   # This is to obtain an integer number for atom-id
variable      randatomi equal 1566                   
variable      randzi equal z[${randatomi}]                # Determine the z coordinate of the chosen atom
variable      randzi equal z[1566]                
# if the chosen atom is not a surface atom then restart the loop
if            "${randzi} < $(v_wthick - 0.7)" then "jump MDPBB.in loop"
jump MDPBB.in loop
variable      randni equal round(random(1,${ntwall},$s))  # Pick a random "top" wall atom
variable      randni equal round(random(1,2592,$s))  
variable      randni equal round(random(1,2592,234897))  
variable      randatomi equal ${randni}                   # This is to obtain an integer number for atom-id
variable      randatomi equal 1156                   
variable      randzi equal z[${randatomi}]                # Determine the z coordinate of the chosen atom
variable      randzi equal z[1156]                
# if the chosen atom is not a surface atom then restart the loop
if            "${randzi} < $(v_wthick - 0.7)" then "jump MDPBB.in loop"
jump MDPBB.in loop
variable      randni equal round(random(1,${ntwall},$s))  # Pick a random "top" wall atom
variable      randni equal round(random(1,2592,$s))  
variable      randni equal round(random(1,2592,234897))  
variable      randatomi equal ${randni}                   # This is to obtain an integer number for atom-id
variable      randatomi equal 2489                   
variable      randzi equal z[${randatomi}]                # Determine the z coordinate of the chosen atom
variable      randzi equal z[2489]                
# if the chosen atom is not a surface atom then restart the loop
if            "${randzi} < $(v_wthick - 0.7)" then "jump MDPBB.in loop"
jump MDPBB.in loop
variable      randni equal round(random(1,${ntwall},$s))  # Pick a random "top" wall atom
variable      randni equal round(random(1,2592,$s))  
variable      randni equal round(random(1,2592,234897))  
variable      randatomi equal ${randni}                   # This is to obtain an integer number for atom-id
variable      randatomi equal 2239                   
variable      randzi equal z[${randatomi}]                # Determine the z coordinate of the chosen atom
variable      randzi equal z[2239]                
# if the chosen atom is not a surface atom then restart the loop
if            "${randzi} < $(v_wthick - 0.7)" then "jump MDPBB.in loop"
set           atom ${randatomi} type 4                    # Set this grafted wall atom as a new type
set           atom 2239 type 4                    
  1 settings made for type
group         twg id ${randatomi}                         # Add this atom to a top-wall-grafted group
group         twg id 2239                         
53 atoms in group twg
variable      twgcount equal count(twg)
print         "twg contains ${twgcount}"
twg contains 53
print         "i = $(v_i)"                                # The index i should always be equal to the number of atom in twg
i = 53
variable      x0 equal x[${randatomi}]                    # Determine its x-coord
variable      x0 equal x[2239]                    
variable      y0 equal y[${randatomi}]                    # Determine its y-coord
variable      y0 equal y[2239]                    
variable      check0 equal ${check}                       # Count the number of atoms in the simulation
variable      check0 equal 4152                       
variable      b equal ${check}+1                          # The grafted bead id will be one higher after being inserted
variable      b equal 4152+1                          
if            "${twgcount} != $(v_i)" then "jump MDPBB.in loop"
# Otherwise insert the chain directly above the chosen wall atom pointing perpendicular to the wall
create_atoms  1 single ${x0} ${y0} ${z0} mol bs 24987 units box remap yes rotate 0 0 0 1
create_atoms  1 single 2.3811015779523 ${y0} ${z0} mol bs 24987 units box remap yes rotate 0 0 0 1
create_atoms  1 single 2.3811015779523 20.6362136755866 ${z0} mol bs 24987 units box remap yes rotate 0 0 0 1
create_atoms  1 single 2.3811015779523 20.6362136755866 17 mol bs 24987 units box remap yes rotate 0 0 0 1
Created 30 atoms
  create_atoms CPU = 0.0001313 secs
variable      check1 equal ${check}               # Count the new total number of atoms
variable      check1 equal 4182               
# Check that the molecule has indeed been inserted (This check is no longer an issue).
if            "${check1} != ${check0}" then "create_bonds  single/bond 2 ${randatomi} $b" "next i"
create_bonds  single/bond 2 ${randatomi} $b
create_bonds  single/bond 2 2239 $b
create_bonds  single/bond 2 2239 4153
  2 = max # of 1-2 neighbors
  5 = max # of special neighbors
  special bonds CPU = 0.0039122 secs
next i
jump MDPBB.in loop    # End of the loop
variable      randni equal round(random(1,${ntwall},$s))  # Pick a random "top" wall atom
variable      randni equal round(random(1,2592,$s))  
variable      randni equal round(random(1,2592,234897))  
variable      randatomi equal ${randni}                   # This is to obtain an integer number for atom-id
variable      randatomi equal 729                   
variable      randzi equal z[${randatomi}]                # Determine the z coordinate of the chosen atom
variable      randzi equal z[729]                
# if the chosen atom is not a surface atom then restart the loop
if            "${randzi} < $(v_wthick - 0.7)" then "jump MDPBB.in loop"
jump MDPBB.in loop
variable      randni equal round(random(1,${ntwall},$s))  # Pick a random "top" wall atom
variable      randni equal round(random(1,2592,$s))  
variable      randni equal round(random(1,2592,234897))  
variable      randatomi equal ${randni}                   # This is to obtain an integer number for atom-id
variable      randatomi equal 2525                   
variable      randzi equal z[${randatomi}]                # Determine the z coordinate of the chosen atom
variable      randzi equal z[2525]                
# if the chosen atom is not a surface atom then restart the loop
if            "${randzi} < $(v_wthick - 0.7)" then "jump MDPBB.in loop"
jump MDPBB.in loop
variable      randni equal round(random(1,${ntwall},$s))  # Pick a random "top" wall atom
variable      randni equal round(random(1,2592,$s))  
variable      randni equal round(random(1,2592,234897))  
variable      randatomi equal ${randni}                   # This is to obtain an integer number for atom-id
variable      randatomi equal 2160                   
variable      randzi equal z[${randatomi}]                # Determine the z coordinate of the chosen atom
variable      randzi equal z[2160]                
# if the chosen atom is not a surface atom then restart the loop
if            "${randzi} < $(v_wthick - 0.7)" then "jump MDPBB.in loop"
set           atom ${randatomi} type 4                    # Set this grafted wall atom as a new type
set           atom 2160 type 4                    
  1 settings made for type
group         twg id ${randatomi}                         # Add this atom to a top-wall-grafted group
group         twg id 2160                         
54 atoms in group twg
variable      twgcount equal count(twg)
print         "twg contains ${twgcount}"
twg contains 54
print         "i = $(v_i)"                                # The index i should always be equal to the number of atom in twg
i = 54
variable      x0 equal x[${randatomi}]                    # Determine its x-coord
variable      x0 equal x[2160]                    
variable      y0 equal y[${randatomi}]                    # Determine its y-coord
variable      y0 equal y[2160]                    
variable      check0 equal ${check}                       # Count the number of atoms in the simulation
variable      check0 equal 4182                       
variable      b equal ${check}+1                          # The grafted bead id will be one higher after being inserted
variable      b equal 4182+1                          
if            "${twgcount} != $(v_i)" then "jump MDPBB.in loop"
# Otherwise insert the chain directly above the chosen wall atom pointing perpendicular to the wall
create_atoms  1 single ${x0} ${y0} ${z0} mol bs 24987 units box remap yes rotate 0 0 0 1
create_atoms  1 single 26.9858178834594 ${y0} ${z0} mol bs 24987 units box remap yes rotate 0 0 0 1
create_atoms  1 single 26.9858178834594 18.2551120976343 ${z0} mol bs 24987 units box remap yes rotate 0 0 0 1
create_atoms  1 single 26.9858178834594 18.2551120976343 17 mol bs 24987 units box remap yes rotate 0 0 0 1
Created 30 atoms
  create_atoms CPU = 0.00014 secs
variable      check1 equal ${check}               # Count the new total number of atoms
variable      check1 equal 4212               
# Check that the molecule has indeed been inserted (This check is no longer an issue).
if            "${check1} != ${check0}" then "create_bonds  single/bond 2 ${randatomi} $b" "next i"
create_bonds  single/bond 2 ${randatomi} $b
create_bonds  single/bond 2 2160 $b
create_bonds  single/bond 2 2160 4183
  2 = max # of 1-2 neighbors
  5 = max # of special neighbors
  special bonds CPU = 0.0041175 secs
next i
jump MDPBB.in loop    # End of the loop
variable      randni equal round(random(1,${ntwall},$s))  # Pick a random "top" wall atom
variable      randni equal round(random(1,2592,$s))  
variable      randni equal round(random(1,2592,234897))  
variable      randatomi equal ${randni}                   # This is to obtain an integer number for atom-id
variable      randatomi equal 1135                   
variable      randzi equal z[${randatomi}]                # Determine the z coordinate of the chosen atom
variable      randzi equal z[1135]                
# if the chosen atom is not a surface atom then restart the loop
if            "${randzi} < $(v_wthick - 0.7)" then "jump MDPBB.in loop"
jump MDPBB.in loop
variable      randni equal round(random(1,${ntwall},$s))  # Pick a random "top" wall atom
variable      randni equal round(random(1,2592,$s))  
variable      randni equal round(random(1,2592,234897))  
variable      randatomi equal ${randni}                   # This is to obtain an integer number for atom-id
variable      randatomi equal 1404                   
variable      randzi equal z[${randatomi}]                # Determine the z coordinate of the chosen atom
variable      randzi equal z[1404]                
# if the chosen atom is not a surface atom then restart the loop
if            "${randzi} < $(v_wthick - 0.7)" then "jump MDPBB.in loop"
set           atom ${randatomi} type 4                    # Set this grafted wall atom as a new type
set           atom 1404 type 4                    
  1 settings made for type
group         twg id ${randatomi}                         # Add this atom to a top-wall-grafted group
group         twg id 1404                         
55 atoms in group twg
variable      twgcount equal count(twg)
print         "twg contains ${twgcount}"
twg contains 55
print         "i = $(v_i)"                                # The index i should always be equal to the number of atom in twg
i = 55
variable      x0 equal x[${randatomi}]                    # Determine its x-coord
variable      x0 equal x[1404]                    
variable      y0 equal y[${randatomi}]                    # Determine its y-coord
variable      y0 equal y[1404]                    
variable      check0 equal ${check}                       # Count the number of atoms in the simulation
variable      check0 equal 4212                       
variable      b equal ${check}+1                          # The grafted bead id will be one higher after being inserted
variable      b equal 4212+1                          
if            "${twgcount} != $(v_i)" then "jump MDPBB.in loop"
# Otherwise insert the chain directly above the chosen wall atom pointing perpendicular to the wall
create_atoms  1 single ${x0} ${y0} ${z0} mol bs 24987 units box remap yes rotate 0 0 0 1
create_atoms  1 single 12.6992084157456 ${y0} ${z0} mol bs 24987 units box remap yes rotate 0 0 0 1
create_atoms  1 single 12.6992084157456 2.3811015779523 ${z0} mol bs 24987 units box remap yes rotate 0 0 0 1
create_atoms  1 single 12.6992084157456 2.3811015779523 17 mol bs 24987 units box remap yes rotate 0 0 0 1
Created 30 atoms
  create_atoms CPU = 9.09e-05 secs
variable      check1 equal ${check}               # Count the new total number of atoms
variable      check1 equal 4242               
# Check that the molecule has indeed been inserted (This check is no longer an issue).
if            "${check1} != ${check0}" then "create_bonds  single/bond 2 ${randatomi} $b" "next i"
create_bonds  single/bond 2 ${randatomi} $b
create_bonds  single/bond 2 1404 $b
create_bonds  single/bond 2 1404 4213
  2 = max # of 1-2 neighbors
  5 = max # of special neighbors
  special bonds CPU = 0.003275 secs
next i
jump MDPBB.in loop    # End of the loop
variable      randni equal round(random(1,${ntwall},$s))  # Pick a random "top" wall atom
variable      randni equal round(random(1,2592,$s))  
variable      randni equal round(random(1,2592,234897))  
variable      randatomi equal ${randni}                   # This is to obtain an integer number for atom-id
variable      randatomi equal 715                   
variable      randzi equal z[${randatomi}]                # Determine the z coordinate of the chosen atom
variable      randzi equal z[715]                
# if the chosen atom is not a surface atom then restart the loop
if            "${randzi} < $(v_wthick - 0.7)" then "jump MDPBB.in loop"
jump MDPBB.in loop
variable      randni equal round(random(1,${ntwall},$s))  # Pick a random "top" wall atom
variable      randni equal round(random(1,2592,$s))  
variable      randni equal round(random(1,2592,234897))  
variable      randatomi equal ${randni}                   # This is to obtain an integer number for atom-id
variable      randatomi equal 357                   
variable      randzi equal z[${randatomi}]                # Determine the z coordinate of the chosen atom
variable      randzi equal z[357]                
# if the chosen atom is not a surface atom then restart the loop
if            "${randzi} < $(v_wthick - 0.7)" then "jump MDPBB.in loop"
jump MDPBB.in loop
variable      randni equal round(random(1,${ntwall},$s))  # Pick a random "top" wall atom
variable      randni equal round(random(1,2592,$s))  
variable      randni equal round(random(1,2592,234897))  
variable      randatomi equal ${randni}                   # This is to obtain an integer number for atom-id
variable      randatomi equal 598                   
variable      randzi equal z[${randatomi}]                # Determine the z coordinate of the chosen atom
variable      randzi equal z[598]                
# if the chosen atom is not a surface atom then restart the loop
if            "${randzi} < $(v_wthick - 0.7)" then "jump MDPBB.in loop"
jump MDPBB.in loop
variable      randni equal round(random(1,${ntwall},$s))  # Pick a random "top" wall atom
variable      randni equal round(random(1,2592,$s))  
variable      randni equal round(random(1,2592,234897))  
variable      randatomi equal ${randni}                   # This is to obtain an integer number for atom-id
variable      randatomi equal 2124                   
variable      randzi equal z[${randatomi}]                # Determine the z coordinate of the chosen atom
variable      randzi equal z[2124]                
# if the chosen atom is not a surface atom then restart the loop
if            "${randzi} < $(v_wthick - 0.7)" then "jump MDPBB.in loop"
set           atom ${randatomi} type 4                    # Set this grafted wall atom as a new type
set           atom 2124 type 4                    
  1 settings made for type
group         twg id ${randatomi}                         # Add this atom to a top-wall-grafted group
group         twg id 2124                         
56 atoms in group twg
variable      twgcount equal count(twg)
print         "twg contains ${twgcount}"
twg contains 56
print         "i = $(v_i)"                                # The index i should always be equal to the number of atom in twg
i = 56
variable      x0 equal x[${randatomi}]                    # Determine its x-coord
variable      x0 equal x[2124]                    
variable      y0 equal y[${randatomi}]                    # Determine its y-coord
variable      y0 equal y[2124]                    
variable      check0 equal ${check}                       # Count the number of atoms in the simulation
variable      check0 equal 4242                       
variable      b equal ${check}+1                          # The grafted bead id will be one higher after being inserted
variable      b equal 4242+1                          
if            "${twgcount} != $(v_i)" then "jump MDPBB.in loop"
# Otherwise insert the chain directly above the chosen wall atom pointing perpendicular to the wall
create_atoms  1 single ${x0} ${y0} ${z0} mol bs 24987 units box remap yes rotate 0 0 0 1
create_atoms  1 single 12.6992084157456 ${y0} ${z0} mol bs 24987 units box remap yes rotate 0 0 0 1
create_atoms  1 single 12.6992084157456 18.2551120976343 ${z0} mol bs 24987 units box remap yes rotate 0 0 0 1
create_atoms  1 single 12.6992084157456 18.2551120976343 17 mol bs 24987 units box remap yes rotate 0 0 0 1
Created 30 atoms
  create_atoms CPU = 0.0001315 secs
variable      check1 equal ${check}               # Count the new total number of atoms
variable      check1 equal 4272               
# Check that the molecule has indeed been inserted (This check is no longer an issue).
if            "${check1} != ${check0}" then "create_bonds  single/bond 2 ${randatomi} $b" "next i"
create_bonds  single/bond 2 ${randatomi} $b
create_bonds  single/bond 2 2124 $b
create_bonds  single/bond 2 2124 4243
  2 = max # of 1-2 neighbors
  5 = max # of special neighbors
  special bonds CPU = 0.0024206 secs
next i
jump MDPBB.in loop    # End of the loop
variable      randni equal round(random(1,${ntwall},$s))  # Pick a random "top" wall atom
variable      randni equal round(random(1,2592,$s))  
variable      randni equal round(random(1,2592,234897))  
variable      randatomi equal ${randni}                   # This is to obtain an integer number for atom-id
variable      randatomi equal 571                   
variable      randzi equal z[${randatomi}]                # Determine the z coordinate of the chosen atom
variable      randzi equal z[571]                
# if the chosen atom is not a surface atom then restart the loop
if            "${randzi} < $(v_wthick - 0.7)" then "jump MDPBB.in loop"
jump MDPBB.in loop
variable      randni equal round(random(1,${ntwall},$s))  # Pick a random "top" wall atom
variable      randni equal round(random(1,2592,$s))  
variable      randni equal round(random(1,2592,234897))  
variable      randatomi equal ${randni}                   # This is to obtain an integer number for atom-id
variable      randatomi equal 1498                   
variable      randzi equal z[${randatomi}]                # Determine the z coordinate of the chosen atom
variable      randzi equal z[1498]                
# if the chosen atom is not a surface atom then restart the loop
if            "${randzi} < $(v_wthick - 0.7)" then "jump MDPBB.in loop"
jump MDPBB.in loop
variable      randni equal round(random(1,${ntwall},$s))  # Pick a random "top" wall atom
variable      randni equal round(random(1,2592,$s))  
variable      randni equal round(random(1,2592,234897))  
variable      randatomi equal ${randni}                   # This is to obtain an integer number for atom-id
variable      randatomi equal 1747                   
variable      randzi equal z[${randatomi}]                # Determine the z coordinate of the chosen atom
variable      randzi equal z[1747]                
# if the chosen atom is not a surface atom then restart the loop
if            "${randzi} < $(v_wthick - 0.7)" then "jump MDPBB.in loop"
set           atom ${randatomi} type 4                    # Set this grafted wall atom as a new type
set           atom 1747 type 4                    
  1 settings made for type
group         twg id ${randatomi}                         # Add this atom to a top-wall-grafted group
group         twg id 1747                         
57 atoms in group twg
variable      twgcount equal count(twg)
print         "twg contains ${twgcount}"
twg contains 57
print         "i = $(v_i)"                                # The index i should always be equal to the number of atom in twg
i = 57
variable      x0 equal x[${randatomi}]                    # Determine its x-coord
variable      x0 equal x[1747]                    
variable      y0 equal y[${randatomi}]                    # Determine its y-coord
variable      y0 equal y[1747]                    
variable      check0 equal ${check}                       # Count the number of atoms in the simulation
variable      check0 equal 4272                       
variable      b equal ${check}+1                          # The grafted bead id will be one higher after being inserted
variable      b equal 4272+1                          
if            "${twgcount} != $(v_i)" then "jump MDPBB.in loop"
# Otherwise insert the chain directly above the chosen wall atom pointing perpendicular to the wall
create_atoms  1 single ${x0} ${y0} ${z0} mol bs 24987 units box remap yes rotate 0 0 0 1
create_atoms  1 single 7.1433047338569 ${y0} ${z0} mol bs 24987 units box remap yes rotate 0 0 0 1
create_atoms  1 single 7.1433047338569 9.5244063118092 ${z0} mol bs 24987 units box remap yes rotate 0 0 0 1
create_atoms  1 single 7.1433047338569 9.5244063118092 17 mol bs 24987 units box remap yes rotate 0 0 0 1
Created 30 atoms
  create_atoms CPU = 0.0001213 secs
variable      check1 equal ${check}               # Count the new total number of atoms
variable      check1 equal 4302               
# Check that the molecule has indeed been inserted (This check is no longer an issue).
if            "${check1} != ${check0}" then "create_bonds  single/bond 2 ${randatomi} $b" "next i"
create_bonds  single/bond 2 ${randatomi} $b
create_bonds  single/bond 2 1747 $b
create_bonds  single/bond 2 1747 4273
  2 = max # of 1-2 neighbors
  5 = max # of special neighbors
  special bonds CPU = 0.0034955 secs
next i
jump MDPBB.in loop    # End of the loop
variable      randni equal round(random(1,${ntwall},$s))  # Pick a random "top" wall atom
variable      randni equal round(random(1,2592,$s))  
variable      randni equal round(random(1,2592,234897))  
variable      randatomi equal ${randni}                   # This is to obtain an integer number for atom-id
variable      randatomi equal 560                   
variable      randzi equal z[${randatomi}]                # Determine the z coordinate of the chosen atom
variable      randzi equal z[560]                
# if the chosen atom is not a surface atom then restart the loop
if            "${randzi} < $(v_wthick - 0.7)" then "jump MDPBB.in loop"
jump MDPBB.in loop
variable      randni equal round(random(1,${ntwall},$s))  # Pick a random "top" wall atom
variable      randni equal round(random(1,2592,$s))  
variable      randni equal round(random(1,2592,234897))  
variable      randatomi equal ${randni}                   # This is to obtain an integer number for atom-id
variable      randatomi equal 1453                   
variable      randzi equal z[${randatomi}]                # Determine the z coordinate of the chosen atom
variable      randzi equal z[1453]                
# if the chosen atom is not a surface atom then restart the loop
if            "${randzi} < $(v_wthick - 0.7)" then "jump MDPBB.in loop"
jump MDPBB.in loop
variable      randni equal round(random(1,${ntwall},$s))  # Pick a random "top" wall atom
variable      randni equal round(random(1,2592,$s))  
variable      randni equal round(random(1,2592,234897))  
variable      randatomi equal ${randni}                   # This is to obtain an integer number for atom-id
variable      randatomi equal 1598                   
variable      randzi equal z[${randatomi}]                # Determine the z coordinate of the chosen atom
variable      randzi equal z[1598]                
# if the chosen atom is not a surface atom then restart the loop
if            "${randzi} < $(v_wthick - 0.7)" then "jump MDPBB.in loop"
jump MDPBB.in loop
variable      randni equal round(random(1,${ntwall},$s))  # Pick a random "top" wall atom
variable      randni equal round(random(1,2592,$s))  
variable      randni equal round(random(1,2592,234897))  
variable      randatomi equal ${randni}                   # This is to obtain an integer number for atom-id
variable      randatomi equal 2452                   
variable      randzi equal z[${randatomi}]                # Determine the z coordinate of the chosen atom
variable      randzi equal z[2452]                
# if the chosen atom is not a surface atom then restart the loop
if            "${randzi} < $(v_wthick - 0.7)" then "jump MDPBB.in loop"
set           atom ${randatomi} type 4                    # Set this grafted wall atom as a new type
set           atom 2452 type 4                    
  1 settings made for type
group         twg id ${randatomi}                         # Add this atom to a top-wall-grafted group
group         twg id 2452                         
58 atoms in group twg
variable      twgcount equal count(twg)
print         "twg contains ${twgcount}"
twg contains 58
print         "i = $(v_i)"                                # The index i should always be equal to the number of atom in twg
i = 58
variable      x0 equal x[${randatomi}]                    # Determine its x-coord
variable      x0 equal x[2452]                    
variable      y0 equal y[${randatomi}]                    # Determine its y-coord
variable      y0 equal y[2452]                    
variable      check0 equal ${check}                       # Count the number of atoms in the simulation
variable      check0 equal 4302                       
variable      b equal ${check}+1                          # The grafted bead id will be one higher after being inserted
variable      b equal 4302+1                          
if            "${twgcount} != $(v_i)" then "jump MDPBB.in loop"
# Otherwise insert the chain directly above the chosen wall atom pointing perpendicular to the wall
create_atoms  1 single ${x0} ${y0} ${z0} mol bs 24987 units box remap yes rotate 0 0 0 1
create_atoms  1 single 0 ${y0} ${z0} mol bs 24987 units box remap yes rotate 0 0 0 1
create_atoms  1 single 0 26.1921173574753 ${z0} mol bs 24987 units box remap yes rotate 0 0 0 1
create_atoms  1 single 0 26.1921173574753 17 mol bs 24987 units box remap yes rotate 0 0 0 1
Created 30 atoms
  create_atoms CPU = 9.77e-05 secs
variable      check1 equal ${check}               # Count the new total number of atoms
variable      check1 equal 4332               
# Check that the molecule has indeed been inserted (This check is no longer an issue).
if            "${check1} != ${check0}" then "create_bonds  single/bond 2 ${randatomi} $b" "next i"
create_bonds  single/bond 2 ${randatomi} $b
create_bonds  single/bond 2 2452 $b
create_bonds  single/bond 2 2452 4303
  2 = max # of 1-2 neighbors
  5 = max # of special neighbors
  special bonds CPU = 0.0073873 secs
next i
jump MDPBB.in loop    # End of the loop
variable      randni equal round(random(1,${ntwall},$s))  # Pick a random "top" wall atom
variable      randni equal round(random(1,2592,$s))  
variable      randni equal round(random(1,2592,234897))  
variable      randatomi equal ${randni}                   # This is to obtain an integer number for atom-id
variable      randatomi equal 1455                   
variable      randzi equal z[${randatomi}]                # Determine the z coordinate of the chosen atom
variable      randzi equal z[1455]                
# if the chosen atom is not a surface atom then restart the loop
if            "${randzi} < $(v_wthick - 0.7)" then "jump MDPBB.in loop"
set           atom ${randatomi} type 4                    # Set this grafted wall atom as a new type
set           atom 1455 type 4                    
  1 settings made for type
group         twg id ${randatomi}                         # Add this atom to a top-wall-grafted group
group         twg id 1455                         
59 atoms in group twg
variable      twgcount equal count(twg)
print         "twg contains ${twgcount}"
twg contains 59
print         "i = $(v_i)"                                # The index i should always be equal to the number of atom in twg
i = 59
variable      x0 equal x[${randatomi}]                    # Determine its x-coord
variable      x0 equal x[1455]                    
variable      y0 equal y[${randatomi}]                    # Determine its y-coord
variable      y0 equal y[1455]                    
variable      check0 equal ${check}                       # Count the number of atoms in the simulation
variable      check0 equal 4332                       
variable      b equal ${check}+1                          # The grafted bead id will be one higher after being inserted
variable      b equal 4332+1                          
if            "${twgcount} != $(v_i)" then "jump MDPBB.in loop"
# Otherwise insert the chain directly above the chosen wall atom pointing perpendicular to the wall
create_atoms  1 single ${x0} ${y0} ${z0} mol bs 24987 units box remap yes rotate 0 0 0 1
create_atoms  1 single 5.5559036818887 ${y0} ${z0} mol bs 24987 units box remap yes rotate 0 0 0 1
create_atoms  1 single 5.5559036818887 3.1748021039364 ${z0} mol bs 24987 units box remap yes rotate 0 0 0 1
create_atoms  1 single 5.5559036818887 3.1748021039364 17 mol bs 24987 units box remap yes rotate 0 0 0 1
Created 30 atoms
  create_atoms CPU = 0.0001721 secs
variable      check1 equal ${check}               # Count the new total number of atoms
variable      check1 equal 4362               
# Check that the molecule has indeed been inserted (This check is no longer an issue).
if            "${check1} != ${check0}" then "create_bonds  single/bond 2 ${randatomi} $b" "next i"
create_bonds  single/bond 2 ${randatomi} $b
create_bonds  single/bond 2 1455 $b
create_bonds  single/bond 2 1455 4333
  2 = max # of 1-2 neighbors
  5 = max # of special neighbors
  special bonds CPU = 0.0043951 secs
next i
jump MDPBB.in loop    # End of the loop
variable      randni equal round(random(1,${ntwall},$s))  # Pick a random "top" wall atom
variable      randni equal round(random(1,2592,$s))  
variable      randni equal round(random(1,2592,234897))  
variable      randatomi equal ${randni}                   # This is to obtain an integer number for atom-id
variable      randatomi equal 2434                   
variable      randzi equal z[${randatomi}]                # Determine the z coordinate of the chosen atom
variable      randzi equal z[2434]                
# if the chosen atom is not a surface atom then restart the loop
if            "${randzi} < $(v_wthick - 0.7)" then "jump MDPBB.in loop"
jump MDPBB.in loop
variable      randni equal round(random(1,${ntwall},$s))  # Pick a random "top" wall atom
variable      randni equal round(random(1,2592,$s))  
variable      randni equal round(random(1,2592,234897))  
variable      randatomi equal ${randni}                   # This is to obtain an integer number for atom-id
variable      randatomi equal 225                   
variable      randzi equal z[${randatomi}]                # Determine the z coordinate of the chosen atom
variable      randzi equal z[225]                
# if the chosen atom is not a surface atom then restart the loop
if            "${randzi} < $(v_wthick - 0.7)" then "jump MDPBB.in loop"
jump MDPBB.in loop
variable      randni equal round(random(1,${ntwall},$s))  # Pick a random "top" wall atom
variable      randni equal round(random(1,2592,$s))  
variable      randni equal round(random(1,2592,234897))  
variable      randatomi equal ${randni}                   # This is to obtain an integer number for atom-id
variable      randatomi equal 1723                   
variable      randzi equal z[${randatomi}]                # Determine the z coordinate of the chosen atom
variable      randzi equal z[1723]                
# if the chosen atom is not a surface atom then restart the loop
if            "${randzi} < $(v_wthick - 0.7)" then "jump MDPBB.in loop"
set           atom ${randatomi} type 4                    # Set this grafted wall atom as a new type
set           atom 1723 type 4                    
  1 settings made for type
group         twg id ${randatomi}                         # Add this atom to a top-wall-grafted group
group         twg id 1723                         
60 atoms in group twg
variable      twgcount equal count(twg)
print         "twg contains ${twgcount}"
twg contains 60
print         "i = $(v_i)"                                # The index i should always be equal to the number of atom in twg
i = 60
variable      x0 equal x[${randatomi}]                    # Determine its x-coord
variable      x0 equal x[1723]                    
variable      y0 equal y[${randatomi}]                    # Determine its y-coord
variable      y0 equal y[1723]                    
variable      check0 equal ${check}                       # Count the number of atoms in the simulation
variable      check0 equal 4362                       
variable      b equal ${check}+1                          # The grafted bead id will be one higher after being inserted
variable      b equal 4362+1                          
if            "${twgcount} != $(v_i)" then "jump MDPBB.in loop"
# Otherwise insert the chain directly above the chosen wall atom pointing perpendicular to the wall
create_atoms  1 single ${x0} ${y0} ${z0} mol bs 24987 units box remap yes rotate 0 0 0 1
create_atoms  1 single 26.1921173574753 ${y0} ${z0} mol bs 24987 units box remap yes rotate 0 0 0 1
create_atoms  1 single 26.1921173574753 7.937005259841 ${z0} mol bs 24987 units box remap yes rotate 0 0 0 1
create_atoms  1 single 26.1921173574753 7.937005259841 17 mol bs 24987 units box remap yes rotate 0 0 0 1
Created 30 atoms
  create_atoms CPU = 9.91e-05 secs
variable      check1 equal ${check}               # Count the new total number of atoms
variable      check1 equal 4392               
# Check that the molecule has indeed been inserted (This check is no longer an issue).
if            "${check1} != ${check0}" then "create_bonds  single/bond 2 ${randatomi} $b" "next i"
create_bonds  single/bond 2 ${randatomi} $b
create_bonds  single/bond 2 1723 $b
create_bonds  single/bond 2 1723 4363
  2 = max # of 1-2 neighbors
  5 = max # of special neighbors
  special bonds CPU = 0.0030872 secs
next i
jump MDPBB.in loop    # End of the loop

# Rotate the created brush about the centre of the simulation box by 180 degrees to make it true top brush
displace_atoms all rotate $(v_xhi/2.0) $(v_yhi/2.0) $(v_zhi/2.0 - 1) 1 0 0 180 units box
displace_atoms all rotate 14.142135623730949234 $(v_yhi/2.0) $(v_zhi/2.0 - 1) 1 0 0 180 units box
displace_atoms all rotate 14.142135623730949234 14.142135623730949234 $(v_zhi/2.0 - 1) 1 0 0 180 units box
displace_atoms all rotate 14.142135623730949234 14.142135623730949234 35 1 0 0 180 units box

variable      ntop0 equal ${check}          # Count the total number of atoms in the top brush
variable      ntop0 equal 4392          

#--- Create the Bottom brush ---#

# Repeating the same procedure as above again but with new atoms

create_atoms  1 region wall
Created 2592 atoms
  create_atoms CPU = 0.0006722 secs
group         bwall region wall
2592 atoms in group bwall
variable      nbwall0 equal ${nbwall}
variable      nbwall0 equal 2592

variable      j loop $M
variable      j loop 60
label         loopj
variable      randnj equal round(random(v_ntop0,$(v_ntop0 + v_nbwall0),$s))
variable      randnj equal round(random(v_ntop0,6984,$s))
variable      randnj equal round(random(v_ntop0,6984,234897))
variable      randatomj equal ${randnj}
variable      randatomj equal 4576
variable      randzj equal z[${randatomj}]
variable      randzj equal z[4576]
if            "${randzj} < $(v_wthick - 0.7)" then "jump MDPBB.in loopj"
jump MDPBB.in loopj
variable      randnj equal round(random(v_ntop0,$(v_ntop0 + v_nbwall0),$s))
variable      randnj equal round(random(v_ntop0,6984,$s))
variable      randnj equal round(random(v_ntop0,6984,234897))
variable      randatomj equal ${randnj}
variable      randatomj equal 5860
variable      randzj equal z[${randatomj}]
variable      randzj equal z[5860]
if            "${randzj} < $(v_wthick - 0.7)" then "jump MDPBB.in loopj"
set           atom ${randatomj} type 4
set           atom 5860 type 4
  1 settings made for type
group         bwg id ${randatomj}                         # Add this atom to a bot-wall-grafted group
group         bwg id 5860                         
1 atoms in group bwg
variable      bwgcount equal count(bwg)
print         "bwg contains ${bwgcount}"
bwg contains 1
print         "j = $(v_j)"
j = 1
variable      x0 equal x[${randatomj}]
variable      x0 equal x[5860]
variable      y0 equal y[${randatomj}]
variable      y0 equal y[5860]
variable      check0 equal ${check}
variable      check0 equal 6984
variable      b equal ${check}+1
variable      b equal 6984+1
if            "${bwgcount} != $(v_j)" then "jump MDPBB.in loopj"
create_atoms  1 single ${x0} ${y0} ${z0} mol bs 24987 units box remap yes rotate 0 0 0 1
create_atoms  1 single 9.5244063118092 ${y0} ${z0} mol bs 24987 units box remap yes rotate 0 0 0 1
create_atoms  1 single 9.5244063118092 3.9685026299205 ${z0} mol bs 24987 units box remap yes rotate 0 0 0 1
create_atoms  1 single 9.5244063118092 3.9685026299205 17 mol bs 24987 units box remap yes rotate 0 0 0 1
Created 30 atoms
  create_atoms CPU = 0.0002332 secs
variable      check1 equal ${check}
variable      check1 equal 7014
if            "${check1} != ${check0}" then "create_bonds  single/bond 2 ${randatomj} $b" "next j"
create_bonds  single/bond 2 ${randatomj} $b
create_bonds  single/bond 2 5860 $b
create_bonds  single/bond 2 5860 6985
  2 = max # of 1-2 neighbors
  5 = max # of special neighbors
  special bonds CPU = 0.0043749 secs
next j
jump MDPBB.in loopj
variable      randnj equal round(random(v_ntop0,$(v_ntop0 + v_nbwall0),$s))
variable      randnj equal round(random(v_ntop0,6984,$s))
variable      randnj equal round(random(v_ntop0,6984,234897))
variable      randatomj equal ${randnj}
variable      randatomj equal 6347
variable      randzj equal z[${randatomj}]
variable      randzj equal z[6347]
if            "${randzj} < $(v_wthick - 0.7)" then "jump MDPBB.in loopj"
set           atom ${randatomj} type 4
set           atom 6347 type 4
  1 settings made for type
group         bwg id ${randatomj}                         # Add this atom to a bot-wall-grafted group
group         bwg id 6347                         
2 atoms in group bwg
variable      bwgcount equal count(bwg)
print         "bwg contains ${bwgcount}"
bwg contains 2
print         "j = $(v_j)"
j = 2
variable      x0 equal x[${randatomj}]
variable      x0 equal x[6347]
variable      y0 equal y[${randatomj}]
variable      y0 equal y[6347]
variable      check0 equal ${check}
variable      check0 equal 7014
variable      b equal ${check}+1
variable      b equal 7014+1
if            "${bwgcount} != $(v_j)" then "jump MDPBB.in loopj"
create_atoms  1 single ${x0} ${y0} ${z0} mol bs 24987 units box remap yes rotate 0 0 0 1
create_atoms  1 single 3.9685026299205 ${y0} ${z0} mol bs 24987 units box remap yes rotate 0 0 0 1
create_atoms  1 single 3.9685026299205 14.2866094677138 ${z0} mol bs 24987 units box remap yes rotate 0 0 0 1
create_atoms  1 single 3.9685026299205 14.2866094677138 17 mol bs 24987 units box remap yes rotate 0 0 0 1
Created 30 atoms
  create_atoms CPU = 0.0002837 secs
variable      check1 equal ${check}
variable      check1 equal 7044
if            "${check1} != ${check0}" then "create_bonds  single/bond 2 ${randatomj} $b" "next j"
create_bonds  single/bond 2 ${randatomj} $b
create_bonds  single/bond 2 6347 $b
create_bonds  single/bond 2 6347 7015
  2 = max # of 1-2 neighbors
  5 = max # of special neighbors
  special bonds CPU = 0.0025493 secs
next j
jump MDPBB.in loopj
variable      randnj equal round(random(v_ntop0,$(v_ntop0 + v_nbwall0),$s))
variable      randnj equal round(random(v_ntop0,6984,$s))
variable      randnj equal round(random(v_ntop0,6984,234897))
variable      randatomj equal ${randnj}
variable      randatomj equal 6818
variable      randzj equal z[${randatomj}]
variable      randzj equal z[6818]
if            "${randzj} < $(v_wthick - 0.7)" then "jump MDPBB.in loopj"
jump MDPBB.in loopj
variable      randnj equal round(random(v_ntop0,$(v_ntop0 + v_nbwall0),$s))
variable      randnj equal round(random(v_ntop0,6984,$s))
variable      randnj equal round(random(v_ntop0,6984,234897))
variable      randatomj equal ${randnj}
variable      randatomj equal 6854
variable      randzj equal z[${randatomj}]
variable      randzj equal z[6854]
if            "${randzj} < $(v_wthick - 0.7)" then "jump MDPBB.in loopj"
jump MDPBB.in loopj
variable      randnj equal round(random(v_ntop0,$(v_ntop0 + v_nbwall0),$s))
variable      randnj equal round(random(v_ntop0,6984,$s))
variable      randnj equal round(random(v_ntop0,6984,234897))
variable      randatomj equal ${randnj}
variable      randatomj equal 4833
variable      randzj equal z[${randatomj}]
variable      randzj equal z[4833]
if            "${randzj} < $(v_wthick - 0.7)" then "jump MDPBB.in loopj"
jump MDPBB.in loopj
variable      randnj equal round(random(v_ntop0,$(v_ntop0 + v_nbwall0),$s))
variable      randnj equal round(random(v_ntop0,6984,$s))
variable      randnj equal round(random(v_ntop0,6984,234897))
variable      randatomj equal ${randnj}
variable      randatomj equal 6503
variable      randzj equal z[${randatomj}]
variable      randzj equal z[6503]
if            "${randzj} < $(v_wthick - 0.7)" then "jump MDPBB.in loopj"
set           atom ${randatomj} type 4
set           atom 6503 type 4
  1 settings made for type
group         bwg id ${randatomj}                         # Add this atom to a bot-wall-grafted group
group         bwg id 6503                         
3 atoms in group bwg
variable      bwgcount equal count(bwg)
print         "bwg contains ${bwgcount}"
bwg contains 3
print         "j = $(v_j)"
j = 3
variable      x0 equal x[${randatomj}]
variable      x0 equal x[6503]
variable      y0 equal y[${randatomj}]
variable      y0 equal y[6503]
variable      check0 equal ${check}
variable      check0 equal 7044
variable      b equal ${check}+1
variable      b equal 7044+1
if            "${bwgcount} != $(v_j)" then "jump MDPBB.in loopj"
create_atoms  1 single ${x0} ${y0} ${z0} mol bs 24987 units box remap yes rotate 0 0 0 1
create_atoms  1 single 8.7307057858251 ${y0} ${z0} mol bs 24987 units box remap yes rotate 0 0 0 1
create_atoms  1 single 8.7307057858251 17.4614115716502 ${z0} mol bs 24987 units box remap yes rotate 0 0 0 1
create_atoms  1 single 8.7307057858251 17.4614115716502 17 mol bs 24987 units box remap yes rotate 0 0 0 1
Created 30 atoms
  create_atoms CPU = 0.0001588 secs
variable      check1 equal ${check}
variable      check1 equal 7074
if            "${check1} != ${check0}" then "create_bonds  single/bond 2 ${randatomj} $b" "next j"
create_bonds  single/bond 2 ${randatomj} $b
create_bonds  single/bond 2 6503 $b
create_bonds  single/bond 2 6503 7045
  2 = max # of 1-2 neighbors
  5 = max # of special neighbors
  special bonds CPU = 0.0027323 secs
next j
jump MDPBB.in loopj
variable      randnj equal round(random(v_ntop0,$(v_ntop0 + v_nbwall0),$s))
variable      randnj equal round(random(v_ntop0,6984,$s))
variable      randnj equal round(random(v_ntop0,6984,234897))
variable      randatomj equal ${randnj}
variable      randatomj equal 4829
variable      randzj equal z[${randatomj}]
variable      randzj equal z[4829]
if            "${randzj} < $(v_wthick - 0.7)" then "jump MDPBB.in loopj"
jump MDPBB.in loopj
variable      randnj equal round(random(v_ntop0,$(v_ntop0 + v_nbwall0),$s))
variable      randnj equal round(random(v_ntop0,6984,$s))
variable      randnj equal round(random(v_ntop0,6984,234897))
variable      randatomj equal ${randnj}
variable      randatomj equal 4498
variable      randzj equal z[${randatomj}]
variable      randzj equal z[4498]
if            "${randzj} < $(v_wthick - 0.7)" then "jump MDPBB.in loopj"
jump MDPBB.in loopj
variable      randnj equal round(random(v_ntop0,$(v_ntop0 + v_nbwall0),$s))
variable      randnj equal round(random(v_ntop0,6984,$s))
variable      randnj equal round(random(v_ntop0,6984,234897))
variable      randatomj equal ${randnj}
variable      randatomj equal 6094
variable      randzj equal z[${randatomj}]
variable      randzj equal z[6094]
if            "${randzj} < $(v_wthick - 0.7)" then "jump MDPBB.in loopj"
jump MDPBB.in loopj
variable      randnj equal round(random(v_ntop0,$(v_ntop0 + v_nbwall0),$s))
variable      randnj equal round(random(v_ntop0,6984,$s))
variable      randnj equal round(random(v_ntop0,6984,234897))
variable      randatomj equal ${randnj}
variable      randatomj equal 5664
variable      randzj equal z[${randatomj}]
variable      randzj equal z[5664]
if            "${randzj} < $(v_wthick - 0.7)" then "jump MDPBB.in loopj"
jump MDPBB.in loopj
variable      randnj equal round(random(v_ntop0,$(v_ntop0 + v_nbwall0),$s))
variable      randnj equal round(random(v_ntop0,6984,$s))
variable      randnj equal round(random(v_ntop0,6984,234897))
variable      randatomj equal ${randnj}
variable      randatomj equal 5637
variable      randzj equal z[${randatomj}]
variable      randzj equal z[5637]
if            "${randzj} < $(v_wthick - 0.7)" then "jump MDPBB.in loopj"
jump MDPBB.in loopj
variable      randnj equal round(random(v_ntop0,$(v_ntop0 + v_nbwall0),$s))
variable      randnj equal round(random(v_ntop0,6984,$s))
variable      randnj equal round(random(v_ntop0,6984,234897))
variable      randatomj equal ${randnj}
variable      randatomj equal 6026
variable      randzj equal z[${randatomj}]
variable      randzj equal z[6026]
if            "${randzj} < $(v_wthick - 0.7)" then "jump MDPBB.in loopj"
jump MDPBB.in loopj
variable      randnj equal round(random(v_ntop0,$(v_ntop0 + v_nbwall0),$s))
variable      randnj equal round(random(v_ntop0,6984,$s))
variable      randnj equal round(random(v_ntop0,6984,234897))
variable      randatomj equal ${randnj}
variable      randatomj equal 6793
variable      randzj equal z[${randatomj}]
variable      randzj equal z[6793]
if            "${randzj} < $(v_wthick - 0.7)" then "jump MDPBB.in loopj"
jump MDPBB.in loopj
variable      randnj equal round(random(v_ntop0,$(v_ntop0 + v_nbwall0),$s))
variable      randnj equal round(random(v_ntop0,6984,$s))
variable      randnj equal round(random(v_ntop0,6984,234897))
variable      randatomj equal ${randnj}
variable      randatomj equal 6469
variable      randzj equal z[${randatomj}]
variable      randzj equal z[6469]
if            "${randzj} < $(v_wthick - 0.7)" then "jump MDPBB.in loopj"
jump MDPBB.in loopj
variable      randnj equal round(random(v_ntop0,$(v_ntop0 + v_nbwall0),$s))
variable      randnj equal round(random(v_ntop0,6984,$s))
variable      randnj equal round(random(v_ntop0,6984,234897))
variable      randatomj equal ${randnj}
variable      randatomj equal 5324
variable      randzj equal z[${randatomj}]
variable      randzj equal z[5324]
if            "${randzj} < $(v_wthick - 0.7)" then "jump MDPBB.in loopj"
jump MDPBB.in loopj
variable      randnj equal round(random(v_ntop0,$(v_ntop0 + v_nbwall0),$s))
variable      randnj equal round(random(v_ntop0,6984,$s))
variable      randnj equal round(random(v_ntop0,6984,234897))
variable      randatomj equal ${randnj}
variable      randatomj equal 4509
variable      randzj equal z[${randatomj}]
variable      randzj equal z[4509]
if            "${randzj} < $(v_wthick - 0.7)" then "jump MDPBB.in loopj"
jump MDPBB.in loopj
variable      randnj equal round(random(v_ntop0,$(v_ntop0 + v_nbwall0),$s))
variable      randnj equal round(random(v_ntop0,6984,$s))
variable      randnj equal round(random(v_ntop0,6984,234897))
variable      randatomj equal ${randnj}
variable      randatomj equal 5445
variable      randzj equal z[${randatomj}]
variable      randzj equal z[5445]
if            "${randzj} < $(v_wthick - 0.7)" then "jump MDPBB.in loopj"
jump MDPBB.in loopj
variable      randnj equal round(random(v_ntop0,$(v_ntop0 + v_nbwall0),$s))
variable      randnj equal round(random(v_ntop0,6984,$s))
variable      randnj equal round(random(v_ntop0,6984,234897))
variable      randatomj equal ${randnj}
variable      randatomj equal 5292
variable      randzj equal z[${randatomj}]
variable      randzj equal z[5292]
if            "${randzj} < $(v_wthick - 0.7)" then "jump MDPBB.in loopj"
jump MDPBB.in loopj
variable      randnj equal round(random(v_ntop0,$(v_ntop0 + v_nbwall0),$s))
variable      randnj equal round(random(v_ntop0,6984,$s))
variable      randnj equal round(random(v_ntop0,6984,234897))
variable      randatomj equal ${randnj}
variable      randatomj equal 6808
variable      randzj equal z[${randatomj}]
variable      randzj equal z[6808]
if            "${randzj} < $(v_wthick - 0.7)" then "jump MDPBB.in loopj"
set           atom ${randatomj} type 4
set           atom 6808 type 4
  1 settings made for type
group         bwg id ${randatomj}                         # Add this atom to a bot-wall-grafted group
group         bwg id 6808                         
4 atoms in group bwg
variable      bwgcount equal count(bwg)
print         "bwg contains ${bwgcount}"
bwg contains 4
print         "j = $(v_j)"
j = 4
variable      x0 equal x[${randatomj}]
variable      x0 equal x[6808]
variable      y0 equal y[${randatomj}]
variable      y0 equal y[6808]
variable      check0 equal ${check}
variable      check0 equal 7074
variable      b equal ${check}+1
variable      b equal 7074+1
if            "${bwgcount} != $(v_j)" then "jump MDPBB.in loopj"
create_atoms  1 single ${x0} ${y0} ${z0} mol bs 24987 units box remap yes rotate 0 0 0 1
create_atoms  1 single 14.2866094677138 ${y0} ${z0} mol bs 24987 units box remap yes rotate 0 0 0 1
create_atoms  1 single 14.2866094677138 24.6047163055071 ${z0} mol bs 24987 units box remap yes rotate 0 0 0 1
create_atoms  1 single 14.2866094677138 24.6047163055071 17 mol bs 24987 units box remap yes rotate 0 0 0 1
Created 30 atoms
  create_atoms CPU = 0.0002347 secs
variable      check1 equal ${check}
variable      check1 equal 7104
if            "${check1} != ${check0}" then "create_bonds  single/bond 2 ${randatomj} $b" "next j"
create_bonds  single/bond 2 ${randatomj} $b
create_bonds  single/bond 2 6808 $b
create_bonds  single/bond 2 6808 7075
  2 = max # of 1-2 neighbors
  5 = max # of special neighbors
  special bonds CPU = 0.0038365 secs
next j
jump MDPBB.in loopj
variable      randnj equal round(random(v_ntop0,$(v_ntop0 + v_nbwall0),$s))
variable      randnj equal round(random(v_ntop0,6984,$s))
variable      randnj equal round(random(v_ntop0,6984,234897))
variable      randatomj equal ${randnj}
variable      randatomj equal 4779
variable      randzj equal z[${randatomj}]
variable      randzj equal z[4779]
if            "${randzj} < $(v_wthick - 0.7)" then "jump MDPBB.in loopj"
jump MDPBB.in loopj
variable      randnj equal round(random(v_ntop0,$(v_ntop0 + v_nbwall0),$s))
variable      randnj equal round(random(v_ntop0,6984,$s))
variable      randnj equal round(random(v_ntop0,6984,234897))
variable      randatomj equal ${randnj}
variable      randatomj equal 5937
variable      randzj equal z[${randatomj}]
variable      randzj equal z[5937]
if            "${randzj} < $(v_wthick - 0.7)" then "jump MDPBB.in loopj"
jump MDPBB.in loopj
variable      randnj equal round(random(v_ntop0,$(v_ntop0 + v_nbwall0),$s))
variable      randnj equal round(random(v_ntop0,6984,$s))
variable      randnj equal round(random(v_ntop0,6984,234897))
variable      randatomj equal ${randnj}
variable      randatomj equal 6758
variable      randzj equal z[${randatomj}]
variable      randzj equal z[6758]
if            "${randzj} < $(v_wthick - 0.7)" then "jump MDPBB.in loopj"
jump MDPBB.in loopj
variable      randnj equal round(random(v_ntop0,$(v_ntop0 + v_nbwall0),$s))
variable      randnj equal round(random(v_ntop0,6984,$s))
variable      randnj equal round(random(v_ntop0,6984,234897))
variable      randatomj equal ${randnj}
variable      randatomj equal 5764
variable      randzj equal z[${randatomj}]
variable      randzj equal z[5764]
if            "${randzj} < $(v_wthick - 0.7)" then "jump MDPBB.in loopj"
set           atom ${randatomj} type 4
set           atom 5764 type 4
  1 settings made for type
group         bwg id ${randatomj}                         # Add this atom to a bot-wall-grafted group
group         bwg id 5764                         
5 atoms in group bwg
variable      bwgcount equal count(bwg)
print         "bwg contains ${bwgcount}"
bwg contains 5
print         "j = $(v_j)"
j = 5
variable      x0 equal x[${randatomj}]
variable      x0 equal x[5764]
variable      y0 equal y[${randatomj}]
variable      y0 equal y[5764]
variable      check0 equal ${check}
variable      check0 equal 7104
variable      b equal ${check}+1
variable      b equal 7104+1
if            "${bwgcount} != $(v_j)" then "jump MDPBB.in loopj"
create_atoms  1 single ${x0} ${y0} ${z0} mol bs 24987 units box remap yes rotate 0 0 0 1
create_atoms  1 single 0 ${y0} ${z0} mol bs 24987 units box remap yes rotate 0 0 0 1
create_atoms  1 single 0 2.3811015779523 ${z0} mol bs 24987 units box remap yes rotate 0 0 0 1
create_atoms  1 single 0 2.3811015779523 17 mol bs 24987 units box remap yes rotate 0 0 0 1
Created 30 atoms
  create_atoms CPU = 0.0001578 secs
variable      check1 equal ${check}
variable      check1 equal 7134
if            "${check1} != ${check0}" then "create_bonds  single/bond 2 ${randatomj} $b" "next j"
create_bonds  single/bond 2 ${randatomj} $b
create_bonds  single/bond 2 5764 $b
create_bonds  single/bond 2 5764 7105
  2 = max # of 1-2 neighbors
  5 = max # of special neighbors
  special bonds CPU = 0.0053369 secs
next j
jump MDPBB.in loopj
variable      randnj equal round(random(v_ntop0,$(v_ntop0 + v_nbwall0),$s))
variable      randnj equal round(random(v_ntop0,6984,$s))
variable      randnj equal round(random(v_ntop0,6984,234897))
variable      randatomj equal ${randnj}
variable      randatomj equal 5191
variable      randzj equal z[${randatomj}]
variable      randzj equal z[5191]
if            "${randzj} < $(v_wthick - 0.7)" then "jump MDPBB.in loopj"
jump MDPBB.in loopj
variable      randnj equal round(random(v_ntop0,$(v_ntop0 + v_nbwall0),$s))
variable      randnj equal round(random(v_ntop0,6984,$s))
variable      randnj equal round(random(v_ntop0,6984,234897))
variable      randatomj equal ${randnj}
variable      randatomj equal 4596
variable      randzj equal z[${randatomj}]
variable      randzj equal z[4596]
if            "${randzj} < $(v_wthick - 0.7)" then "jump MDPBB.in loopj"
jump MDPBB.in loopj
variable      randnj equal round(random(v_ntop0,$(v_ntop0 + v_nbwall0),$s))
variable      randnj equal round(random(v_ntop0,6984,$s))
variable      randnj equal round(random(v_ntop0,6984,234897))
variable      randatomj equal ${randnj}
variable      randatomj equal 4966
variable      randzj equal z[${randatomj}]
variable      randzj equal z[4966]
if            "${randzj} < $(v_wthick - 0.7)" then "jump MDPBB.in loopj"
jump MDPBB.in loopj
variable      randnj equal round(random(v_ntop0,$(v_ntop0 + v_nbwall0),$s))
variable      randnj equal round(random(v_ntop0,6984,$s))
variable      randnj equal round(random(v_ntop0,6984,234897))
variable      randatomj equal ${randnj}
variable      randatomj equal 5371
variable      randzj equal z[${randatomj}]
variable      randzj equal z[5371]
if            "${randzj} < $(v_wthick - 0.7)" then "jump MDPBB.in loopj"
jump MDPBB.in loopj
variable      randnj equal round(random(v_ntop0,$(v_ntop0 + v_nbwall0),$s))
variable      randnj equal round(random(v_ntop0,6984,$s))
variable      randnj equal round(random(v_ntop0,6984,234897))
variable      randatomj equal ${randnj}
variable      randatomj equal 4509
variable      randzj equal z[${randatomj}]
variable      randzj equal z[4509]
if            "${randzj} < $(v_wthick - 0.7)" then "jump MDPBB.in loopj"
jump MDPBB.in loopj
variable      randnj equal round(random(v_ntop0,$(v_ntop0 + v_nbwall0),$s))
variable      randnj equal round(random(v_ntop0,6984,$s))
variable      randnj equal round(random(v_ntop0,6984,234897))
variable      randatomj equal ${randnj}
variable      randatomj equal 5993
variable      randzj equal z[${randatomj}]
variable      randzj equal z[5993]
if            "${randzj} < $(v_wthick - 0.7)" then "jump MDPBB.in loopj"
jump MDPBB.in loopj
variable      randnj equal round(random(v_ntop0,$(v_ntop0 + v_nbwall0),$s))
variable      randnj equal round(random(v_ntop0,6984,$s))
variable      randnj equal round(random(v_ntop0,6984,234897))
variable      randatomj equal ${randnj}
variable      randatomj equal 6083
variable      randzj equal z[${randatomj}]
variable      randzj equal z[6083]
if            "${randzj} < $(v_wthick - 0.7)" then "jump MDPBB.in loopj"
set           atom ${randatomj} type 4
set           atom 6083 type 4
  1 settings made for type
group         bwg id ${randatomj}                         # Add this atom to a bot-wall-grafted group
group         bwg id 6083                         
6 atoms in group bwg
variable      bwgcount equal count(bwg)
print         "bwg contains ${bwgcount}"
bwg contains 6
print         "j = $(v_j)"
j = 6
variable      x0 equal x[${randatomj}]
variable      x0 equal x[6083]
variable      y0 equal y[${randatomj}]
variable      y0 equal y[6083]
variable      check0 equal ${check}
variable      check0 equal 7134
variable      b equal ${check}+1
variable      b equal 7134+1
if            "${bwgcount} != $(v_j)" then "jump MDPBB.in loopj"
create_atoms  1 single ${x0} ${y0} ${z0} mol bs 24987 units box remap yes rotate 0 0 0 1
create_atoms  1 single 13.4929089417297 ${y0} ${z0} mol bs 24987 units box remap yes rotate 0 0 0 1
create_atoms  1 single 13.4929089417297 7.937005259841 ${z0} mol bs 24987 units box remap yes rotate 0 0 0 1
create_atoms  1 single 13.4929089417297 7.937005259841 17 mol bs 24987 units box remap yes rotate 0 0 0 1
Created 30 atoms
  create_atoms CPU = 0.0001418 secs
variable      check1 equal ${check}
variable      check1 equal 7164
if            "${check1} != ${check0}" then "create_bonds  single/bond 2 ${randatomj} $b" "next j"
create_bonds  single/bond 2 ${randatomj} $b
create_bonds  single/bond 2 6083 $b
create_bonds  single/bond 2 6083 7135
  2 = max # of 1-2 neighbors
  5 = max # of special neighbors
  special bonds CPU = 0.0027657 secs
next j
jump MDPBB.in loopj
variable      randnj equal round(random(v_ntop0,$(v_ntop0 + v_nbwall0),$s))
variable      randnj equal round(random(v_ntop0,6984,$s))
variable      randnj equal round(random(v_ntop0,6984,234897))
variable      randatomj equal ${randnj}
variable      randatomj equal 5098
variable      randzj equal z[${randatomj}]
variable      randzj equal z[5098]
if            "${randzj} < $(v_wthick - 0.7)" then "jump MDPBB.in loopj"
jump MDPBB.in loopj
variable      randnj equal round(random(v_ntop0,$(v_ntop0 + v_nbwall0),$s))
variable      randnj equal round(random(v_ntop0,6984,$s))
variable      randnj equal round(random(v_ntop0,6984,234897))
variable      randatomj equal ${randnj}
variable      randatomj equal 5929
variable      randzj equal z[${randatomj}]
variable      randzj equal z[5929]
if            "${randzj} < $(v_wthick - 0.7)" then "jump MDPBB.in loopj"
jump MDPBB.in loopj
variable      randnj equal round(random(v_ntop0,$(v_ntop0 + v_nbwall0),$s))
variable      randnj equal round(random(v_ntop0,6984,$s))
variable      randnj equal round(random(v_ntop0,6984,234897))
variable      randatomj equal ${randnj}
variable      randatomj equal 5381
variable      randzj equal z[${randatomj}]
variable      randzj equal z[5381]
if            "${randzj} < $(v_wthick - 0.7)" then "jump MDPBB.in loopj"
jump MDPBB.in loopj
variable      randnj equal round(random(v_ntop0,$(v_ntop0 + v_nbwall0),$s))
variable      randnj equal round(random(v_ntop0,6984,$s))
variable      randnj equal round(random(v_ntop0,6984,234897))
variable      randatomj equal ${randnj}
variable      randatomj equal 5467
variable      randzj equal z[${randatomj}]
variable      randzj equal z[5467]
if            "${randzj} < $(v_wthick - 0.7)" then "jump MDPBB.in loopj"
jump MDPBB.in loopj
variable      randnj equal round(random(v_ntop0,$(v_ntop0 + v_nbwall0),$s))
variable      randnj equal round(random(v_ntop0,6984,$s))
variable      randnj equal round(random(v_ntop0,6984,234897))
variable      randatomj equal ${randnj}
variable      randatomj equal 5776
variable      randzj equal z[${randatomj}]
variable      randzj equal z[5776]
if            "${randzj} < $(v_wthick - 0.7)" then "jump MDPBB.in loopj"
set           atom ${randatomj} type 4
set           atom 5776 type 4
  1 settings made for type
group         bwg id ${randatomj}                         # Add this atom to a bot-wall-grafted group
group         bwg id 5776                         
7 atoms in group bwg
variable      bwgcount equal count(bwg)
print         "bwg contains ${bwgcount}"
bwg contains 7
print         "j = $(v_j)"
j = 7
variable      x0 equal x[${randatomj}]
variable      x0 equal x[5776]
variable      y0 equal y[${randatomj}]
variable      y0 equal y[5776]
variable      check0 equal ${check}
variable      check0 equal 7164
variable      b equal ${check}+1
variable      b equal 7164+1
if            "${bwgcount} != $(v_j)" then "jump MDPBB.in loopj"
create_atoms  1 single ${x0} ${y0} ${z0} mol bs 24987 units box remap yes rotate 0 0 0 1
create_atoms  1 single 4.7622031559046 ${y0} ${z0} mol bs 24987 units box remap yes rotate 0 0 0 1
create_atoms  1 single 4.7622031559046 2.3811015779523 ${z0} mol bs 24987 units box remap yes rotate 0 0 0 1
create_atoms  1 single 4.7622031559046 2.3811015779523 17 mol bs 24987 units box remap yes rotate 0 0 0 1
Created 30 atoms
  create_atoms CPU = 0.0001965 secs
variable      check1 equal ${check}
variable      check1 equal 7194
if            "${check1} != ${check0}" then "create_bonds  single/bond 2 ${randatomj} $b" "next j"
create_bonds  single/bond 2 ${randatomj} $b
create_bonds  single/bond 2 5776 $b
create_bonds  single/bond 2 5776 7165
  2 = max # of 1-2 neighbors
  5 = max # of special neighbors
  special bonds CPU = 0.0024777 secs
next j
jump MDPBB.in loopj
variable      randnj equal round(random(v_ntop0,$(v_ntop0 + v_nbwall0),$s))
variable      randnj equal round(random(v_ntop0,6984,$s))
variable      randnj equal round(random(v_ntop0,6984,234897))
variable      randatomj equal ${randnj}
variable      randatomj equal 6071
variable      randzj equal z[${randatomj}]
variable      randzj equal z[6071]
if            "${randzj} < $(v_wthick - 0.7)" then "jump MDPBB.in loopj"
set           atom ${randatomj} type 4
set           atom 6071 type 4
  1 settings made for type
group         bwg id ${randatomj}                         # Add this atom to a bot-wall-grafted group
group         bwg id 6071                         
8 atoms in group bwg
variable      bwgcount equal count(bwg)
print         "bwg contains ${bwgcount}"
bwg contains 8
print         "j = $(v_j)"
j = 8
variable      x0 equal x[${randatomj}]
variable      x0 equal x[6071]
variable      y0 equal y[${randatomj}]
variable      y0 equal y[6071]
variable      check0 equal ${check}
variable      check0 equal 7194
variable      b equal ${check}+1
variable      b equal 7194+1
if            "${bwgcount} != $(v_j)" then "jump MDPBB.in loopj"
create_atoms  1 single ${x0} ${y0} ${z0} mol bs 24987 units box remap yes rotate 0 0 0 1
create_atoms  1 single 8.7307057858251 ${y0} ${z0} mol bs 24987 units box remap yes rotate 0 0 0 1
create_atoms  1 single 8.7307057858251 7.937005259841 ${z0} mol bs 24987 units box remap yes rotate 0 0 0 1
create_atoms  1 single 8.7307057858251 7.937005259841 17 mol bs 24987 units box remap yes rotate 0 0 0 1
Created 30 atoms
  create_atoms CPU = 0.0001225 secs
variable      check1 equal ${check}
variable      check1 equal 7224
if            "${check1} != ${check0}" then "create_bonds  single/bond 2 ${randatomj} $b" "next j"
create_bonds  single/bond 2 ${randatomj} $b
create_bonds  single/bond 2 6071 $b
create_bonds  single/bond 2 6071 7195
  2 = max # of 1-2 neighbors
  5 = max # of special neighbors
  special bonds CPU = 0.004461 secs
next j
jump MDPBB.in loopj
variable      randnj equal round(random(v_ntop0,$(v_ntop0 + v_nbwall0),$s))
variable      randnj equal round(random(v_ntop0,6984,$s))
variable      randnj equal round(random(v_ntop0,6984,234897))
variable      randatomj equal ${randnj}
variable      randatomj equal 6654
variable      randzj equal z[${randatomj}]
variable      randzj equal z[6654]
if            "${randzj} < $(v_wthick - 0.7)" then "jump MDPBB.in loopj"
jump MDPBB.in loopj
variable      randnj equal round(random(v_ntop0,$(v_ntop0 + v_nbwall0),$s))
variable      randnj equal round(random(v_ntop0,6984,$s))
variable      randnj equal round(random(v_ntop0,6984,234897))
variable      randatomj equal ${randnj}
variable      randatomj equal 5617
variable      randzj equal z[${randatomj}]
variable      randzj equal z[5617]
if            "${randzj} < $(v_wthick - 0.7)" then "jump MDPBB.in loopj"
jump MDPBB.in loopj
variable      randnj equal round(random(v_ntop0,$(v_ntop0 + v_nbwall0),$s))
variable      randnj equal round(random(v_ntop0,6984,$s))
variable      randnj equal round(random(v_ntop0,6984,234897))
variable      randatomj equal ${randnj}
variable      randatomj equal 4955
variable      randzj equal z[${randatomj}]
variable      randzj equal z[4955]
if            "${randzj} < $(v_wthick - 0.7)" then "jump MDPBB.in loopj"
jump MDPBB.in loopj
variable      randnj equal round(random(v_ntop0,$(v_ntop0 + v_nbwall0),$s))
variable      randnj equal round(random(v_ntop0,6984,$s))
variable      randnj equal round(random(v_ntop0,6984,234897))
variable      randatomj equal ${randnj}
variable      randatomj equal 6882
variable      randzj equal z[${randatomj}]
variable      randzj equal z[6882]
if            "${randzj} < $(v_wthick - 0.7)" then "jump MDPBB.in loopj"
jump MDPBB.in loopj
variable      randnj equal round(random(v_ntop0,$(v_ntop0 + v_nbwall0),$s))
variable      randnj equal round(random(v_ntop0,6984,$s))
variable      randnj equal round(random(v_ntop0,6984,234897))
variable      randatomj equal ${randnj}
variable      randatomj equal 5904
variable      randzj equal z[${randatomj}]
variable      randzj equal z[5904]
if            "${randzj} < $(v_wthick - 0.7)" then "jump MDPBB.in loopj"
set           atom ${randatomj} type 4
set           atom 5904 type 4
  1 settings made for type
group         bwg id ${randatomj}                         # Add this atom to a bot-wall-grafted group
group         bwg id 5904                         
9 atoms in group bwg
variable      bwgcount equal count(bwg)
print         "bwg contains ${bwgcount}"
bwg contains 9
print         "j = $(v_j)"
j = 9
variable      x0 equal x[${randatomj}]
variable      x0 equal x[5904]
variable      y0 equal y[${randatomj}]
variable      y0 equal y[5904]
variable      check0 equal ${check}
variable      check0 equal 7224
variable      b equal ${check}+1
variable      b equal 7224+1
if            "${bwgcount} != $(v_j)" then "jump MDPBB.in loopj"
create_atoms  1 single ${x0} ${y0} ${z0} mol bs 24987 units box remap yes rotate 0 0 0 1
create_atoms  1 single 26.9858178834594 ${y0} ${z0} mol bs 24987 units box remap yes rotate 0 0 0 1
create_atoms  1 single 26.9858178834594 3.9685026299205 ${z0} mol bs 24987 units box remap yes rotate 0 0 0 1
create_atoms  1 single 26.9858178834594 3.9685026299205 17 mol bs 24987 units box remap yes rotate 0 0 0 1
Created 30 atoms
  create_atoms CPU = 0.0001507 secs
variable      check1 equal ${check}
variable      check1 equal 7254
if            "${check1} != ${check0}" then "create_bonds  single/bond 2 ${randatomj} $b" "next j"
create_bonds  single/bond 2 ${randatomj} $b
create_bonds  single/bond 2 5904 $b
create_bonds  single/bond 2 5904 7225
  2 = max # of 1-2 neighbors
  5 = max # of special neighbors
  special bonds CPU = 0.003278 secs
next j
jump MDPBB.in loopj
variable      randnj equal round(random(v_ntop0,$(v_ntop0 + v_nbwall0),$s))
variable      randnj equal round(random(v_ntop0,6984,$s))
variable      randnj equal round(random(v_ntop0,6984,234897))
variable      randatomj equal ${randnj}
variable      randatomj equal 6200
variable      randzj equal z[${randatomj}]
variable      randzj equal z[6200]
if            "${randzj} < $(v_wthick - 0.7)" then "jump MDPBB.in loopj"
set           atom ${randatomj} type 4
set           atom 6200 type 4
  1 settings made for type
group         bwg id ${randatomj}                         # Add this atom to a bot-wall-grafted group
group         bwg id 6200                         
10 atoms in group bwg
variable      bwgcount equal count(bwg)
print         "bwg contains ${bwgcount}"
bwg contains 10
print         "j = $(v_j)"
j = 10
variable      x0 equal x[${randatomj}]
variable      x0 equal x[6200]
variable      y0 equal y[${randatomj}]
variable      y0 equal y[6200]
variable      check0 equal ${check}
variable      check0 equal 7254
variable      b equal ${check}+1
variable      b equal 7254+1
if            "${bwgcount} != $(v_j)" then "jump MDPBB.in loopj"
create_atoms  1 single ${x0} ${y0} ${z0} mol bs 24987 units box remap yes rotate 0 0 0 1
create_atoms  1 single 1.5874010519682 ${y0} ${z0} mol bs 24987 units box remap yes rotate 0 0 0 1
create_atoms  1 single 1.5874010519682 11.9055078897615 ${z0} mol bs 24987 units box remap yes rotate 0 0 0 1
create_atoms  1 single 1.5874010519682 11.9055078897615 17 mol bs 24987 units box remap yes rotate 0 0 0 1
Created 30 atoms
  create_atoms CPU = 0.0002239 secs
variable      check1 equal ${check}
variable      check1 equal 7284
if            "${check1} != ${check0}" then "create_bonds  single/bond 2 ${randatomj} $b" "next j"
create_bonds  single/bond 2 ${randatomj} $b
create_bonds  single/bond 2 6200 $b
create_bonds  single/bond 2 6200 7255
  2 = max # of 1-2 neighbors
  5 = max # of special neighbors
  special bonds CPU = 0.005169 secs
next j
jump MDPBB.in loopj
variable      randnj equal round(random(v_ntop0,$(v_ntop0 + v_nbwall0),$s))
variable      randnj equal round(random(v_ntop0,6984,$s))
variable      randnj equal round(random(v_ntop0,6984,234897))
variable      randatomj equal ${randnj}
variable      randatomj equal 6880
variable      randzj equal z[${randatomj}]
variable      randzj equal z[6880]
if            "${randzj} < $(v_wthick - 0.7)" then "jump MDPBB.in loopj"
set           atom ${randatomj} type 4
set           atom 6880 type 4
  1 settings made for type
group         bwg id ${randatomj}                         # Add this atom to a bot-wall-grafted group
group         bwg id 6880                         
11 atoms in group bwg
variable      bwgcount equal count(bwg)
print         "bwg contains ${bwgcount}"
bwg contains 11
print         "j = $(v_j)"
j = 11
variable      x0 equal x[${randatomj}]
variable      x0 equal x[6880]
variable      y0 equal y[${randatomj}]
variable      y0 equal y[6880]
variable      check0 equal ${check}
variable      check0 equal 7284
variable      b equal ${check}+1
variable      b equal 7284+1
if            "${bwgcount} != $(v_j)" then "jump MDPBB.in loopj"
create_atoms  1 single ${x0} ${y0} ${z0} mol bs 24987 units box remap yes rotate 0 0 0 1
create_atoms  1 single 14.2866094677138 ${y0} ${z0} mol bs 24987 units box remap yes rotate 0 0 0 1
create_atoms  1 single 14.2866094677138 26.1921173574753 ${z0} mol bs 24987 units box remap yes rotate 0 0 0 1
create_atoms  1 single 14.2866094677138 26.1921173574753 17 mol bs 24987 units box remap yes rotate 0 0 0 1
Created 30 atoms
  create_atoms CPU = 0.000128 secs
variable      check1 equal ${check}
variable      check1 equal 7314
if            "${check1} != ${check0}" then "create_bonds  single/bond 2 ${randatomj} $b" "next j"
create_bonds  single/bond 2 ${randatomj} $b
create_bonds  single/bond 2 6880 $b
create_bonds  single/bond 2 6880 7285
  2 = max # of 1-2 neighbors
  5 = max # of special neighbors
  special bonds CPU = 0.0028169 secs
next j
jump MDPBB.in loopj
variable      randnj equal round(random(v_ntop0,$(v_ntop0 + v_nbwall0),$s))
variable      randnj equal round(random(v_ntop0,6984,$s))
variable      randnj equal round(random(v_ntop0,6984,234897))
variable      randatomj equal ${randnj}
variable      randatomj equal 6601
variable      randzj equal z[${randatomj}]
variable      randzj equal z[6601]
if            "${randzj} < $(v_wthick - 0.7)" then "jump MDPBB.in loopj"
jump MDPBB.in loopj
variable      randnj equal round(random(v_ntop0,$(v_ntop0 + v_nbwall0),$s))
variable      randnj equal round(random(v_ntop0,6984,$s))
variable      randnj equal round(random(v_ntop0,6984,234897))
variable      randatomj equal ${randnj}
variable      randatomj equal 4764
variable      randzj equal z[${randatomj}]
variable      randzj equal z[4764]
if            "${randzj} < $(v_wthick - 0.7)" then "jump MDPBB.in loopj"
jump MDPBB.in loopj
variable      randnj equal round(random(v_ntop0,$(v_ntop0 + v_nbwall0),$s))
variable      randnj equal round(random(v_ntop0,6984,$s))
variable      randnj equal round(random(v_ntop0,6984,234897))
variable      randatomj equal ${randnj}
variable      randatomj equal 6340
variable      randzj equal z[${randatomj}]
variable      randzj equal z[6340]
if            "${randzj} < $(v_wthick - 0.7)" then "jump MDPBB.in loopj"
set           atom ${randatomj} type 4
set           atom 6340 type 4
  1 settings made for type
group         bwg id ${randatomj}                         # Add this atom to a bot-wall-grafted group
group         bwg id 6340                         
12 atoms in group bwg
variable      bwgcount equal count(bwg)
print         "bwg contains ${bwgcount}"
bwg contains 12
print         "j = $(v_j)"
j = 12
variable      x0 equal x[${randatomj}]
variable      x0 equal x[6340]
variable      y0 equal y[${randatomj}]
variable      y0 equal y[6340]
variable      check0 equal ${check}
variable      check0 equal 7314
variable      b equal ${check}+1
variable      b equal 7314+1
if            "${bwgcount} != $(v_j)" then "jump MDPBB.in loopj"
create_atoms  1 single ${x0} ${y0} ${z0} mol bs 24987 units box remap yes rotate 0 0 0 1
create_atoms  1 single 0 ${y0} ${z0} mol bs 24987 units box remap yes rotate 0 0 0 1
create_atoms  1 single 0 15.0803099936979 ${z0} mol bs 24987 units box remap yes rotate 0 0 0 1
create_atoms  1 single 0 15.0803099936979 17 mol bs 24987 units box remap yes rotate 0 0 0 1
Created 30 atoms
  create_atoms CPU = 0.0001792 secs
variable      check1 equal ${check}
variable      check1 equal 7344
if            "${check1} != ${check0}" then "create_bonds  single/bond 2 ${randatomj} $b" "next j"
create_bonds  single/bond 2 ${randatomj} $b
create_bonds  single/bond 2 6340 $b
create_bonds  single/bond 2 6340 7315
  2 = max # of 1-2 neighbors
  5 = max # of special neighbors
  special bonds CPU = 0.0034662 secs
next j
jump MDPBB.in loopj
variable      randnj equal round(random(v_ntop0,$(v_ntop0 + v_nbwall0),$s))
variable      randnj equal round(random(v_ntop0,6984,$s))
variable      randnj equal round(random(v_ntop0,6984,234897))
variable      randatomj equal ${randnj}
variable      randatomj equal 4716
variable      randzj equal z[${randatomj}]
variable      randzj equal z[4716]
if            "${randzj} < $(v_wthick - 0.7)" then "jump MDPBB.in loopj"
jump MDPBB.in loopj
variable      randnj equal round(random(v_ntop0,$(v_ntop0 + v_nbwall0),$s))
variable      randnj equal round(random(v_ntop0,6984,$s))
variable      randnj equal round(random(v_ntop0,6984,234897))
variable      randatomj equal ${randnj}
variable      randatomj equal 6569
variable      randzj equal z[${randatomj}]
variable      randzj equal z[6569]
if            "${randzj} < $(v_wthick - 0.7)" then "jump MDPBB.in loopj"
jump MDPBB.in loopj
variable      randnj equal round(random(v_ntop0,$(v_ntop0 + v_nbwall0),$s))
variable      randnj equal round(random(v_ntop0,6984,$s))
variable      randnj equal round(random(v_ntop0,6984,234897))
variable      randatomj equal ${randnj}
variable      randatomj equal 4928
variable      randzj equal z[${randatomj}]
variable      randzj equal z[4928]
if            "${randzj} < $(v_wthick - 0.7)" then "jump MDPBB.in loopj"
jump MDPBB.in loopj
variable      randnj equal round(random(v_ntop0,$(v_ntop0 + v_nbwall0),$s))
variable      randnj equal round(random(v_ntop0,6984,$s))
variable      randnj equal round(random(v_ntop0,6984,234897))
variable      randatomj equal ${randnj}
variable      randatomj equal 4895
variable      randzj equal z[${randatomj}]
variable      randzj equal z[4895]
if            "${randzj} < $(v_wthick - 0.7)" then "jump MDPBB.in loopj"
jump MDPBB.in loopj
variable      randnj equal round(random(v_ntop0,$(v_ntop0 + v_nbwall0),$s))
variable      randnj equal round(random(v_ntop0,6984,$s))
variable      randnj equal round(random(v_ntop0,6984,234897))
variable      randatomj equal ${randnj}
variable      randatomj equal 5083
variable      randzj equal z[${randatomj}]
variable      randzj equal z[5083]
if            "${randzj} < $(v_wthick - 0.7)" then "jump MDPBB.in loopj"
jump MDPBB.in loopj
variable      randnj equal round(random(v_ntop0,$(v_ntop0 + v_nbwall0),$s))
variable      randnj equal round(random(v_ntop0,6984,$s))
variable      randnj equal round(random(v_ntop0,6984,234897))
variable      randatomj equal ${randnj}
variable      randatomj equal 6928
variable      randzj equal z[${randatomj}]
variable      randzj equal z[6928]
if            "${randzj} < $(v_wthick - 0.7)" then "jump MDPBB.in loopj"
set           atom ${randatomj} type 4
set           atom 6928 type 4
  1 settings made for type
group         bwg id ${randatomj}                         # Add this atom to a bot-wall-grafted group
group         bwg id 6928                         
13 atoms in group bwg
variable      bwgcount equal count(bwg)
print         "bwg contains ${bwgcount}"
bwg contains 13
print         "j = $(v_j)"
j = 13
variable      x0 equal x[${randatomj}]
variable      x0 equal x[6928]
variable      y0 equal y[${randatomj}]
variable      y0 equal y[6928]
variable      check0 equal ${check}
variable      check0 equal 7344
variable      b equal ${check}+1
variable      b equal 7344+1
if            "${bwgcount} != $(v_j)" then "jump MDPBB.in loopj"
create_atoms  1 single ${x0} ${y0} ${z0} mol bs 24987 units box remap yes rotate 0 0 0 1
create_atoms  1 single 4.7622031559046 ${y0} ${z0} mol bs 24987 units box remap yes rotate 0 0 0 1
create_atoms  1 single 4.7622031559046 27.7795184094435 ${z0} mol bs 24987 units box remap yes rotate 0 0 0 1
create_atoms  1 single 4.7622031559046 27.7795184094435 17 mol bs 24987 units box remap yes rotate 0 0 0 1
Created 30 atoms
  create_atoms CPU = 0.0001554 secs
variable      check1 equal ${check}
variable      check1 equal 7374
if            "${check1} != ${check0}" then "create_bonds  single/bond 2 ${randatomj} $b" "next j"
create_bonds  single/bond 2 ${randatomj} $b
create_bonds  single/bond 2 6928 $b
create_bonds  single/bond 2 6928 7345
  2 = max # of 1-2 neighbors
  5 = max # of special neighbors
  special bonds CPU = 0.0043374 secs
next j
jump MDPBB.in loopj
variable      randnj equal round(random(v_ntop0,$(v_ntop0 + v_nbwall0),$s))
variable      randnj equal round(random(v_ntop0,6984,$s))
variable      randnj equal round(random(v_ntop0,6984,234897))
variable      randatomj equal ${randnj}
variable      randatomj equal 5468
variable      randzj equal z[${randatomj}]
variable      randzj equal z[5468]
if            "${randzj} < $(v_wthick - 0.7)" then "jump MDPBB.in loopj"
jump MDPBB.in loopj
variable      randnj equal round(random(v_ntop0,$(v_ntop0 + v_nbwall0),$s))
variable      randnj equal round(random(v_ntop0,6984,$s))
variable      randnj equal round(random(v_ntop0,6984,234897))
variable      randatomj equal ${randnj}
variable      randatomj equal 6928
variable      randzj equal z[${randatomj}]
variable      randzj equal z[6928]
if            "${randzj} < $(v_wthick - 0.7)" then "jump MDPBB.in loopj"
set           atom ${randatomj} type 4
set           atom 6928 type 4
  1 settings made for type
group         bwg id ${randatomj}                         # Add this atom to a bot-wall-grafted group
group         bwg id 6928                         
13 atoms in group bwg
variable      bwgcount equal count(bwg)
print         "bwg contains ${bwgcount}"
bwg contains 13
print         "j = $(v_j)"
j = 14
variable      x0 equal x[${randatomj}]
variable      x0 equal x[6928]
variable      y0 equal y[${randatomj}]
variable      y0 equal y[6928]
variable      check0 equal ${check}
variable      check0 equal 7374
variable      b equal ${check}+1
variable      b equal 7374+1
if            "${bwgcount} != $(v_j)" then "jump MDPBB.in loopj"
jump MDPBB.in loopj
variable      randnj equal round(random(v_ntop0,$(v_ntop0 + v_nbwall0),$s))
variable      randnj equal round(random(v_ntop0,6984,$s))
variable      randnj equal round(random(v_ntop0,6984,234897))
variable      randatomj equal ${randnj}
variable      randatomj equal 5947
variable      randzj equal z[${randatomj}]
variable      randzj equal z[5947]
if            "${randzj} < $(v_wthick - 0.7)" then "jump MDPBB.in loopj"
set           atom ${randatomj} type 4
set           atom 5947 type 4
  1 settings made for type
group         bwg id ${randatomj}                         # Add this atom to a bot-wall-grafted group
group         bwg id 5947                         
14 atoms in group bwg
variable      bwgcount equal count(bwg)
print         "bwg contains ${bwgcount}"
bwg contains 14
print         "j = $(v_j)"
j = 14
variable      x0 equal x[${randatomj}]
variable      x0 equal x[5947]
variable      y0 equal y[${randatomj}]
variable      y0 equal y[5947]
variable      check0 equal ${check}
variable      check0 equal 7374
variable      b equal ${check}+1
variable      b equal 7374+1
if            "${bwgcount} != $(v_j)" then "jump MDPBB.in loopj"
create_atoms  1 single ${x0} ${y0} ${z0} mol bs 24987 units box remap yes rotate 0 0 0 1
create_atoms  1 single 16.6677110456661 ${y0} ${z0} mol bs 24987 units box remap yes rotate 0 0 0 1
create_atoms  1 single 16.6677110456661 4.7622031559046 ${z0} mol bs 24987 units box remap yes rotate 0 0 0 1
create_atoms  1 single 16.6677110456661 4.7622031559046 17 mol bs 24987 units box remap yes rotate 0 0 0 1
Created 30 atoms
  create_atoms CPU = 0.00015 secs
variable      check1 equal ${check}
variable      check1 equal 7404
if            "${check1} != ${check0}" then "create_bonds  single/bond 2 ${randatomj} $b" "next j"
create_bonds  single/bond 2 ${randatomj} $b
create_bonds  single/bond 2 5947 $b
create_bonds  single/bond 2 5947 7375
  2 = max # of 1-2 neighbors
  5 = max # of special neighbors
  special bonds CPU = 0.0028868 secs
next j
jump MDPBB.in loopj
variable      randnj equal round(random(v_ntop0,$(v_ntop0 + v_nbwall0),$s))
variable      randnj equal round(random(v_ntop0,6984,$s))
variable      randnj equal round(random(v_ntop0,6984,234897))
variable      randatomj equal ${randnj}
variable      randatomj equal 5734
variable      randzj equal z[${randatomj}]
variable      randzj equal z[5734]
if            "${randzj} < $(v_wthick - 0.7)" then "jump MDPBB.in loopj"
jump MDPBB.in loopj
variable      randnj equal round(random(v_ntop0,$(v_ntop0 + v_nbwall0),$s))
variable      randnj equal round(random(v_ntop0,6984,$s))
variable      randnj equal round(random(v_ntop0,6984,234897))
variable      randatomj equal ${randnj}
variable      randatomj equal 5157
variable      randzj equal z[${randatomj}]
variable      randzj equal z[5157]
if            "${randzj} < $(v_wthick - 0.7)" then "jump MDPBB.in loopj"
jump MDPBB.in loopj
variable      randnj equal round(random(v_ntop0,$(v_ntop0 + v_nbwall0),$s))
variable      randnj equal round(random(v_ntop0,6984,$s))
variable      randnj equal round(random(v_ntop0,6984,234897))
variable      randatomj equal ${randnj}
variable      randatomj equal 6299
variable      randzj equal z[${randatomj}]
variable      randzj equal z[6299]
if            "${randzj} < $(v_wthick - 0.7)" then "jump MDPBB.in loopj"
set           atom ${randatomj} type 4
set           atom 6299 type 4
  1 settings made for type
group         bwg id ${randatomj}                         # Add this atom to a bot-wall-grafted group
group         bwg id 6299                         
15 atoms in group bwg
variable      bwgcount equal count(bwg)
print         "bwg contains ${bwgcount}"
bwg contains 15
print         "j = $(v_j)"
j = 15
variable      x0 equal x[${randatomj}]
variable      x0 equal x[6299]
variable      y0 equal y[${randatomj}]
variable      y0 equal y[6299]
variable      check0 equal ${check}
variable      check0 equal 7404
variable      b equal ${check}+1
variable      b equal 7404+1
if            "${bwgcount} != $(v_j)" then "jump MDPBB.in loopj"
create_atoms  1 single ${x0} ${y0} ${z0} mol bs 24987 units box remap yes rotate 0 0 0 1
create_atoms  1 single 13.4929089417297 ${y0} ${z0} mol bs 24987 units box remap yes rotate 0 0 0 1
create_atoms  1 single 13.4929089417297 12.6992084157456 ${z0} mol bs 24987 units box remap yes rotate 0 0 0 1
create_atoms  1 single 13.4929089417297 12.6992084157456 17 mol bs 24987 units box remap yes rotate 0 0 0 1
Created 30 atoms
  create_atoms CPU = 0.0006406 secs
variable      check1 equal ${check}
variable      check1 equal 7434
if            "${check1} != ${check0}" then "create_bonds  single/bond 2 ${randatomj} $b" "next j"
create_bonds  single/bond 2 ${randatomj} $b
create_bonds  single/bond 2 6299 $b
create_bonds  single/bond 2 6299 7405
  2 = max # of 1-2 neighbors
  5 = max # of special neighbors
  special bonds CPU = 0.0034923 secs
next j
jump MDPBB.in loopj
variable      randnj equal round(random(v_ntop0,$(v_ntop0 + v_nbwall0),$s))
variable      randnj equal round(random(v_ntop0,6984,$s))
variable      randnj equal round(random(v_ntop0,6984,234897))
variable      randatomj equal ${randnj}
variable      randatomj equal 5311
variable      randzj equal z[${randatomj}]
variable      randzj equal z[5311]
if            "${randzj} < $(v_wthick - 0.7)" then "jump MDPBB.in loopj"
jump MDPBB.in loopj
variable      randnj equal round(random(v_ntop0,$(v_ntop0 + v_nbwall0),$s))
variable      randnj equal round(random(v_ntop0,6984,$s))
variable      randnj equal round(random(v_ntop0,6984,234897))
variable      randatomj equal ${randnj}
variable      randatomj equal 6297
variable      randzj equal z[${randatomj}]
variable      randzj equal z[6297]
if            "${randzj} < $(v_wthick - 0.7)" then "jump MDPBB.in loopj"
jump MDPBB.in loopj
variable      randnj equal round(random(v_ntop0,$(v_ntop0 + v_nbwall0),$s))
variable      randnj equal round(random(v_ntop0,6984,$s))
variable      randnj equal round(random(v_ntop0,6984,234897))
variable      randatomj equal ${randnj}
variable      randatomj equal 4947
variable      randzj equal z[${randatomj}]
variable      randzj equal z[4947]
if            "${randzj} < $(v_wthick - 0.7)" then "jump MDPBB.in loopj"
jump MDPBB.in loopj
variable      randnj equal round(random(v_ntop0,$(v_ntop0 + v_nbwall0),$s))
variable      randnj equal round(random(v_ntop0,6984,$s))
variable      randnj equal round(random(v_ntop0,6984,234897))
variable      randatomj equal ${randnj}
variable      randatomj equal 6311
variable      randzj equal z[${randatomj}]
variable      randzj equal z[6311]
if            "${randzj} < $(v_wthick - 0.7)" then "jump MDPBB.in loopj"
set           atom ${randatomj} type 4
set           atom 6311 type 4
  1 settings made for type
group         bwg id ${randatomj}                         # Add this atom to a bot-wall-grafted group
group         bwg id 6311                         
16 atoms in group bwg
variable      bwgcount equal count(bwg)
print         "bwg contains ${bwgcount}"
bwg contains 16
print         "j = $(v_j)"
j = 16
variable      x0 equal x[${randatomj}]
variable      x0 equal x[6311]
variable      y0 equal y[${randatomj}]
variable      y0 equal y[6311]
variable      check0 equal ${check}
variable      check0 equal 7434
variable      b equal ${check}+1
variable      b equal 7434+1
if            "${bwgcount} != $(v_j)" then "jump MDPBB.in loopj"
create_atoms  1 single ${x0} ${y0} ${z0} mol bs 24987 units box remap yes rotate 0 0 0 1
create_atoms  1 single 18.2551120976343 ${y0} ${z0} mol bs 24987 units box remap yes rotate 0 0 0 1
create_atoms  1 single 18.2551120976343 12.6992084157456 ${z0} mol bs 24987 units box remap yes rotate 0 0 0 1
create_atoms  1 single 18.2551120976343 12.6992084157456 17 mol bs 24987 units box remap yes rotate 0 0 0 1
Created 30 atoms
  create_atoms CPU = 0.0001454 secs
variable      check1 equal ${check}
variable      check1 equal 7464
if            "${check1} != ${check0}" then "create_bonds  single/bond 2 ${randatomj} $b" "next j"
create_bonds  single/bond 2 ${randatomj} $b
create_bonds  single/bond 2 6311 $b
create_bonds  single/bond 2 6311 7435
  2 = max # of 1-2 neighbors
  5 = max # of special neighbors
  special bonds CPU = 0.0049699 secs
next j
jump MDPBB.in loopj
variable      randnj equal round(random(v_ntop0,$(v_ntop0 + v_nbwall0),$s))
variable      randnj equal round(random(v_ntop0,6984,$s))
variable      randnj equal round(random(v_ntop0,6984,234897))
variable      randatomj equal ${randnj}
variable      randatomj equal 6351
variable      randzj equal z[${randatomj}]
variable      randzj equal z[6351]
if            "${randzj} < $(v_wthick - 0.7)" then "jump MDPBB.in loopj"
set           atom ${randatomj} type 4
set           atom 6351 type 4
  1 settings made for type
group         bwg id ${randatomj}                         # Add this atom to a bot-wall-grafted group
group         bwg id 6351                         
17 atoms in group bwg
variable      bwgcount equal count(bwg)
print         "bwg contains ${bwgcount}"
bwg contains 17
print         "j = $(v_j)"
j = 17
variable      x0 equal x[${randatomj}]
variable      x0 equal x[6351]
variable      y0 equal y[${randatomj}]
variable      y0 equal y[6351]
variable      check0 equal ${check}
variable      check0 equal 7464
variable      b equal ${check}+1
variable      b equal 7464+1
if            "${bwgcount} != $(v_j)" then "jump MDPBB.in loopj"
create_atoms  1 single ${x0} ${y0} ${z0} mol bs 24987 units box remap yes rotate 0 0 0 1
create_atoms  1 single 5.5559036818887 ${y0} ${z0} mol bs 24987 units box remap yes rotate 0 0 0 1
create_atoms  1 single 5.5559036818887 14.2866094677138 ${z0} mol bs 24987 units box remap yes rotate 0 0 0 1
create_atoms  1 single 5.5559036818887 14.2866094677138 17 mol bs 24987 units box remap yes rotate 0 0 0 1
Created 30 atoms
  create_atoms CPU = 0.0001329 secs
variable      check1 equal ${check}
variable      check1 equal 7494
if            "${check1} != ${check0}" then "create_bonds  single/bond 2 ${randatomj} $b" "next j"
create_bonds  single/bond 2 ${randatomj} $b
create_bonds  single/bond 2 6351 $b
create_bonds  single/bond 2 6351 7465
  2 = max # of 1-2 neighbors
  5 = max # of special neighbors
  special bonds CPU = 0.0037153 secs
next j
jump MDPBB.in loopj
variable      randnj equal round(random(v_ntop0,$(v_ntop0 + v_nbwall0),$s))
variable      randnj equal round(random(v_ntop0,6984,$s))
variable      randnj equal round(random(v_ntop0,6984,234897))
variable      randatomj equal ${randnj}
variable      randatomj equal 4959
variable      randzj equal z[${randatomj}]
variable      randzj equal z[4959]
if            "${randzj} < $(v_wthick - 0.7)" then "jump MDPBB.in loopj"
jump MDPBB.in loopj
variable      randnj equal round(random(v_ntop0,$(v_ntop0 + v_nbwall0),$s))
variable      randnj equal round(random(v_ntop0,6984,$s))
variable      randnj equal round(random(v_ntop0,6984,234897))
variable      randatomj equal ${randnj}
variable      randatomj equal 5482
variable      randzj equal z[${randatomj}]
variable      randzj equal z[5482]
if            "${randzj} < $(v_wthick - 0.7)" then "jump MDPBB.in loopj"
jump MDPBB.in loopj
variable      randnj equal round(random(v_ntop0,$(v_ntop0 + v_nbwall0),$s))
variable      randnj equal round(random(v_ntop0,6984,$s))
variable      randnj equal round(random(v_ntop0,6984,234897))
variable      randatomj equal ${randnj}
variable      randatomj equal 4646
variable      randzj equal z[${randatomj}]
variable      randzj equal z[4646]
if            "${randzj} < $(v_wthick - 0.7)" then "jump MDPBB.in loopj"
jump MDPBB.in loopj
variable      randnj equal round(random(v_ntop0,$(v_ntop0 + v_nbwall0),$s))
variable      randnj equal round(random(v_ntop0,6984,$s))
variable      randnj equal round(random(v_ntop0,6984,234897))
variable      randatomj equal ${randnj}
variable      randatomj equal 6565
variable      randzj equal z[${randatomj}]
variable      randzj equal z[6565]
if            "${randzj} < $(v_wthick - 0.7)" then "jump MDPBB.in loopj"
jump MDPBB.in loopj
variable      randnj equal round(random(v_ntop0,$(v_ntop0 + v_nbwall0),$s))
variable      randnj equal round(random(v_ntop0,6984,$s))
variable      randnj equal round(random(v_ntop0,6984,234897))
variable      randatomj equal ${randnj}
variable      randatomj equal 6520
variable      randzj equal z[${randatomj}]
variable      randzj equal z[6520]
if            "${randzj} < $(v_wthick - 0.7)" then "jump MDPBB.in loopj"
set           atom ${randatomj} type 4
set           atom 6520 type 4
  1 settings made for type
group         bwg id ${randatomj}                         # Add this atom to a bot-wall-grafted group
group         bwg id 6520                         
18 atoms in group bwg
variable      bwgcount equal count(bwg)
print         "bwg contains ${bwgcount}"
bwg contains 18
print         "j = $(v_j)"
j = 18
variable      x0 equal x[${randatomj}]
variable      x0 equal x[6520]
variable      y0 equal y[${randatomj}]
variable      y0 equal y[6520]
variable      check0 equal ${check}
variable      check0 equal 7494
variable      b equal ${check}+1
variable      b equal 7494+1
if            "${bwgcount} != $(v_j)" then "jump MDPBB.in loopj"
create_atoms  1 single ${x0} ${y0} ${z0} mol bs 24987 units box remap yes rotate 0 0 0 1
create_atoms  1 single 14.2866094677138 ${y0} ${z0} mol bs 24987 units box remap yes rotate 0 0 0 1
create_atoms  1 single 14.2866094677138 18.2551120976343 ${z0} mol bs 24987 units box remap yes rotate 0 0 0 1
create_atoms  1 single 14.2866094677138 18.2551120976343 17 mol bs 24987 units box remap yes rotate 0 0 0 1
Created 30 atoms
  create_atoms CPU = 0.0001828 secs
variable      check1 equal ${check}
variable      check1 equal 7524
if            "${check1} != ${check0}" then "create_bonds  single/bond 2 ${randatomj} $b" "next j"
create_bonds  single/bond 2 ${randatomj} $b
create_bonds  single/bond 2 6520 $b
create_bonds  single/bond 2 6520 7495
  2 = max # of 1-2 neighbors
  5 = max # of special neighbors
  special bonds CPU = 0.0047278 secs
next j
jump MDPBB.in loopj
variable      randnj equal round(random(v_ntop0,$(v_ntop0 + v_nbwall0),$s))
variable      randnj equal round(random(v_ntop0,6984,$s))
variable      randnj equal round(random(v_ntop0,6984,234897))
variable      randatomj equal ${randnj}
variable      randatomj equal 6709
variable      randzj equal z[${randatomj}]
variable      randzj equal z[6709]
if            "${randzj} < $(v_wthick - 0.7)" then "jump MDPBB.in loopj"
jump MDPBB.in loopj
variable      randnj equal round(random(v_ntop0,$(v_ntop0 + v_nbwall0),$s))
variable      randnj equal round(random(v_ntop0,6984,$s))
variable      randnj equal round(random(v_ntop0,6984,234897))
variable      randatomj equal ${randnj}
variable      randatomj equal 4737
variable      randzj equal z[${randatomj}]
variable      randzj equal z[4737]
if            "${randzj} < $(v_wthick - 0.7)" then "jump MDPBB.in loopj"
jump MDPBB.in loopj
variable      randnj equal round(random(v_ntop0,$(v_ntop0 + v_nbwall0),$s))
variable      randnj equal round(random(v_ntop0,6984,$s))
variable      randnj equal round(random(v_ntop0,6984,234897))
variable      randatomj equal ${randnj}
variable      randatomj equal 4535
variable      randzj equal z[${randatomj}]
variable      randzj equal z[4535]
if            "${randzj} < $(v_wthick - 0.7)" then "jump MDPBB.in loopj"
jump MDPBB.in loopj
variable      randnj equal round(random(v_ntop0,$(v_ntop0 + v_nbwall0),$s))
variable      randnj equal round(random(v_ntop0,6984,$s))
variable      randnj equal round(random(v_ntop0,6984,234897))
variable      randatomj equal ${randnj}
variable      randatomj equal 5629
variable      randzj equal z[${randatomj}]
variable      randzj equal z[5629]
if            "${randzj} < $(v_wthick - 0.7)" then "jump MDPBB.in loopj"
jump MDPBB.in loopj
variable      randnj equal round(random(v_ntop0,$(v_ntop0 + v_nbwall0),$s))
variable      randnj equal round(random(v_ntop0,6984,$s))
variable      randnj equal round(random(v_ntop0,6984,234897))
variable      randatomj equal ${randnj}
variable      randatomj equal 4691
variable      randzj equal z[${randatomj}]
variable      randzj equal z[4691]
if            "${randzj} < $(v_wthick - 0.7)" then "jump MDPBB.in loopj"
jump MDPBB.in loopj
variable      randnj equal round(random(v_ntop0,$(v_ntop0 + v_nbwall0),$s))
variable      randnj equal round(random(v_ntop0,6984,$s))
variable      randnj equal round(random(v_ntop0,6984,234897))
variable      randatomj equal ${randnj}
variable      randatomj equal 6440
variable      randzj equal z[${randatomj}]
variable      randzj equal z[6440]
if            "${randzj} < $(v_wthick - 0.7)" then "jump MDPBB.in loopj"
set           atom ${randatomj} type 4
set           atom 6440 type 4
  1 settings made for type
group         bwg id ${randatomj}                         # Add this atom to a bot-wall-grafted group
group         bwg id 6440                         
19 atoms in group bwg
variable      bwgcount equal count(bwg)
print         "bwg contains ${bwgcount}"
bwg contains 19
print         "j = $(v_j)"
j = 19
variable      x0 equal x[${randatomj}]
variable      x0 equal x[6440]
variable      y0 equal y[${randatomj}]
variable      y0 equal y[6440]
variable      check0 equal ${check}
variable      check0 equal 7524
variable      b equal ${check}+1
variable      b equal 7524+1
if            "${bwgcount} != $(v_j)" then "jump MDPBB.in loopj"
create_atoms  1 single ${x0} ${y0} ${z0} mol bs 24987 units box remap yes rotate 0 0 0 1
create_atoms  1 single 11.1118073637774 ${y0} ${z0} mol bs 24987 units box remap yes rotate 0 0 0 1
create_atoms  1 single 11.1118073637774 16.6677110456661 ${z0} mol bs 24987 units box remap yes rotate 0 0 0 1
create_atoms  1 single 11.1118073637774 16.6677110456661 17 mol bs 24987 units box remap yes rotate 0 0 0 1
Created 30 atoms
  create_atoms CPU = 0.0001818 secs
variable      check1 equal ${check}
variable      check1 equal 7554
if            "${check1} != ${check0}" then "create_bonds  single/bond 2 ${randatomj} $b" "next j"
create_bonds  single/bond 2 ${randatomj} $b
create_bonds  single/bond 2 6440 $b
create_bonds  single/bond 2 6440 7525
  2 = max # of 1-2 neighbors
  5 = max # of special neighbors
  special bonds CPU = 0.003519 secs
next j
jump MDPBB.in loopj
variable      randnj equal round(random(v_ntop0,$(v_ntop0 + v_nbwall0),$s))
variable      randnj equal round(random(v_ntop0,6984,$s))
variable      randnj equal round(random(v_ntop0,6984,234897))
variable      randatomj equal ${randnj}
variable      randatomj equal 6069
variable      randzj equal z[${randatomj}]
variable      randzj equal z[6069]
if            "${randzj} < $(v_wthick - 0.7)" then "jump MDPBB.in loopj"
jump MDPBB.in loopj
variable      randnj equal round(random(v_ntop0,$(v_ntop0 + v_nbwall0),$s))
variable      randnj equal round(random(v_ntop0,6984,$s))
variable      randnj equal round(random(v_ntop0,6984,234897))
variable      randatomj equal ${randnj}
variable      randatomj equal 6322
variable      randzj equal z[${randatomj}]
variable      randzj equal z[6322]
if            "${randzj} < $(v_wthick - 0.7)" then "jump MDPBB.in loopj"
jump MDPBB.in loopj
variable      randnj equal round(random(v_ntop0,$(v_ntop0 + v_nbwall0),$s))
variable      randnj equal round(random(v_ntop0,6984,$s))
variable      randnj equal round(random(v_ntop0,6984,234897))
variable      randatomj equal ${randnj}
variable      randatomj equal 6273
variable      randzj equal z[${randatomj}]
variable      randzj equal z[6273]
if            "${randzj} < $(v_wthick - 0.7)" then "jump MDPBB.in loopj"
jump MDPBB.in loopj
variable      randnj equal round(random(v_ntop0,$(v_ntop0 + v_nbwall0),$s))
variable      randnj equal round(random(v_ntop0,6984,$s))
variable      randnj equal round(random(v_ntop0,6984,234897))
variable      randatomj equal ${randnj}
variable      randatomj equal 5904
variable      randzj equal z[${randatomj}]
variable      randzj equal z[5904]
if            "${randzj} < $(v_wthick - 0.7)" then "jump MDPBB.in loopj"
set           atom ${randatomj} type 4
set           atom 5904 type 4
  1 settings made for type
group         bwg id ${randatomj}                         # Add this atom to a bot-wall-grafted group
group         bwg id 5904                         
19 atoms in group bwg
variable      bwgcount equal count(bwg)
print         "bwg contains ${bwgcount}"
bwg contains 19
print         "j = $(v_j)"
j = 20
variable      x0 equal x[${randatomj}]
variable      x0 equal x[5904]
variable      y0 equal y[${randatomj}]
variable      y0 equal y[5904]
variable      check0 equal ${check}
variable      check0 equal 7554
variable      b equal ${check}+1
variable      b equal 7554+1
if            "${bwgcount} != $(v_j)" then "jump MDPBB.in loopj"
jump MDPBB.in loopj
variable      randnj equal round(random(v_ntop0,$(v_ntop0 + v_nbwall0),$s))
variable      randnj equal round(random(v_ntop0,6984,$s))
variable      randnj equal round(random(v_ntop0,6984,234897))
variable      randatomj equal ${randnj}
variable      randatomj equal 5146
variable      randzj equal z[${randatomj}]
variable      randzj equal z[5146]
if            "${randzj} < $(v_wthick - 0.7)" then "jump MDPBB.in loopj"
jump MDPBB.in loopj
variable      randnj equal round(random(v_ntop0,$(v_ntop0 + v_nbwall0),$s))
variable      randnj equal round(random(v_ntop0,6984,$s))
variable      randnj equal round(random(v_ntop0,6984,234897))
variable      randatomj equal ${randnj}
variable      randatomj equal 6927
variable      randzj equal z[${randatomj}]
variable      randzj equal z[6927]
if            "${randzj} < $(v_wthick - 0.7)" then "jump MDPBB.in loopj"
set           atom ${randatomj} type 4
set           atom 6927 type 4
  1 settings made for type
group         bwg id ${randatomj}                         # Add this atom to a bot-wall-grafted group
group         bwg id 6927                         
20 atoms in group bwg
variable      bwgcount equal count(bwg)
print         "bwg contains ${bwgcount}"
bwg contains 20
print         "j = $(v_j)"
j = 20
variable      x0 equal x[${randatomj}]
variable      x0 equal x[6927]
variable      y0 equal y[${randatomj}]
variable      y0 equal y[6927]
variable      check0 equal ${check}
variable      check0 equal 7554
variable      b equal ${check}+1
variable      b equal 7554+1
if            "${bwgcount} != $(v_j)" then "jump MDPBB.in loopj"
create_atoms  1 single ${x0} ${y0} ${z0} mol bs 24987 units box remap yes rotate 0 0 0 1
create_atoms  1 single 5.5559036818887 ${y0} ${z0} mol bs 24987 units box remap yes rotate 0 0 0 1
create_atoms  1 single 5.5559036818887 26.9858178834594 ${z0} mol bs 24987 units box remap yes rotate 0 0 0 1
create_atoms  1 single 5.5559036818887 26.9858178834594 17 mol bs 24987 units box remap yes rotate 0 0 0 1
Created 30 atoms
  create_atoms CPU = 0.0001942 secs
variable      check1 equal ${check}
variable      check1 equal 7584
if            "${check1} != ${check0}" then "create_bonds  single/bond 2 ${randatomj} $b" "next j"
create_bonds  single/bond 2 ${randatomj} $b
create_bonds  single/bond 2 6927 $b
create_bonds  single/bond 2 6927 7555
  2 = max # of 1-2 neighbors
  5 = max # of special neighbors
  special bonds CPU = 0.004586 secs
next j
jump MDPBB.in loopj
variable      randnj equal round(random(v_ntop0,$(v_ntop0 + v_nbwall0),$s))
variable      randnj equal round(random(v_ntop0,6984,$s))
variable      randnj equal round(random(v_ntop0,6984,234897))
variable      randatomj equal ${randnj}
variable      randatomj equal 6526
variable      randzj equal z[${randatomj}]
variable      randzj equal z[6526]
if            "${randzj} < $(v_wthick - 0.7)" then "jump MDPBB.in loopj"
jump MDPBB.in loopj
variable      randnj equal round(random(v_ntop0,$(v_ntop0 + v_nbwall0),$s))
variable      randnj equal round(random(v_ntop0,6984,$s))
variable      randnj equal round(random(v_ntop0,6984,234897))
variable      randatomj equal ${randnj}
variable      randatomj equal 6067
variable      randzj equal z[${randatomj}]
variable      randzj equal z[6067]
if            "${randzj} < $(v_wthick - 0.7)" then "jump MDPBB.in loopj"
set           atom ${randatomj} type 4
set           atom 6067 type 4
  1 settings made for type
group         bwg id ${randatomj}                         # Add this atom to a bot-wall-grafted group
group         bwg id 6067                         
21 atoms in group bwg
variable      bwgcount equal count(bwg)
print         "bwg contains ${bwgcount}"
bwg contains 21
print         "j = $(v_j)"
j = 21
variable      x0 equal x[${randatomj}]
variable      x0 equal x[6067]
variable      y0 equal y[${randatomj}]
variable      y0 equal y[6067]
variable      check0 equal ${check}
variable      check0 equal 7584
variable      b equal ${check}+1
variable      b equal 7584+1
if            "${bwgcount} != $(v_j)" then "jump MDPBB.in loopj"
create_atoms  1 single ${x0} ${y0} ${z0} mol bs 24987 units box remap yes rotate 0 0 0 1
create_atoms  1 single 7.1433047338569 ${y0} ${z0} mol bs 24987 units box remap yes rotate 0 0 0 1
create_atoms  1 single 7.1433047338569 7.937005259841 ${z0} mol bs 24987 units box remap yes rotate 0 0 0 1
create_atoms  1 single 7.1433047338569 7.937005259841 17 mol bs 24987 units box remap yes rotate 0 0 0 1
Created 30 atoms
  create_atoms CPU = 0.000177 secs
variable      check1 equal ${check}
variable      check1 equal 7614
if            "${check1} != ${check0}" then "create_bonds  single/bond 2 ${randatomj} $b" "next j"
create_bonds  single/bond 2 ${randatomj} $b
create_bonds  single/bond 2 6067 $b
create_bonds  single/bond 2 6067 7585
  2 = max # of 1-2 neighbors
  5 = max # of special neighbors
  special bonds CPU = 0.0039426 secs
next j
jump MDPBB.in loopj
variable      randnj equal round(random(v_ntop0,$(v_ntop0 + v_nbwall0),$s))
variable      randnj equal round(random(v_ntop0,6984,$s))
variable      randnj equal round(random(v_ntop0,6984,234897))
variable      randatomj equal ${randnj}
variable      randatomj equal 6926
variable      randzj equal z[${randatomj}]
variable      randzj equal z[6926]
if            "${randzj} < $(v_wthick - 0.7)" then "jump MDPBB.in loopj"
jump MDPBB.in loopj
variable      randnj equal round(random(v_ntop0,$(v_ntop0 + v_nbwall0),$s))
variable      randnj equal round(random(v_ntop0,6984,$s))
variable      randnj equal round(random(v_ntop0,6984,234897))
variable      randatomj equal ${randnj}
variable      randatomj equal 5569
variable      randzj equal z[${randatomj}]
variable      randzj equal z[5569]
if            "${randzj} < $(v_wthick - 0.7)" then "jump MDPBB.in loopj"
jump MDPBB.in loopj
variable      randnj equal round(random(v_ntop0,$(v_ntop0 + v_nbwall0),$s))
variable      randnj equal round(random(v_ntop0,6984,$s))
variable      randnj equal round(random(v_ntop0,6984,234897))
variable      randatomj equal ${randnj}
variable      randatomj equal 6432
variable      randzj equal z[${randatomj}]
variable      randzj equal z[6432]
if            "${randzj} < $(v_wthick - 0.7)" then "jump MDPBB.in loopj"
set           atom ${randatomj} type 4
set           atom 6432 type 4
  1 settings made for type
group         bwg id ${randatomj}                         # Add this atom to a bot-wall-grafted group
group         bwg id 6432                         
22 atoms in group bwg
variable      bwgcount equal count(bwg)
print         "bwg contains ${bwgcount}"
bwg contains 22
print         "j = $(v_j)"
j = 22
variable      x0 equal x[${randatomj}]
variable      x0 equal x[6432]
variable      y0 equal y[${randatomj}]
variable      y0 equal y[6432]
variable      check0 equal ${check}
variable      check0 equal 7614
variable      b equal ${check}+1
variable      b equal 7614+1
if            "${bwgcount} != $(v_j)" then "jump MDPBB.in loopj"
create_atoms  1 single ${x0} ${y0} ${z0} mol bs 24987 units box remap yes rotate 0 0 0 1
create_atoms  1 single 7.937005259841 ${y0} ${z0} mol bs 24987 units box remap yes rotate 0 0 0 1
create_atoms  1 single 7.937005259841 16.6677110456661 ${z0} mol bs 24987 units box remap yes rotate 0 0 0 1
create_atoms  1 single 7.937005259841 16.6677110456661 17 mol bs 24987 units box remap yes rotate 0 0 0 1
Created 30 atoms
  create_atoms CPU = 0.0002089 secs
variable      check1 equal ${check}
variable      check1 equal 7644
if            "${check1} != ${check0}" then "create_bonds  single/bond 2 ${randatomj} $b" "next j"
create_bonds  single/bond 2 ${randatomj} $b
create_bonds  single/bond 2 6432 $b
create_bonds  single/bond 2 6432 7615
  2 = max # of 1-2 neighbors
  5 = max # of special neighbors
  special bonds CPU = 0.0052101 secs
next j
jump MDPBB.in loopj
variable      randnj equal round(random(v_ntop0,$(v_ntop0 + v_nbwall0),$s))
variable      randnj equal round(random(v_ntop0,6984,$s))
variable      randnj equal round(random(v_ntop0,6984,234897))
variable      randatomj equal ${randnj}
variable      randatomj equal 4930
variable      randzj equal z[${randatomj}]
variable      randzj equal z[4930]
if            "${randzj} < $(v_wthick - 0.7)" then "jump MDPBB.in loopj"
jump MDPBB.in loopj
variable      randnj equal round(random(v_ntop0,$(v_ntop0 + v_nbwall0),$s))
variable      randnj equal round(random(v_ntop0,6984,$s))
variable      randnj equal round(random(v_ntop0,6984,234897))
variable      randatomj equal ${randnj}
variable      randatomj equal 5580
variable      randzj equal z[${randatomj}]
variable      randzj equal z[5580]
if            "${randzj} < $(v_wthick - 0.7)" then "jump MDPBB.in loopj"
jump MDPBB.in loopj
variable      randnj equal round(random(v_ntop0,$(v_ntop0 + v_nbwall0),$s))
variable      randnj equal round(random(v_ntop0,6984,$s))
variable      randnj equal round(random(v_ntop0,6984,234897))
variable      randatomj equal ${randnj}
variable      randatomj equal 5401
variable      randzj equal z[${randatomj}]
variable      randzj equal z[5401]
if            "${randzj} < $(v_wthick - 0.7)" then "jump MDPBB.in loopj"
jump MDPBB.in loopj
variable      randnj equal round(random(v_ntop0,$(v_ntop0 + v_nbwall0),$s))
variable      randnj equal round(random(v_ntop0,6984,$s))
variable      randnj equal round(random(v_ntop0,6984,234897))
variable      randatomj equal ${randnj}
variable      randatomj equal 5609
variable      randzj equal z[${randatomj}]
variable      randzj equal z[5609]
if            "${randzj} < $(v_wthick - 0.7)" then "jump MDPBB.in loopj"
jump MDPBB.in loopj
variable      randnj equal round(random(v_ntop0,$(v_ntop0 + v_nbwall0),$s))
variable      randnj equal round(random(v_ntop0,6984,$s))
variable      randnj equal round(random(v_ntop0,6984,234897))
variable      randatomj equal ${randnj}
variable      randatomj equal 5670
variable      randzj equal z[${randatomj}]
variable      randzj equal z[5670]
if            "${randzj} < $(v_wthick - 0.7)" then "jump MDPBB.in loopj"
jump MDPBB.in loopj
variable      randnj equal round(random(v_ntop0,$(v_ntop0 + v_nbwall0),$s))
variable      randnj equal round(random(v_ntop0,6984,$s))
variable      randnj equal round(random(v_ntop0,6984,234897))
variable      randatomj equal ${randnj}
variable      randatomj equal 5855
variable      randzj equal z[${randatomj}]
variable      randzj equal z[5855]
if            "${randzj} < $(v_wthick - 0.7)" then "jump MDPBB.in loopj"
set           atom ${randatomj} type 4
set           atom 5855 type 4
  1 settings made for type
group         bwg id ${randatomj}                         # Add this atom to a bot-wall-grafted group
group         bwg id 5855                         
23 atoms in group bwg
variable      bwgcount equal count(bwg)
print         "bwg contains ${bwgcount}"
bwg contains 23
print         "j = $(v_j)"
j = 23
variable      x0 equal x[${randatomj}]
variable      x0 equal x[5855]
variable      y0 equal y[${randatomj}]
variable      y0 equal y[5855]
variable      check0 equal ${check}
variable      check0 equal 7644
variable      b equal ${check}+1
variable      b equal 7644+1
if            "${bwgcount} != $(v_j)" then "jump MDPBB.in loopj"
create_atoms  1 single ${x0} ${y0} ${z0} mol bs 24987 units box remap yes rotate 0 0 0 1
create_atoms  1 single 8.7307057858251 ${y0} ${z0} mol bs 24987 units box remap yes rotate 0 0 0 1
create_atoms  1 single 8.7307057858251 3.1748021039364 ${z0} mol bs 24987 units box remap yes rotate 0 0 0 1
create_atoms  1 single 8.7307057858251 3.1748021039364 17 mol bs 24987 units box remap yes rotate 0 0 0 1
Created 30 atoms
  create_atoms CPU = 0.000188 secs
variable      check1 equal ${check}
variable      check1 equal 7674
if            "${check1} != ${check0}" then "create_bonds  single/bond 2 ${randatomj} $b" "next j"
create_bonds  single/bond 2 ${randatomj} $b
create_bonds  single/bond 2 5855 $b
create_bonds  single/bond 2 5855 7645
  2 = max # of 1-2 neighbors
  5 = max # of special neighbors
  special bonds CPU = 0.0045191 secs
next j
jump MDPBB.in loopj
variable      randnj equal round(random(v_ntop0,$(v_ntop0 + v_nbwall0),$s))
variable      randnj equal round(random(v_ntop0,6984,$s))
variable      randnj equal round(random(v_ntop0,6984,234897))
variable      randatomj equal ${randnj}
variable      randatomj equal 6288
variable      randzj equal z[${randatomj}]
variable      randzj equal z[6288]
if            "${randzj} < $(v_wthick - 0.7)" then "jump MDPBB.in loopj"
set           atom ${randatomj} type 4
set           atom 6288 type 4
  1 settings made for type
group         bwg id ${randatomj}                         # Add this atom to a bot-wall-grafted group
group         bwg id 6288                         
24 atoms in group bwg
variable      bwgcount equal count(bwg)
print         "bwg contains ${bwgcount}"
bwg contains 24
print         "j = $(v_j)"
j = 24
variable      x0 equal x[${randatomj}]
variable      x0 equal x[6288]
variable      y0 equal y[${randatomj}]
variable      y0 equal y[6288]
variable      check0 equal ${check}
variable      check0 equal 7674
variable      b equal ${check}+1
variable      b equal 7674+1
if            "${bwgcount} != $(v_j)" then "jump MDPBB.in loopj"
create_atoms  1 single ${x0} ${y0} ${z0} mol bs 24987 units box remap yes rotate 0 0 0 1
create_atoms  1 single 7.937005259841 ${y0} ${z0} mol bs 24987 units box remap yes rotate 0 0 0 1
create_atoms  1 single 7.937005259841 13.4929089417297 ${z0} mol bs 24987 units box remap yes rotate 0 0 0 1
create_atoms  1 single 7.937005259841 13.4929089417297 17 mol bs 24987 units box remap yes rotate 0 0 0 1
Created 30 atoms
  create_atoms CPU = 0.0002833 secs
variable      check1 equal ${check}
variable      check1 equal 7704
if            "${check1} != ${check0}" then "create_bonds  single/bond 2 ${randatomj} $b" "next j"
create_bonds  single/bond 2 ${randatomj} $b
create_bonds  single/bond 2 6288 $b
create_bonds  single/bond 2 6288 7675
  2 = max # of 1-2 neighbors
  5 = max # of special neighbors
  special bonds CPU = 0.0028246 secs
next j
jump MDPBB.in loopj
variable      randnj equal round(random(v_ntop0,$(v_ntop0 + v_nbwall0),$s))
variable      randnj equal round(random(v_ntop0,6984,$s))
variable      randnj equal round(random(v_ntop0,6984,234897))
variable      randatomj equal ${randnj}
variable      randatomj equal 5487
variable      randzj equal z[${randatomj}]
variable      randzj equal z[5487]
if            "${randzj} < $(v_wthick - 0.7)" then "jump MDPBB.in loopj"
jump MDPBB.in loopj
variable      randnj equal round(random(v_ntop0,$(v_ntop0 + v_nbwall0),$s))
variable      randnj equal round(random(v_ntop0,6984,$s))
variable      randnj equal round(random(v_ntop0,6984,234897))
variable      randatomj equal ${randnj}
variable      randatomj equal 6407
variable      randzj equal z[${randatomj}]
variable      randzj equal z[6407]
if            "${randzj} < $(v_wthick - 0.7)" then "jump MDPBB.in loopj"
set           atom ${randatomj} type 4
set           atom 6407 type 4
  1 settings made for type
group         bwg id ${randatomj}                         # Add this atom to a bot-wall-grafted group
group         bwg id 6407                         
25 atoms in group bwg
variable      bwgcount equal count(bwg)
print         "bwg contains ${bwgcount}"
bwg contains 25
print         "j = $(v_j)"
j = 25
variable      x0 equal x[${randatomj}]
variable      x0 equal x[6407]
variable      y0 equal y[${randatomj}]
variable      y0 equal y[6407]
variable      check0 equal ${check}
variable      check0 equal 7704
variable      b equal ${check}+1
variable      b equal 7704+1
if            "${bwgcount} != $(v_j)" then "jump MDPBB.in loopj"
create_atoms  1 single ${x0} ${y0} ${z0} mol bs 24987 units box remap yes rotate 0 0 0 1
create_atoms  1 single 27.7795184094435 ${y0} ${z0} mol bs 24987 units box remap yes rotate 0 0 0 1
create_atoms  1 single 27.7795184094435 14.2866094677138 ${z0} mol bs 24987 units box remap yes rotate 0 0 0 1
create_atoms  1 single 27.7795184094435 14.2866094677138 17 mol bs 24987 units box remap yes rotate 0 0 0 1
Created 30 atoms
  create_atoms CPU = 0.0001497 secs
variable      check1 equal ${check}
variable      check1 equal 7734
if            "${check1} != ${check0}" then "create_bonds  single/bond 2 ${randatomj} $b" "next j"
create_bonds  single/bond 2 ${randatomj} $b
create_bonds  single/bond 2 6407 $b
create_bonds  single/bond 2 6407 7705
  2 = max # of 1-2 neighbors
  5 = max # of special neighbors
  special bonds CPU = 0.0043089 secs
next j
jump MDPBB.in loopj
variable      randnj equal round(random(v_ntop0,$(v_ntop0 + v_nbwall0),$s))
variable      randnj equal round(random(v_ntop0,6984,$s))
variable      randnj equal round(random(v_ntop0,6984,234897))
variable      randatomj equal ${randnj}
variable      randatomj equal 6608
variable      randzj equal z[${randatomj}]
variable      randzj equal z[6608]
if            "${randzj} < $(v_wthick - 0.7)" then "jump MDPBB.in loopj"
set           atom ${randatomj} type 4
set           atom 6608 type 4
  1 settings made for type
group         bwg id ${randatomj}                         # Add this atom to a bot-wall-grafted group
group         bwg id 6608                         
26 atoms in group bwg
variable      bwgcount equal count(bwg)
print         "bwg contains ${bwgcount}"
bwg contains 26
print         "j = $(v_j)"
j = 26
variable      x0 equal x[${randatomj}]
variable      x0 equal x[6608]
variable      y0 equal y[${randatomj}]
variable      y0 equal y[6608]
variable      check0 equal ${check}
variable      check0 equal 7734
variable      b equal ${check}+1
variable      b equal 7734+1
if            "${bwgcount} != $(v_j)" then "jump MDPBB.in loopj"
create_atoms  1 single ${x0} ${y0} ${z0} mol bs 24987 units box remap yes rotate 0 0 0 1
create_atoms  1 single 20.6362136755866 ${y0} ${z0} mol bs 24987 units box remap yes rotate 0 0 0 1
create_atoms  1 single 20.6362136755866 19.8425131496025 ${z0} mol bs 24987 units box remap yes rotate 0 0 0 1
create_atoms  1 single 20.6362136755866 19.8425131496025 17 mol bs 24987 units box remap yes rotate 0 0 0 1
Created 30 atoms
  create_atoms CPU = 0.0001444 secs
variable      check1 equal ${check}
variable      check1 equal 7764
if            "${check1} != ${check0}" then "create_bonds  single/bond 2 ${randatomj} $b" "next j"
create_bonds  single/bond 2 ${randatomj} $b
create_bonds  single/bond 2 6608 $b
create_bonds  single/bond 2 6608 7735
  2 = max # of 1-2 neighbors
  5 = max # of special neighbors
  special bonds CPU = 0.0048513 secs
next j
jump MDPBB.in loopj
variable      randnj equal round(random(v_ntop0,$(v_ntop0 + v_nbwall0),$s))
variable      randnj equal round(random(v_ntop0,6984,$s))
variable      randnj equal round(random(v_ntop0,6984,234897))
variable      randatomj equal ${randnj}
variable      randatomj equal 6657
variable      randzj equal z[${randatomj}]
variable      randzj equal z[6657]
if            "${randzj} < $(v_wthick - 0.7)" then "jump MDPBB.in loopj"
jump MDPBB.in loopj
variable      randnj equal round(random(v_ntop0,$(v_ntop0 + v_nbwall0),$s))
variable      randnj equal round(random(v_ntop0,6984,$s))
variable      randnj equal round(random(v_ntop0,6984,234897))
variable      randatomj equal ${randnj}
variable      randatomj equal 5101
variable      randzj equal z[${randatomj}]
variable      randzj equal z[5101]
if            "${randzj} < $(v_wthick - 0.7)" then "jump MDPBB.in loopj"
jump MDPBB.in loopj
variable      randnj equal round(random(v_ntop0,$(v_ntop0 + v_nbwall0),$s))
variable      randnj equal round(random(v_ntop0,6984,$s))
variable      randnj equal round(random(v_ntop0,6984,234897))
variable      randatomj equal ${randnj}
variable      randatomj equal 4452
variable      randzj equal z[${randatomj}]
variable      randzj equal z[4452]
if            "${randzj} < $(v_wthick - 0.7)" then "jump MDPBB.in loopj"
jump MDPBB.in loopj
variable      randnj equal round(random(v_ntop0,$(v_ntop0 + v_nbwall0),$s))
variable      randnj equal round(random(v_ntop0,6984,$s))
variable      randnj equal round(random(v_ntop0,6984,234897))
variable      randatomj equal ${randnj}
variable      randatomj equal 6958
variable      randzj equal z[${randatomj}]
variable      randzj equal z[6958]
if            "${randzj} < $(v_wthick - 0.7)" then "jump MDPBB.in loopj"
jump MDPBB.in loopj
variable      randnj equal round(random(v_ntop0,$(v_ntop0 + v_nbwall0),$s))
variable      randnj equal round(random(v_ntop0,6984,$s))
variable      randnj equal round(random(v_ntop0,6984,234897))
variable      randatomj equal ${randnj}
variable      randatomj equal 6692
variable      randzj equal z[${randatomj}]
variable      randzj equal z[6692]
if            "${randzj} < $(v_wthick - 0.7)" then "jump MDPBB.in loopj"
set           atom ${randatomj} type 4
set           atom 6692 type 4
  1 settings made for type
group         bwg id ${randatomj}                         # Add this atom to a bot-wall-grafted group
group         bwg id 6692                         
27 atoms in group bwg
variable      bwgcount equal count(bwg)
print         "bwg contains ${bwgcount}"
bwg contains 27
print         "j = $(v_j)"
j = 27
variable      x0 equal x[${randatomj}]
variable      x0 equal x[6692]
variable      y0 equal y[${randatomj}]
variable      y0 equal y[6692]
variable      check0 equal ${check}
variable      check0 equal 7764
variable      b equal ${check}+1
variable      b equal 7764+1
if            "${bwgcount} != $(v_j)" then "jump MDPBB.in loopj"
create_atoms  1 single ${x0} ${y0} ${z0} mol bs 24987 units box remap yes rotate 0 0 0 1
create_atoms  1 single 25.3984168314912 ${y0} ${z0} mol bs 24987 units box remap yes rotate 0 0 0 1
create_atoms  1 single 25.3984168314912 21.4299142015707 ${z0} mol bs 24987 units box remap yes rotate 0 0 0 1
create_atoms  1 single 25.3984168314912 21.4299142015707 17 mol bs 24987 units box remap yes rotate 0 0 0 1
Created 30 atoms
  create_atoms CPU = 0.0002367 secs
variable      check1 equal ${check}
variable      check1 equal 7794
if            "${check1} != ${check0}" then "create_bonds  single/bond 2 ${randatomj} $b" "next j"
create_bonds  single/bond 2 ${randatomj} $b
create_bonds  single/bond 2 6692 $b
create_bonds  single/bond 2 6692 7765
  2 = max # of 1-2 neighbors
  5 = max # of special neighbors
  special bonds CPU = 0.0048218 secs
next j
jump MDPBB.in loopj
variable      randnj equal round(random(v_ntop0,$(v_ntop0 + v_nbwall0),$s))
variable      randnj equal round(random(v_ntop0,6984,$s))
variable      randnj equal round(random(v_ntop0,6984,234897))
variable      randatomj equal ${randnj}
variable      randatomj equal 5365
variable      randzj equal z[${randatomj}]
variable      randzj equal z[5365]
if            "${randzj} < $(v_wthick - 0.7)" then "jump MDPBB.in loopj"
jump MDPBB.in loopj
variable      randnj equal round(random(v_ntop0,$(v_ntop0 + v_nbwall0),$s))
variable      randnj equal round(random(v_ntop0,6984,$s))
variable      randnj equal round(random(v_ntop0,6984,234897))
variable      randatomj equal ${randnj}
variable      randatomj equal 6929
variable      randzj equal z[${randatomj}]
variable      randzj equal z[6929]
if            "${randzj} < $(v_wthick - 0.7)" then "jump MDPBB.in loopj"
jump MDPBB.in loopj
variable      randnj equal round(random(v_ntop0,$(v_ntop0 + v_nbwall0),$s))
variable      randnj equal round(random(v_ntop0,6984,$s))
variable      randnj equal round(random(v_ntop0,6984,234897))
variable      randatomj equal ${randnj}
variable      randatomj equal 6568
variable      randzj equal z[${randatomj}]
variable      randzj equal z[6568]
if            "${randzj} < $(v_wthick - 0.7)" then "jump MDPBB.in loopj"
set           atom ${randatomj} type 4
set           atom 6568 type 4
  1 settings made for type
group         bwg id ${randatomj}                         # Add this atom to a bot-wall-grafted group
group         bwg id 6568                         
28 atoms in group bwg
variable      bwgcount equal count(bwg)
print         "bwg contains ${bwgcount}"
bwg contains 28
print         "j = $(v_j)"
j = 28
variable      x0 equal x[${randatomj}]
variable      x0 equal x[6568]
variable      y0 equal y[${randatomj}]
variable      y0 equal y[6568]
variable      check0 equal ${check}
variable      check0 equal 7794
variable      b equal ${check}+1
variable      b equal 7794+1
if            "${bwgcount} != $(v_j)" then "jump MDPBB.in loopj"
create_atoms  1 single ${x0} ${y0} ${z0} mol bs 24987 units box remap yes rotate 0 0 0 1
create_atoms  1 single 4.7622031559046 ${y0} ${z0} mol bs 24987 units box remap yes rotate 0 0 0 1
create_atoms  1 single 4.7622031559046 19.8425131496025 ${z0} mol bs 24987 units box remap yes rotate 0 0 0 1
create_atoms  1 single 4.7622031559046 19.8425131496025 17 mol bs 24987 units box remap yes rotate 0 0 0 1
Created 30 atoms
  create_atoms CPU = 0.0001332 secs
variable      check1 equal ${check}
variable      check1 equal 7824
if            "${check1} != ${check0}" then "create_bonds  single/bond 2 ${randatomj} $b" "next j"
create_bonds  single/bond 2 ${randatomj} $b
create_bonds  single/bond 2 6568 $b
create_bonds  single/bond 2 6568 7795
  2 = max # of 1-2 neighbors
  5 = max # of special neighbors
  special bonds CPU = 0.0040605 secs
next j
jump MDPBB.in loopj
variable      randnj equal round(random(v_ntop0,$(v_ntop0 + v_nbwall0),$s))
variable      randnj equal round(random(v_ntop0,6984,$s))
variable      randnj equal round(random(v_ntop0,6984,234897))
variable      randatomj equal ${randnj}
variable      randatomj equal 6279
variable      randzj equal z[${randatomj}]
variable      randzj equal z[6279]
if            "${randzj} < $(v_wthick - 0.7)" then "jump MDPBB.in loopj"
set           atom ${randatomj} type 4
set           atom 6279 type 4
  1 settings made for type
group         bwg id ${randatomj}                         # Add this atom to a bot-wall-grafted group
group         bwg id 6279                         
29 atoms in group bwg
variable      bwgcount equal count(bwg)
print         "bwg contains ${bwgcount}"
bwg contains 29
print         "j = $(v_j)"
j = 29
variable      x0 equal x[${randatomj}]
variable      x0 equal x[6279]
variable      y0 equal y[${randatomj}]
variable      y0 equal y[6279]
variable      check0 equal ${check}
variable      check0 equal 7824
variable      b equal ${check}+1
variable      b equal 7824+1
if            "${bwgcount} != $(v_j)" then "jump MDPBB.in loopj"
create_atoms  1 single ${x0} ${y0} ${z0} mol bs 24987 units box remap yes rotate 0 0 0 1
create_atoms  1 single 5.5559036818887 ${y0} ${z0} mol bs 24987 units box remap yes rotate 0 0 0 1
create_atoms  1 single 5.5559036818887 12.6992084157456 ${z0} mol bs 24987 units box remap yes rotate 0 0 0 1
create_atoms  1 single 5.5559036818887 12.6992084157456 17 mol bs 24987 units box remap yes rotate 0 0 0 1
Created 30 atoms
  create_atoms CPU = 0.0002781 secs
variable      check1 equal ${check}
variable      check1 equal 7854
if            "${check1} != ${check0}" then "create_bonds  single/bond 2 ${randatomj} $b" "next j"
create_bonds  single/bond 2 ${randatomj} $b
create_bonds  single/bond 2 6279 $b
create_bonds  single/bond 2 6279 7825
  2 = max # of 1-2 neighbors
  5 = max # of special neighbors
  special bonds CPU = 0.0036809 secs
next j
jump MDPBB.in loopj
variable      randnj equal round(random(v_ntop0,$(v_ntop0 + v_nbwall0),$s))
variable      randnj equal round(random(v_ntop0,6984,$s))
variable      randnj equal round(random(v_ntop0,6984,234897))
variable      randatomj equal ${randnj}
variable      randatomj equal 6038
variable      randzj equal z[${randatomj}]
variable      randzj equal z[6038]
if            "${randzj} < $(v_wthick - 0.7)" then "jump MDPBB.in loopj"
jump MDPBB.in loopj
variable      randnj equal round(random(v_ntop0,$(v_ntop0 + v_nbwall0),$s))
variable      randnj equal round(random(v_ntop0,6984,$s))
variable      randnj equal round(random(v_ntop0,6984,234897))
variable      randatomj equal ${randnj}
variable      randatomj equal 4570
variable      randzj equal z[${randatomj}]
variable      randzj equal z[4570]
if            "${randzj} < $(v_wthick - 0.7)" then "jump MDPBB.in loopj"
jump MDPBB.in loopj
variable      randnj equal round(random(v_ntop0,$(v_ntop0 + v_nbwall0),$s))
variable      randnj equal round(random(v_ntop0,6984,$s))
variable      randnj equal round(random(v_ntop0,6984,234897))
variable      randatomj equal ${randnj}
variable      randatomj equal 6166
variable      randzj equal z[${randatomj}]
variable      randzj equal z[6166]
if            "${randzj} < $(v_wthick - 0.7)" then "jump MDPBB.in loopj"
jump MDPBB.in loopj
variable      randnj equal round(random(v_ntop0,$(v_ntop0 + v_nbwall0),$s))
variable      randnj equal round(random(v_ntop0,6984,$s))
variable      randnj equal round(random(v_ntop0,6984,234897))
variable      randatomj equal ${randnj}
variable      randatomj equal 5100
variable      randzj equal z[${randatomj}]
variable      randzj equal z[5100]
if            "${randzj} < $(v_wthick - 0.7)" then "jump MDPBB.in loopj"
jump MDPBB.in loopj
variable      randnj equal round(random(v_ntop0,$(v_ntop0 + v_nbwall0),$s))
variable      randnj equal round(random(v_ntop0,6984,$s))
variable      randnj equal round(random(v_ntop0,6984,234897))
variable      randatomj equal ${randnj}
variable      randatomj equal 6419
variable      randzj equal z[${randatomj}]
variable      randzj equal z[6419]
if            "${randzj} < $(v_wthick - 0.7)" then "jump MDPBB.in loopj"
set           atom ${randatomj} type 4
set           atom 6419 type 4
  1 settings made for type
group         bwg id ${randatomj}                         # Add this atom to a bot-wall-grafted group
group         bwg id 6419                         
30 atoms in group bwg
variable      bwgcount equal count(bwg)
print         "bwg contains ${bwgcount}"
bwg contains 30
print         "j = $(v_j)"
j = 30
variable      x0 equal x[${randatomj}]
variable      x0 equal x[6419]
variable      y0 equal y[${randatomj}]
variable      y0 equal y[6419]
variable      check0 equal ${check}
variable      check0 equal 7854
variable      b equal ${check}+1
variable      b equal 7854+1
if            "${bwgcount} != $(v_j)" then "jump MDPBB.in loopj"
create_atoms  1 single ${x0} ${y0} ${z0} mol bs 24987 units box remap yes rotate 0 0 0 1
create_atoms  1 single 3.9685026299205 ${y0} ${z0} mol bs 24987 units box remap yes rotate 0 0 0 1
create_atoms  1 single 3.9685026299205 15.874010519682 ${z0} mol bs 24987 units box remap yes rotate 0 0 0 1
create_atoms  1 single 3.9685026299205 15.874010519682 17 mol bs 24987 units box remap yes rotate 0 0 0 1
Created 30 atoms
  create_atoms CPU = 0.0001867 secs
variable      check1 equal ${check}
variable      check1 equal 7884
if            "${check1} != ${check0}" then "create_bonds  single/bond 2 ${randatomj} $b" "next j"
create_bonds  single/bond 2 ${randatomj} $b
create_bonds  single/bond 2 6419 $b
create_bonds  single/bond 2 6419 7855
  2 = max # of 1-2 neighbors
  5 = max # of special neighbors
  special bonds CPU = 0.0060996 secs
next j
jump MDPBB.in loopj
variable      randnj equal round(random(v_ntop0,$(v_ntop0 + v_nbwall0),$s))
variable      randnj equal round(random(v_ntop0,6984,$s))
variable      randnj equal round(random(v_ntop0,6984,234897))
variable      randatomj equal ${randnj}
variable      randatomj equal 5826
variable      randzj equal z[${randatomj}]
variable      randzj equal z[5826]
if            "${randzj} < $(v_wthick - 0.7)" then "jump MDPBB.in loopj"
jump MDPBB.in loopj
variable      randnj equal round(random(v_ntop0,$(v_ntop0 + v_nbwall0),$s))
variable      randnj equal round(random(v_ntop0,6984,$s))
variable      randnj equal round(random(v_ntop0,6984,234897))
variable      randatomj equal ${randnj}
variable      randatomj equal 4460
variable      randzj equal z[${randatomj}]
variable      randzj equal z[4460]
if            "${randzj} < $(v_wthick - 0.7)" then "jump MDPBB.in loopj"
jump MDPBB.in loopj
variable      randnj equal round(random(v_ntop0,$(v_ntop0 + v_nbwall0),$s))
variable      randnj equal round(random(v_ntop0,6984,$s))
variable      randnj equal round(random(v_ntop0,6984,234897))
variable      randatomj equal ${randnj}
variable      randatomj equal 5257
variable      randzj equal z[${randatomj}]
variable      randzj equal z[5257]
if            "${randzj} < $(v_wthick - 0.7)" then "jump MDPBB.in loopj"
jump MDPBB.in loopj
variable      randnj equal round(random(v_ntop0,$(v_ntop0 + v_nbwall0),$s))
variable      randnj equal round(random(v_ntop0,6984,$s))
variable      randnj equal round(random(v_ntop0,6984,234897))
variable      randatomj equal ${randnj}
variable      randatomj equal 6436
variable      randzj equal z[${randatomj}]
variable      randzj equal z[6436]
if            "${randzj} < $(v_wthick - 0.7)" then "jump MDPBB.in loopj"
set           atom ${randatomj} type 4
set           atom 6436 type 4
  1 settings made for type
group         bwg id ${randatomj}                         # Add this atom to a bot-wall-grafted group
group         bwg id 6436                         
31 atoms in group bwg
variable      bwgcount equal count(bwg)
print         "bwg contains ${bwgcount}"
bwg contains 31
print         "j = $(v_j)"
j = 31
variable      x0 equal x[${randatomj}]
variable      x0 equal x[6436]
variable      y0 equal y[${randatomj}]
variable      y0 equal y[6436]
variable      check0 equal ${check}
variable      check0 equal 7884
variable      b equal ${check}+1
variable      b equal 7884+1
if            "${bwgcount} != $(v_j)" then "jump MDPBB.in loopj"
create_atoms  1 single ${x0} ${y0} ${z0} mol bs 24987 units box remap yes rotate 0 0 0 1
create_atoms  1 single 9.5244063118092 ${y0} ${z0} mol bs 24987 units box remap yes rotate 0 0 0 1
create_atoms  1 single 9.5244063118092 16.6677110456661 ${z0} mol bs 24987 units box remap yes rotate 0 0 0 1
create_atoms  1 single 9.5244063118092 16.6677110456661 17 mol bs 24987 units box remap yes rotate 0 0 0 1
Created 30 atoms
  create_atoms CPU = 0.0001745 secs
variable      check1 equal ${check}
variable      check1 equal 7914
if            "${check1} != ${check0}" then "create_bonds  single/bond 2 ${randatomj} $b" "next j"
create_bonds  single/bond 2 ${randatomj} $b
create_bonds  single/bond 2 6436 $b
create_bonds  single/bond 2 6436 7885
  2 = max # of 1-2 neighbors
  5 = max # of special neighbors
  special bonds CPU = 0.0043632 secs
next j
jump MDPBB.in loopj
variable      randnj equal round(random(v_ntop0,$(v_ntop0 + v_nbwall0),$s))
variable      randnj equal round(random(v_ntop0,6984,$s))
variable      randnj equal round(random(v_ntop0,6984,234897))
variable      randatomj equal ${randnj}
variable      randatomj equal 6362
variable      randzj equal z[${randatomj}]
variable      randzj equal z[6362]
if            "${randzj} < $(v_wthick - 0.7)" then "jump MDPBB.in loopj"
jump MDPBB.in loopj
variable      randnj equal round(random(v_ntop0,$(v_ntop0 + v_nbwall0),$s))
variable      randnj equal round(random(v_ntop0,6984,$s))
variable      randnj equal round(random(v_ntop0,6984,234897))
variable      randatomj equal ${randnj}
variable      randatomj equal 5258
variable      randzj equal z[${randatomj}]
variable      randzj equal z[5258]
if            "${randzj} < $(v_wthick - 0.7)" then "jump MDPBB.in loopj"
jump MDPBB.in loopj
variable      randnj equal round(random(v_ntop0,$(v_ntop0 + v_nbwall0),$s))
variable      randnj equal round(random(v_ntop0,6984,$s))
variable      randnj equal round(random(v_ntop0,6984,234897))
variable      randatomj equal ${randnj}
variable      randatomj equal 4507
variable      randzj equal z[${randatomj}]
variable      randzj equal z[4507]
if            "${randzj} < $(v_wthick - 0.7)" then "jump MDPBB.in loopj"
jump MDPBB.in loopj
variable      randnj equal round(random(v_ntop0,$(v_ntop0 + v_nbwall0),$s))
variable      randnj equal round(random(v_ntop0,6984,$s))
variable      randnj equal round(random(v_ntop0,6984,234897))
variable      randatomj equal ${randnj}
variable      randatomj equal 5018
variable      randzj equal z[${randatomj}]
variable      randzj equal z[5018]
if            "${randzj} < $(v_wthick - 0.7)" then "jump MDPBB.in loopj"
jump MDPBB.in loopj
variable      randnj equal round(random(v_ntop0,$(v_ntop0 + v_nbwall0),$s))
variable      randnj equal round(random(v_ntop0,6984,$s))
variable      randnj equal round(random(v_ntop0,6984,234897))
variable      randatomj equal ${randnj}
variable      randatomj equal 6494
variable      randzj equal z[${randatomj}]
variable      randzj equal z[6494]
if            "${randzj} < $(v_wthick - 0.7)" then "jump MDPBB.in loopj"
jump MDPBB.in loopj
variable      randnj equal round(random(v_ntop0,$(v_ntop0 + v_nbwall0),$s))
variable      randnj equal round(random(v_ntop0,6984,$s))
variable      randnj equal round(random(v_ntop0,6984,234897))
variable      randatomj equal ${randnj}
variable      randatomj equal 4816
variable      randzj equal z[${randatomj}]
variable      randzj equal z[4816]
if            "${randzj} < $(v_wthick - 0.7)" then "jump MDPBB.in loopj"
jump MDPBB.in loopj
variable      randnj equal round(random(v_ntop0,$(v_ntop0 + v_nbwall0),$s))
variable      randnj equal round(random(v_ntop0,6984,$s))
variable      randnj equal round(random(v_ntop0,6984,234897))
variable      randatomj equal ${randnj}
variable      randatomj equal 6947
variable      randzj equal z[${randatomj}]
variable      randzj equal z[6947]
if            "${randzj} < $(v_wthick - 0.7)" then "jump MDPBB.in loopj"
set           atom ${randatomj} type 4
set           atom 6947 type 4
  1 settings made for type
group         bwg id ${randatomj}                         # Add this atom to a bot-wall-grafted group
group         bwg id 6947                         
32 atoms in group bwg
variable      bwgcount equal count(bwg)
print         "bwg contains ${bwgcount}"
bwg contains 32
print         "j = $(v_j)"
j = 32
variable      x0 equal x[${randatomj}]
variable      x0 equal x[6947]
variable      y0 equal y[${randatomj}]
variable      y0 equal y[6947]
variable      check0 equal ${check}
variable      check0 equal 7914
variable      b equal ${check}+1
variable      b equal 7914+1
if            "${bwgcount} != $(v_j)" then "jump MDPBB.in loopj"
create_atoms  1 single ${x0} ${y0} ${z0} mol bs 24987 units box remap yes rotate 0 0 0 1
create_atoms  1 single 13.4929089417297 ${y0} ${z0} mol bs 24987 units box remap yes rotate 0 0 0 1
create_atoms  1 single 13.4929089417297 26.9858178834594 ${z0} mol bs 24987 units box remap yes rotate 0 0 0 1
create_atoms  1 single 13.4929089417297 26.9858178834594 17 mol bs 24987 units box remap yes rotate 0 0 0 1
Created 30 atoms
  create_atoms CPU = 0.0001864 secs
variable      check1 equal ${check}
variable      check1 equal 7944
if            "${check1} != ${check0}" then "create_bonds  single/bond 2 ${randatomj} $b" "next j"
create_bonds  single/bond 2 ${randatomj} $b
create_bonds  single/bond 2 6947 $b
create_bonds  single/bond 2 6947 7915
  2 = max # of 1-2 neighbors
  5 = max # of special neighbors
  special bonds CPU = 0.002652 secs
next j
jump MDPBB.in loopj
variable      randnj equal round(random(v_ntop0,$(v_ntop0 + v_nbwall0),$s))
variable      randnj equal round(random(v_ntop0,6984,$s))
variable      randnj equal round(random(v_ntop0,6984,234897))
variable      randatomj equal ${randnj}
variable      randatomj equal 5144
variable      randzj equal z[${randatomj}]
variable      randzj equal z[5144]
if            "${randzj} < $(v_wthick - 0.7)" then "jump MDPBB.in loopj"
jump MDPBB.in loopj
variable      randnj equal round(random(v_ntop0,$(v_ntop0 + v_nbwall0),$s))
variable      randnj equal round(random(v_ntop0,6984,$s))
variable      randnj equal round(random(v_ntop0,6984,234897))
variable      randatomj equal ${randnj}
variable      randatomj equal 5523
variable      randzj equal z[${randatomj}]
variable      randzj equal z[5523]
if            "${randzj} < $(v_wthick - 0.7)" then "jump MDPBB.in loopj"
jump MDPBB.in loopj
variable      randnj equal round(random(v_ntop0,$(v_ntop0 + v_nbwall0),$s))
variable      randnj equal round(random(v_ntop0,6984,$s))
variable      randnj equal round(random(v_ntop0,6984,234897))
variable      randatomj equal ${randnj}
variable      randatomj equal 4423
variable      randzj equal z[${randatomj}]
variable      randzj equal z[4423]
if            "${randzj} < $(v_wthick - 0.7)" then "jump MDPBB.in loopj"
jump MDPBB.in loopj
variable      randnj equal round(random(v_ntop0,$(v_ntop0 + v_nbwall0),$s))
variable      randnj equal round(random(v_ntop0,6984,$s))
variable      randnj equal round(random(v_ntop0,6984,234897))
variable      randatomj equal ${randnj}
variable      randatomj equal 5825
variable      randzj equal z[${randatomj}]
variable      randzj equal z[5825]
if            "${randzj} < $(v_wthick - 0.7)" then "jump MDPBB.in loopj"
jump MDPBB.in loopj
variable      randnj equal round(random(v_ntop0,$(v_ntop0 + v_nbwall0),$s))
variable      randnj equal round(random(v_ntop0,6984,$s))
variable      randnj equal round(random(v_ntop0,6984,234897))
variable      randatomj equal ${randnj}
variable      randatomj equal 5712
variable      randzj equal z[${randatomj}]
variable      randzj equal z[5712]
if            "${randzj} < $(v_wthick - 0.7)" then "jump MDPBB.in loopj"
set           atom ${randatomj} type 4
set           atom 5712 type 4
  1 settings made for type
group         bwg id ${randatomj}                         # Add this atom to a bot-wall-grafted group
group         bwg id 5712                         
33 atoms in group bwg
variable      bwgcount equal count(bwg)
print         "bwg contains ${bwgcount}"
bwg contains 33
print         "j = $(v_j)"
j = 33
variable      x0 equal x[${randatomj}]
variable      x0 equal x[5712]
variable      y0 equal y[${randatomj}]
variable      y0 equal y[5712]
variable      check0 equal ${check}
variable      check0 equal 7944
variable      b equal ${check}+1
variable      b equal 7944+1
if            "${bwgcount} != $(v_j)" then "jump MDPBB.in loopj"
create_atoms  1 single ${x0} ${y0} ${z0} mol bs 24987 units box remap yes rotate 0 0 0 1
create_atoms  1 single 7.937005259841 ${y0} ${z0} mol bs 24987 units box remap yes rotate 0 0 0 1
create_atoms  1 single 7.937005259841 0.7937005259841 ${z0} mol bs 24987 units box remap yes rotate 0 0 0 1
create_atoms  1 single 7.937005259841 0.7937005259841 17 mol bs 24987 units box remap yes rotate 0 0 0 1
Created 30 atoms
  create_atoms CPU = 0.0002324 secs
variable      check1 equal ${check}
variable      check1 equal 7974
if            "${check1} != ${check0}" then "create_bonds  single/bond 2 ${randatomj} $b" "next j"
create_bonds  single/bond 2 ${randatomj} $b
create_bonds  single/bond 2 5712 $b
create_bonds  single/bond 2 5712 7945
  2 = max # of 1-2 neighbors
  5 = max # of special neighbors
  special bonds CPU = 0.0045503 secs
next j
jump MDPBB.in loopj
variable      randnj equal round(random(v_ntop0,$(v_ntop0 + v_nbwall0),$s))
variable      randnj equal round(random(v_ntop0,6984,$s))
variable      randnj equal round(random(v_ntop0,6984,234897))
variable      randatomj equal ${randnj}
variable      randatomj equal 6588
variable      randzj equal z[${randatomj}]
variable      randzj equal z[6588]
if            "${randzj} < $(v_wthick - 0.7)" then "jump MDPBB.in loopj"
set           atom ${randatomj} type 4
set           atom 6588 type 4
  1 settings made for type
group         bwg id ${randatomj}                         # Add this atom to a bot-wall-grafted group
group         bwg id 6588                         
34 atoms in group bwg
variable      bwgcount equal count(bwg)
print         "bwg contains ${bwgcount}"
bwg contains 34
print         "j = $(v_j)"
j = 34
variable      x0 equal x[${randatomj}]
variable      x0 equal x[6588]
variable      y0 equal y[${randatomj}]
variable      y0 equal y[6588]
variable      check0 equal ${check}
variable      check0 equal 7974
variable      b equal ${check}+1
variable      b equal 7974+1
if            "${bwgcount} != $(v_j)" then "jump MDPBB.in loopj"
create_atoms  1 single ${x0} ${y0} ${z0} mol bs 24987 units box remap yes rotate 0 0 0 1
create_atoms  1 single 12.6992084157456 ${y0} ${z0} mol bs 24987 units box remap yes rotate 0 0 0 1
create_atoms  1 single 12.6992084157456 19.8425131496025 ${z0} mol bs 24987 units box remap yes rotate 0 0 0 1
create_atoms  1 single 12.6992084157456 19.8425131496025 17 mol bs 24987 units box remap yes rotate 0 0 0 1
Created 30 atoms
  create_atoms CPU = 0.000152 secs
variable      check1 equal ${check}
variable      check1 equal 8004
if            "${check1} != ${check0}" then "create_bonds  single/bond 2 ${randatomj} $b" "next j"
create_bonds  single/bond 2 ${randatomj} $b
create_bonds  single/bond 2 6588 $b
create_bonds  single/bond 2 6588 7975
  2 = max # of 1-2 neighbors
  5 = max # of special neighbors
  special bonds CPU = 0.0039019 secs
next j
jump MDPBB.in loopj
variable      randnj equal round(random(v_ntop0,$(v_ntop0 + v_nbwall0),$s))
variable      randnj equal round(random(v_ntop0,6984,$s))
variable      randnj equal round(random(v_ntop0,6984,234897))
variable      randatomj equal ${randnj}
variable      randatomj equal 6940
variable      randzj equal z[${randatomj}]
variable      randzj equal z[6940]
if            "${randzj} < $(v_wthick - 0.7)" then "jump MDPBB.in loopj"
set           atom ${randatomj} type 4
set           atom 6940 type 4
  1 settings made for type
group         bwg id ${randatomj}                         # Add this atom to a bot-wall-grafted group
group         bwg id 6940                         
35 atoms in group bwg
variable      bwgcount equal count(bwg)
print         "bwg contains ${bwgcount}"
bwg contains 35
print         "j = $(v_j)"
j = 35
variable      x0 equal x[${randatomj}]
variable      x0 equal x[6940]
variable      y0 equal y[${randatomj}]
variable      y0 equal y[6940]
variable      check0 equal ${check}
variable      check0 equal 8004
variable      b equal ${check}+1
variable      b equal 8004+1
if            "${bwgcount} != $(v_j)" then "jump MDPBB.in loopj"
create_atoms  1 single ${x0} ${y0} ${z0} mol bs 24987 units box remap yes rotate 0 0 0 1
create_atoms  1 single 9.5244063118092 ${y0} ${z0} mol bs 24987 units box remap yes rotate 0 0 0 1
create_atoms  1 single 9.5244063118092 27.7795184094435 ${z0} mol bs 24987 units box remap yes rotate 0 0 0 1
create_atoms  1 single 9.5244063118092 27.7795184094435 17 mol bs 24987 units box remap yes rotate 0 0 0 1
Created 30 atoms
  create_atoms CPU = 0.0002934 secs
variable      check1 equal ${check}
variable      check1 equal 8034
if            "${check1} != ${check0}" then "create_bonds  single/bond 2 ${randatomj} $b" "next j"
create_bonds  single/bond 2 ${randatomj} $b
create_bonds  single/bond 2 6940 $b
create_bonds  single/bond 2 6940 8005
  2 = max # of 1-2 neighbors
  5 = max # of special neighbors
  special bonds CPU = 0.0039491 secs
next j
jump MDPBB.in loopj
variable      randnj equal round(random(v_ntop0,$(v_ntop0 + v_nbwall0),$s))
variable      randnj equal round(random(v_ntop0,6984,$s))
variable      randnj equal round(random(v_ntop0,6984,234897))
variable      randatomj equal ${randnj}
variable      randatomj equal 6938
variable      randzj equal z[${randatomj}]
variable      randzj equal z[6938]
if            "${randzj} < $(v_wthick - 0.7)" then "jump MDPBB.in loopj"
jump MDPBB.in loopj
variable      randnj equal round(random(v_ntop0,$(v_ntop0 + v_nbwall0),$s))
variable      randnj equal round(random(v_ntop0,6984,$s))
variable      randnj equal round(random(v_ntop0,6984,234897))
variable      randatomj equal ${randnj}
variable      randatomj equal 6310
variable      randzj equal z[${randatomj}]
variable      randzj equal z[6310]
if            "${randzj} < $(v_wthick - 0.7)" then "jump MDPBB.in loopj"
jump MDPBB.in loopj
variable      randnj equal round(random(v_ntop0,$(v_ntop0 + v_nbwall0),$s))
variable      randnj equal round(random(v_ntop0,6984,$s))
variable      randnj equal round(random(v_ntop0,6984,234897))
variable      randatomj equal ${randnj}
variable      randatomj equal 5909
variable      randzj equal z[${randatomj}]
variable      randzj equal z[5909]
if            "${randzj} < $(v_wthick - 0.7)" then "jump MDPBB.in loopj"
jump MDPBB.in loopj
variable      randnj equal round(random(v_ntop0,$(v_ntop0 + v_nbwall0),$s))
variable      randnj equal round(random(v_ntop0,6984,$s))
variable      randnj equal round(random(v_ntop0,6984,234897))
variable      randatomj equal ${randnj}
variable      randatomj equal 5234
variable      randzj equal z[${randatomj}]
variable      randzj equal z[5234]
if            "${randzj} < $(v_wthick - 0.7)" then "jump MDPBB.in loopj"
jump MDPBB.in loopj
variable      randnj equal round(random(v_ntop0,$(v_ntop0 + v_nbwall0),$s))
variable      randnj equal round(random(v_ntop0,6984,$s))
variable      randnj equal round(random(v_ntop0,6984,234897))
variable      randatomj equal ${randnj}
variable      randatomj equal 6811
variable      randzj equal z[${randatomj}]
variable      randzj equal z[6811]
if            "${randzj} < $(v_wthick - 0.7)" then "jump MDPBB.in loopj"
set           atom ${randatomj} type 4
set           atom 6811 type 4
  1 settings made for type
group         bwg id ${randatomj}                         # Add this atom to a bot-wall-grafted group
group         bwg id 6811                         
36 atoms in group bwg
variable      bwgcount equal count(bwg)
print         "bwg contains ${bwgcount}"
bwg contains 36
print         "j = $(v_j)"
j = 36
variable      x0 equal x[${randatomj}]
variable      x0 equal x[6811]
variable      y0 equal y[${randatomj}]
variable      y0 equal y[6811]
variable      check0 equal ${check}
variable      check0 equal 8034
variable      b equal ${check}+1
variable      b equal 8034+1
if            "${bwgcount} != $(v_j)" then "jump MDPBB.in loopj"
create_atoms  1 single ${x0} ${y0} ${z0} mol bs 24987 units box remap yes rotate 0 0 0 1
create_atoms  1 single 16.6677110456661 ${y0} ${z0} mol bs 24987 units box remap yes rotate 0 0 0 1
create_atoms  1 single 16.6677110456661 23.811015779523 ${z0} mol bs 24987 units box remap yes rotate 0 0 0 1
create_atoms  1 single 16.6677110456661 23.811015779523 17 mol bs 24987 units box remap yes rotate 0 0 0 1
Created 30 atoms
  create_atoms CPU = 0.0002012 secs
variable      check1 equal ${check}
variable      check1 equal 8064
if            "${check1} != ${check0}" then "create_bonds  single/bond 2 ${randatomj} $b" "next j"
create_bonds  single/bond 2 ${randatomj} $b
create_bonds  single/bond 2 6811 $b
create_bonds  single/bond 2 6811 8035
  2 = max # of 1-2 neighbors
  5 = max # of special neighbors
  special bonds CPU = 0.0092402 secs
next j
jump MDPBB.in loopj
variable      randnj equal round(random(v_ntop0,$(v_ntop0 + v_nbwall0),$s))
variable      randnj equal round(random(v_ntop0,6984,$s))
variable      randnj equal round(random(v_ntop0,6984,234897))
variable      randatomj equal ${randnj}
variable      randatomj equal 5963
variable      randzj equal z[${randatomj}]
variable      randzj equal z[5963]
if            "${randzj} < $(v_wthick - 0.7)" then "jump MDPBB.in loopj"
set           atom ${randatomj} type 4
set           atom 5963 type 4
  1 settings made for type
group         bwg id ${randatomj}                         # Add this atom to a bot-wall-grafted group
group         bwg id 5963                         
37 atoms in group bwg
variable      bwgcount equal count(bwg)
print         "bwg contains ${bwgcount}"
bwg contains 37
print         "j = $(v_j)"
j = 37
variable      x0 equal x[${randatomj}]
variable      x0 equal x[5963]
variable      y0 equal y[${randatomj}]
variable      y0 equal y[5963]
variable      check0 equal ${check}
variable      check0 equal 8064
variable      b equal ${check}+1
variable      b equal 8064+1
if            "${bwgcount} != $(v_j)" then "jump MDPBB.in loopj"
create_atoms  1 single ${x0} ${y0} ${z0} mol bs 24987 units box remap yes rotate 0 0 0 1
create_atoms  1 single 23.0173152535389 ${y0} ${z0} mol bs 24987 units box remap yes rotate 0 0 0 1
create_atoms  1 single 23.0173152535389 4.7622031559046 ${z0} mol bs 24987 units box remap yes rotate 0 0 0 1
create_atoms  1 single 23.0173152535389 4.7622031559046 17 mol bs 24987 units box remap yes rotate 0 0 0 1
Created 30 atoms
  create_atoms CPU = 0.0001773 secs
variable      check1 equal ${check}
variable      check1 equal 8094
if            "${check1} != ${check0}" then "create_bonds  single/bond 2 ${randatomj} $b" "next j"
create_bonds  single/bond 2 ${randatomj} $b
create_bonds  single/bond 2 5963 $b
create_bonds  single/bond 2 5963 8065
  2 = max # of 1-2 neighbors
  5 = max # of special neighbors
  special bonds CPU = 0.006655 secs
next j
jump MDPBB.in loopj
variable      randnj equal round(random(v_ntop0,$(v_ntop0 + v_nbwall0),$s))
variable      randnj equal round(random(v_ntop0,6984,$s))
variable      randnj equal round(random(v_ntop0,6984,234897))
variable      randatomj equal ${randnj}
variable      randatomj equal 6464
variable      randzj equal z[${randatomj}]
variable      randzj equal z[6464]
if            "${randzj} < $(v_wthick - 0.7)" then "jump MDPBB.in loopj"
set           atom ${randatomj} type 4
set           atom 6464 type 4
  1 settings made for type
group         bwg id ${randatomj}                         # Add this atom to a bot-wall-grafted group
group         bwg id 6464                         
38 atoms in group bwg
variable      bwgcount equal count(bwg)
print         "bwg contains ${bwgcount}"
bwg contains 38
print         "j = $(v_j)"
j = 38
variable      x0 equal x[${randatomj}]
variable      x0 equal x[6464]
variable      y0 equal y[${randatomj}]
variable      y0 equal y[6464]
variable      check0 equal ${check}
variable      check0 equal 8094
variable      b equal ${check}+1
variable      b equal 8094+1
if            "${bwgcount} != $(v_j)" then "jump MDPBB.in loopj"
create_atoms  1 single ${x0} ${y0} ${z0} mol bs 24987 units box remap yes rotate 0 0 0 1
create_atoms  1 single 20.6362136755866 ${y0} ${z0} mol bs 24987 units box remap yes rotate 0 0 0 1
create_atoms  1 single 20.6362136755866 16.6677110456661 ${z0} mol bs 24987 units box remap yes rotate 0 0 0 1
create_atoms  1 single 20.6362136755866 16.6677110456661 17 mol bs 24987 units box remap yes rotate 0 0 0 1
Created 30 atoms
  create_atoms CPU = 0.0002868 secs
variable      check1 equal ${check}
variable      check1 equal 8124
if            "${check1} != ${check0}" then "create_bonds  single/bond 2 ${randatomj} $b" "next j"
create_bonds  single/bond 2 ${randatomj} $b
create_bonds  single/bond 2 6464 $b
create_bonds  single/bond 2 6464 8095
  2 = max # of 1-2 neighbors
  5 = max # of special neighbors
  special bonds CPU = 0.0063486 secs
next j
jump MDPBB.in loopj
variable      randnj equal round(random(v_ntop0,$(v_ntop0 + v_nbwall0),$s))
variable      randnj equal round(random(v_ntop0,6984,$s))
variable      randnj equal round(random(v_ntop0,6984,234897))
variable      randatomj equal ${randnj}
variable      randatomj equal 5045
variable      randzj equal z[${randatomj}]
variable      randzj equal z[5045]
if            "${randzj} < $(v_wthick - 0.7)" then "jump MDPBB.in loopj"
jump MDPBB.in loopj
variable      randnj equal round(random(v_ntop0,$(v_ntop0 + v_nbwall0),$s))
variable      randnj equal round(random(v_ntop0,6984,$s))
variable      randnj equal round(random(v_ntop0,6984,234897))
variable      randatomj equal ${randnj}
variable      randatomj equal 5926
variable      randzj equal z[${randatomj}]
variable      randzj equal z[5926]
if            "${randzj} < $(v_wthick - 0.7)" then "jump MDPBB.in loopj"
jump MDPBB.in loopj
variable      randnj equal round(random(v_ntop0,$(v_ntop0 + v_nbwall0),$s))
variable      randnj equal round(random(v_ntop0,6984,$s))
variable      randnj equal round(random(v_ntop0,6984,234897))
variable      randatomj equal ${randnj}
variable      randatomj equal 6733
variable      randzj equal z[${randatomj}]
variable      randzj equal z[6733]
if            "${randzj} < $(v_wthick - 0.7)" then "jump MDPBB.in loopj"
jump MDPBB.in loopj
variable      randnj equal round(random(v_ntop0,$(v_ntop0 + v_nbwall0),$s))
variable      randnj equal round(random(v_ntop0,6984,$s))
variable      randnj equal round(random(v_ntop0,6984,234897))
variable      randatomj equal ${randnj}
variable      randatomj equal 4587
variable      randzj equal z[${randatomj}]
variable      randzj equal z[4587]
if            "${randzj} < $(v_wthick - 0.7)" then "jump MDPBB.in loopj"
jump MDPBB.in loopj
variable      randnj equal round(random(v_ntop0,$(v_ntop0 + v_nbwall0),$s))
variable      randnj equal round(random(v_ntop0,6984,$s))
variable      randnj equal round(random(v_ntop0,6984,234897))
variable      randatomj equal ${randnj}
variable      randatomj equal 4941
variable      randzj equal z[${randatomj}]
variable      randzj equal z[4941]
if            "${randzj} < $(v_wthick - 0.7)" then "jump MDPBB.in loopj"
jump MDPBB.in loopj
variable      randnj equal round(random(v_ntop0,$(v_ntop0 + v_nbwall0),$s))
variable      randnj equal round(random(v_ntop0,6984,$s))
variable      randnj equal round(random(v_ntop0,6984,234897))
variable      randatomj equal ${randnj}
variable      randatomj equal 5208
variable      randzj equal z[${randatomj}]
variable      randzj equal z[5208]
if            "${randzj} < $(v_wthick - 0.7)" then "jump MDPBB.in loopj"
jump MDPBB.in loopj
variable      randnj equal round(random(v_ntop0,$(v_ntop0 + v_nbwall0),$s))
variable      randnj equal round(random(v_ntop0,6984,$s))
variable      randnj equal round(random(v_ntop0,6984,234897))
variable      randatomj equal ${randnj}
variable      randatomj equal 4585
variable      randzj equal z[${randatomj}]
variable      randzj equal z[4585]
if            "${randzj} < $(v_wthick - 0.7)" then "jump MDPBB.in loopj"
jump MDPBB.in loopj
variable      randnj equal round(random(v_ntop0,$(v_ntop0 + v_nbwall0),$s))
variable      randnj equal round(random(v_ntop0,6984,$s))
variable      randnj equal round(random(v_ntop0,6984,234897))
variable      randatomj equal ${randnj}
variable      randatomj equal 5204
variable      randzj equal z[${randatomj}]
variable      randzj equal z[5204]
if            "${randzj} < $(v_wthick - 0.7)" then "jump MDPBB.in loopj"
jump MDPBB.in loopj
variable      randnj equal round(random(v_ntop0,$(v_ntop0 + v_nbwall0),$s))
variable      randnj equal round(random(v_ntop0,6984,$s))
variable      randnj equal round(random(v_ntop0,6984,234897))
variable      randatomj equal ${randnj}
variable      randatomj equal 5963
variable      randzj equal z[${randatomj}]
variable      randzj equal z[5963]
if            "${randzj} < $(v_wthick - 0.7)" then "jump MDPBB.in loopj"
set           atom ${randatomj} type 4
set           atom 5963 type 4
  1 settings made for type
group         bwg id ${randatomj}                         # Add this atom to a bot-wall-grafted group
group         bwg id 5963                         
38 atoms in group bwg
variable      bwgcount equal count(bwg)
print         "bwg contains ${bwgcount}"
bwg contains 38
print         "j = $(v_j)"
j = 39
variable      x0 equal x[${randatomj}]
variable      x0 equal x[5963]
variable      y0 equal y[${randatomj}]
variable      y0 equal y[5963]
variable      check0 equal ${check}
variable      check0 equal 8124
variable      b equal ${check}+1
variable      b equal 8124+1
if            "${bwgcount} != $(v_j)" then "jump MDPBB.in loopj"
jump MDPBB.in loopj
variable      randnj equal round(random(v_ntop0,$(v_ntop0 + v_nbwall0),$s))
variable      randnj equal round(random(v_ntop0,6984,$s))
variable      randnj equal round(random(v_ntop0,6984,234897))
variable      randatomj equal ${randnj}
variable      randatomj equal 6888
variable      randzj equal z[${randatomj}]
variable      randzj equal z[6888]
if            "${randzj} < $(v_wthick - 0.7)" then "jump MDPBB.in loopj"
set           atom ${randatomj} type 4
set           atom 6888 type 4
  1 settings made for type
group         bwg id ${randatomj}                         # Add this atom to a bot-wall-grafted group
group         bwg id 6888                         
39 atoms in group bwg
variable      bwgcount equal count(bwg)
print         "bwg contains ${bwgcount}"
bwg contains 39
print         "j = $(v_j)"
j = 39
variable      x0 equal x[${randatomj}]
variable      x0 equal x[6888]
variable      y0 equal y[${randatomj}]
variable      y0 equal y[6888]
variable      check0 equal ${check}
variable      check0 equal 8124
variable      b equal ${check}+1
variable      b equal 8124+1
if            "${bwgcount} != $(v_j)" then "jump MDPBB.in loopj"
create_atoms  1 single ${x0} ${y0} ${z0} mol bs 24987 units box remap yes rotate 0 0 0 1
create_atoms  1 single 17.4614115716502 ${y0} ${z0} mol bs 24987 units box remap yes rotate 0 0 0 1
create_atoms  1 single 17.4614115716502 26.1921173574753 ${z0} mol bs 24987 units box remap yes rotate 0 0 0 1
create_atoms  1 single 17.4614115716502 26.1921173574753 17 mol bs 24987 units box remap yes rotate 0 0 0 1
Created 30 atoms
  create_atoms CPU = 0.0001584 secs
variable      check1 equal ${check}
variable      check1 equal 8154
if            "${check1} != ${check0}" then "create_bonds  single/bond 2 ${randatomj} $b" "next j"
create_bonds  single/bond 2 ${randatomj} $b
create_bonds  single/bond 2 6888 $b
create_bonds  single/bond 2 6888 8125
  2 = max # of 1-2 neighbors
  5 = max # of special neighbors
  special bonds CPU = 0.0109411 secs
next j
jump MDPBB.in loopj
variable      randnj equal round(random(v_ntop0,$(v_ntop0 + v_nbwall0),$s))
variable      randnj equal round(random(v_ntop0,6984,$s))
variable      randnj equal round(random(v_ntop0,6984,234897))
variable      randatomj equal ${randnj}
variable      randatomj equal 6535
variable      randzj equal z[${randatomj}]
variable      randzj equal z[6535]
if            "${randzj} < $(v_wthick - 0.7)" then "jump MDPBB.in loopj"
set           atom ${randatomj} type 4
set           atom 6535 type 4
  1 settings made for type
group         bwg id ${randatomj}                         # Add this atom to a bot-wall-grafted group
group         bwg id 6535                         
40 atoms in group bwg
variable      bwgcount equal count(bwg)
print         "bwg contains ${bwgcount}"
bwg contains 40
print         "j = $(v_j)"
j = 40
variable      x0 equal x[${randatomj}]
variable      x0 equal x[6535]
variable      y0 equal y[${randatomj}]
variable      y0 equal y[6535]
variable      check0 equal ${check}
variable      check0 equal 8154
variable      b equal ${check}+1
variable      b equal 8154+1
if            "${bwgcount} != $(v_j)" then "jump MDPBB.in loopj"
create_atoms  1 single ${x0} ${y0} ${z0} mol bs 24987 units box remap yes rotate 0 0 0 1
create_atoms  1 single 21.4299142015707 ${y0} ${z0} mol bs 24987 units box remap yes rotate 0 0 0 1
create_atoms  1 single 21.4299142015707 17.4614115716502 ${z0} mol bs 24987 units box remap yes rotate 0 0 0 1
create_atoms  1 single 21.4299142015707 17.4614115716502 17 mol bs 24987 units box remap yes rotate 0 0 0 1
Created 30 atoms
  create_atoms CPU = 0.0002465 secs
variable      check1 equal ${check}
variable      check1 equal 8184
if            "${check1} != ${check0}" then "create_bonds  single/bond 2 ${randatomj} $b" "next j"
create_bonds  single/bond 2 ${randatomj} $b
create_bonds  single/bond 2 6535 $b
create_bonds  single/bond 2 6535 8155
  2 = max # of 1-2 neighbors
  5 = max # of special neighbors
  special bonds CPU = 0.0045965 secs
next j
jump MDPBB.in loopj
variable      randnj equal round(random(v_ntop0,$(v_ntop0 + v_nbwall0),$s))
variable      randnj equal round(random(v_ntop0,6984,$s))
variable      randnj equal round(random(v_ntop0,6984,234897))
variable      randatomj equal ${randnj}
variable      randatomj equal 4898
variable      randzj equal z[${randatomj}]
variable      randzj equal z[4898]
if            "${randzj} < $(v_wthick - 0.7)" then "jump MDPBB.in loopj"
jump MDPBB.in loopj
variable      randnj equal round(random(v_ntop0,$(v_ntop0 + v_nbwall0),$s))
variable      randnj equal round(random(v_ntop0,6984,$s))
variable      randnj equal round(random(v_ntop0,6984,234897))
variable      randatomj equal ${randnj}
variable      randatomj equal 6120
variable      randzj equal z[${randatomj}]
variable      randzj equal z[6120]
if            "${randzj} < $(v_wthick - 0.7)" then "jump MDPBB.in loopj"
set           atom ${randatomj} type 4
set           atom 6120 type 4
  1 settings made for type
group         bwg id ${randatomj}                         # Add this atom to a bot-wall-grafted group
group         bwg id 6120                         
41 atoms in group bwg
variable      bwgcount equal count(bwg)
print         "bwg contains ${bwgcount}"
bwg contains 41
print         "j = $(v_j)"
j = 41
variable      x0 equal x[${randatomj}]
variable      x0 equal x[6120]
variable      y0 equal y[${randatomj}]
variable      y0 equal y[6120]
variable      check0 equal ${check}
variable      check0 equal 8184
variable      b equal ${check}+1
variable      b equal 8184+1
if            "${bwgcount} != $(v_j)" then "jump MDPBB.in loopj"
create_atoms  1 single ${x0} ${y0} ${z0} mol bs 24987 units box remap yes rotate 0 0 0 1
create_atoms  1 single 26.9858178834594 ${y0} ${z0} mol bs 24987 units box remap yes rotate 0 0 0 1
create_atoms  1 single 26.9858178834594 8.7307057858251 ${z0} mol bs 24987 units box remap yes rotate 0 0 0 1
create_atoms  1 single 26.9858178834594 8.7307057858251 17 mol bs 24987 units box remap yes rotate 0 0 0 1
Created 30 atoms
  create_atoms CPU = 0.000289 secs
variable      check1 equal ${check}
variable      check1 equal 8214
if            "${check1} != ${check0}" then "create_bonds  single/bond 2 ${randatomj} $b" "next j"
create_bonds  single/bond 2 ${randatomj} $b
create_bonds  single/bond 2 6120 $b
create_bonds  single/bond 2 6120 8185
  2 = max # of 1-2 neighbors
  5 = max # of special neighbors
  special bonds CPU = 0.0028606 secs
next j
jump MDPBB.in loopj
variable      randnj equal round(random(v_ntop0,$(v_ntop0 + v_nbwall0),$s))
variable      randnj equal round(random(v_ntop0,6984,$s))
variable      randnj equal round(random(v_ntop0,6984,234897))
variable      randatomj equal ${randnj}
variable      randatomj equal 6003
variable      randzj equal z[${randatomj}]
variable      randzj equal z[6003]
if            "${randzj} < $(v_wthick - 0.7)" then "jump MDPBB.in loopj"
set           atom ${randatomj} type 4
set           atom 6003 type 4
  1 settings made for type
group         bwg id ${randatomj}                         # Add this atom to a bot-wall-grafted group
group         bwg id 6003                         
42 atoms in group bwg
variable      bwgcount equal count(bwg)
print         "bwg contains ${bwgcount}"
bwg contains 42
print         "j = $(v_j)"
j = 42
variable      x0 equal x[${randatomj}]
variable      x0 equal x[6003]
variable      y0 equal y[${randatomj}]
variable      y0 equal y[6003]
variable      check0 equal ${check}
variable      check0 equal 8214
variable      b equal ${check}+1
variable      b equal 8214+1
if            "${bwgcount} != $(v_j)" then "jump MDPBB.in loopj"
create_atoms  1 single ${x0} ${y0} ${z0} mol bs 24987 units box remap yes rotate 0 0 0 1
create_atoms  1 single 10.3181068377933 ${y0} ${z0} mol bs 24987 units box remap yes rotate 0 0 0 1
create_atoms  1 single 10.3181068377933 6.3496042078728 ${z0} mol bs 24987 units box remap yes rotate 0 0 0 1
create_atoms  1 single 10.3181068377933 6.3496042078728 17 mol bs 24987 units box remap yes rotate 0 0 0 1
Created 30 atoms
  create_atoms CPU = 0.0001676 secs
variable      check1 equal ${check}
variable      check1 equal 8244
if            "${check1} != ${check0}" then "create_bonds  single/bond 2 ${randatomj} $b" "next j"
create_bonds  single/bond 2 ${randatomj} $b
create_bonds  single/bond 2 6003 $b
create_bonds  single/bond 2 6003 8215
  2 = max # of 1-2 neighbors
  5 = max # of special neighbors
  special bonds CPU = 0.0040561 secs
next j
jump MDPBB.in loopj
variable      randnj equal round(random(v_ntop0,$(v_ntop0 + v_nbwall0),$s))
variable      randnj equal round(random(v_ntop0,6984,$s))
variable      randnj equal round(random(v_ntop0,6984,234897))
variable      randatomj equal ${randnj}
variable      randatomj equal 4598
variable      randzj equal z[${randatomj}]
variable      randzj equal z[4598]
if            "${randzj} < $(v_wthick - 0.7)" then "jump MDPBB.in loopj"
jump MDPBB.in loopj
variable      randnj equal round(random(v_ntop0,$(v_ntop0 + v_nbwall0),$s))
variable      randnj equal round(random(v_ntop0,6984,$s))
variable      randnj equal round(random(v_ntop0,6984,234897))
variable      randatomj equal ${randnj}
variable      randatomj equal 6402
variable      randzj equal z[${randatomj}]
variable      randzj equal z[6402]
if            "${randzj} < $(v_wthick - 0.7)" then "jump MDPBB.in loopj"
jump MDPBB.in loopj
variable      randnj equal round(random(v_ntop0,$(v_ntop0 + v_nbwall0),$s))
variable      randnj equal round(random(v_ntop0,6984,$s))
variable      randnj equal round(random(v_ntop0,6984,234897))
variable      randatomj equal ${randnj}
variable      randatomj equal 4976
variable      randzj equal z[${randatomj}]
variable      randzj equal z[4976]
if            "${randzj} < $(v_wthick - 0.7)" then "jump MDPBB.in loopj"
jump MDPBB.in loopj
variable      randnj equal round(random(v_ntop0,$(v_ntop0 + v_nbwall0),$s))
variable      randnj equal round(random(v_ntop0,6984,$s))
variable      randnj equal round(random(v_ntop0,6984,234897))
variable      randatomj equal ${randnj}
variable      randatomj equal 6855
variable      randzj equal z[${randatomj}]
variable      randzj equal z[6855]
if            "${randzj} < $(v_wthick - 0.7)" then "jump MDPBB.in loopj"
set           atom ${randatomj} type 4
set           atom 6855 type 4
  1 settings made for type
group         bwg id ${randatomj}                         # Add this atom to a bot-wall-grafted group
group         bwg id 6855                         
43 atoms in group bwg
variable      bwgcount equal count(bwg)
print         "bwg contains ${bwgcount}"
bwg contains 43
print         "j = $(v_j)"
j = 43
variable      x0 equal x[${randatomj}]
variable      x0 equal x[6855]
variable      y0 equal y[${randatomj}]
variable      y0 equal y[6855]
variable      check0 equal ${check}
variable      check0 equal 8244
variable      b equal ${check}+1
variable      b equal 8244+1
if            "${bwgcount} != $(v_j)" then "jump MDPBB.in loopj"
create_atoms  1 single ${x0} ${y0} ${z0} mol bs 24987 units box remap yes rotate 0 0 0 1
create_atoms  1 single 5.5559036818887 ${y0} ${z0} mol bs 24987 units box remap yes rotate 0 0 0 1
create_atoms  1 single 5.5559036818887 25.3984168314912 ${z0} mol bs 24987 units box remap yes rotate 0 0 0 1
create_atoms  1 single 5.5559036818887 25.3984168314912 17 mol bs 24987 units box remap yes rotate 0 0 0 1
Created 30 atoms
  create_atoms CPU = 0.0002377 secs
variable      check1 equal ${check}
variable      check1 equal 8274
if            "${check1} != ${check0}" then "create_bonds  single/bond 2 ${randatomj} $b" "next j"
create_bonds  single/bond 2 ${randatomj} $b
create_bonds  single/bond 2 6855 $b
create_bonds  single/bond 2 6855 8245
  2 = max # of 1-2 neighbors
  5 = max # of special neighbors
  special bonds CPU = 0.0064979 secs
next j
jump MDPBB.in loopj
variable      randnj equal round(random(v_ntop0,$(v_ntop0 + v_nbwall0),$s))
variable      randnj equal round(random(v_ntop0,6984,$s))
variable      randnj equal round(random(v_ntop0,6984,234897))
variable      randatomj equal ${randnj}
variable      randatomj equal 5694
variable      randzj equal z[${randatomj}]
variable      randzj equal z[5694]
if            "${randzj} < $(v_wthick - 0.7)" then "jump MDPBB.in loopj"
jump MDPBB.in loopj
variable      randnj equal round(random(v_ntop0,$(v_ntop0 + v_nbwall0),$s))
variable      randnj equal round(random(v_ntop0,6984,$s))
variable      randnj equal round(random(v_ntop0,6984,234897))
variable      randatomj equal ${randnj}
variable      randatomj equal 5510
variable      randzj equal z[${randatomj}]
variable      randzj equal z[5510]
if            "${randzj} < $(v_wthick - 0.7)" then "jump MDPBB.in loopj"
jump MDPBB.in loopj
variable      randnj equal round(random(v_ntop0,$(v_ntop0 + v_nbwall0),$s))
variable      randnj equal round(random(v_ntop0,6984,$s))
variable      randnj equal round(random(v_ntop0,6984,234897))
variable      randatomj equal ${randnj}
variable      randatomj equal 4864
variable      randzj equal z[${randatomj}]
variable      randzj equal z[4864]
if            "${randzj} < $(v_wthick - 0.7)" then "jump MDPBB.in loopj"
jump MDPBB.in loopj
variable      randnj equal round(random(v_ntop0,$(v_ntop0 + v_nbwall0),$s))
variable      randnj equal round(random(v_ntop0,6984,$s))
variable      randnj equal round(random(v_ntop0,6984,234897))
variable      randatomj equal ${randnj}
variable      randatomj equal 6159
variable      randzj equal z[${randatomj}]
variable      randzj equal z[6159]
if            "${randzj} < $(v_wthick - 0.7)" then "jump MDPBB.in loopj"
set           atom ${randatomj} type 4
set           atom 6159 type 4
  1 settings made for type
group         bwg id ${randatomj}                         # Add this atom to a bot-wall-grafted group
group         bwg id 6159                         
44 atoms in group bwg
variable      bwgcount equal count(bwg)
print         "bwg contains ${bwgcount}"
bwg contains 44
print         "j = $(v_j)"
j = 44
variable      x0 equal x[${randatomj}]
variable      x0 equal x[6159]
variable      y0 equal y[${randatomj}]
variable      y0 equal y[6159]
variable      check0 equal ${check}
variable      check0 equal 8274
variable      b equal ${check}+1
variable      b equal 8274+1
if            "${bwgcount} != $(v_j)" then "jump MDPBB.in loopj"
create_atoms  1 single ${x0} ${y0} ${z0} mol bs 24987 units box remap yes rotate 0 0 0 1
create_atoms  1 single 15.0803099936979 ${y0} ${z0} mol bs 24987 units box remap yes rotate 0 0 0 1
create_atoms  1 single 15.0803099936979 9.5244063118092 ${z0} mol bs 24987 units box remap yes rotate 0 0 0 1
create_atoms  1 single 15.0803099936979 9.5244063118092 17 mol bs 24987 units box remap yes rotate 0 0 0 1
Created 30 atoms
  create_atoms CPU = 0.0002502 secs
variable      check1 equal ${check}
variable      check1 equal 8304
if            "${check1} != ${check0}" then "create_bonds  single/bond 2 ${randatomj} $b" "next j"
create_bonds  single/bond 2 ${randatomj} $b
create_bonds  single/bond 2 6159 $b
create_bonds  single/bond 2 6159 8275
  2 = max # of 1-2 neighbors
  5 = max # of special neighbors
  special bonds CPU = 0.0028544 secs
next j
jump MDPBB.in loopj
variable      randnj equal round(random(v_ntop0,$(v_ntop0 + v_nbwall0),$s))
variable      randnj equal round(random(v_ntop0,6984,$s))
variable      randnj equal round(random(v_ntop0,6984,234897))
variable      randatomj equal ${randnj}
variable      randatomj equal 6926
variable      randzj equal z[${randatomj}]
variable      randzj equal z[6926]
if            "${randzj} < $(v_wthick - 0.7)" then "jump MDPBB.in loopj"
jump MDPBB.in loopj
variable      randnj equal round(random(v_ntop0,$(v_ntop0 + v_nbwall0),$s))
variable      randnj equal round(random(v_ntop0,6984,$s))
variable      randnj equal round(random(v_ntop0,6984,234897))
variable      randatomj equal ${randnj}
variable      randatomj equal 6871
variable      randzj equal z[${randatomj}]
variable      randzj equal z[6871]
if            "${randzj} < $(v_wthick - 0.7)" then "jump MDPBB.in loopj"
set           atom ${randatomj} type 4
set           atom 6871 type 4
  1 settings made for type
group         bwg id ${randatomj}                         # Add this atom to a bot-wall-grafted group
group         bwg id 6871                         
45 atoms in group bwg
variable      bwgcount equal count(bwg)
print         "bwg contains ${bwgcount}"
bwg contains 45
print         "j = $(v_j)"
j = 45
variable      x0 equal x[${randatomj}]
variable      x0 equal x[6871]
variable      y0 equal y[${randatomj}]
variable      y0 equal y[6871]
variable      check0 equal ${check}
variable      check0 equal 8304
variable      b equal ${check}+1
variable      b equal 8304+1
if            "${bwgcount} != $(v_j)" then "jump MDPBB.in loopj"
create_atoms  1 single ${x0} ${y0} ${z0} mol bs 24987 units box remap yes rotate 0 0 0 1
create_atoms  1 single 11.9055078897615 ${y0} ${z0} mol bs 24987 units box remap yes rotate 0 0 0 1
create_atoms  1 single 11.9055078897615 25.3984168314912 ${z0} mol bs 24987 units box remap yes rotate 0 0 0 1
create_atoms  1 single 11.9055078897615 25.3984168314912 17 mol bs 24987 units box remap yes rotate 0 0 0 1
Created 30 atoms
  create_atoms CPU = 0.0001638 secs
variable      check1 equal ${check}
variable      check1 equal 8334
if            "${check1} != ${check0}" then "create_bonds  single/bond 2 ${randatomj} $b" "next j"
create_bonds  single/bond 2 ${randatomj} $b
create_bonds  single/bond 2 6871 $b
create_bonds  single/bond 2 6871 8305
  2 = max # of 1-2 neighbors
  5 = max # of special neighbors
  special bonds CPU = 0.003822 secs
next j
jump MDPBB.in loopj
variable      randnj equal round(random(v_ntop0,$(v_ntop0 + v_nbwall0),$s))
variable      randnj equal round(random(v_ntop0,6984,$s))
variable      randnj equal round(random(v_ntop0,6984,234897))
variable      randatomj equal ${randnj}
variable      randatomj equal 5949
variable      randzj equal z[${randatomj}]
variable      randzj equal z[5949]
if            "${randzj} < $(v_wthick - 0.7)" then "jump MDPBB.in loopj"
jump MDPBB.in loopj
variable      randnj equal round(random(v_ntop0,$(v_ntop0 + v_nbwall0),$s))
variable      randnj equal round(random(v_ntop0,6984,$s))
variable      randnj equal round(random(v_ntop0,6984,234897))
variable      randatomj equal ${randnj}
variable      randatomj equal 6820
variable      randzj equal z[${randatomj}]
variable      randzj equal z[6820]
if            "${randzj} < $(v_wthick - 0.7)" then "jump MDPBB.in loopj"
set           atom ${randatomj} type 4
set           atom 6820 type 4
  1 settings made for type
group         bwg id ${randatomj}                         # Add this atom to a bot-wall-grafted group
group         bwg id 6820                         
46 atoms in group bwg
variable      bwgcount equal count(bwg)
print         "bwg contains ${bwgcount}"
bwg contains 46
print         "j = $(v_j)"
j = 46
variable      x0 equal x[${randatomj}]
variable      x0 equal x[6820]
variable      y0 equal y[${randatomj}]
variable      y0 equal y[6820]
variable      check0 equal ${check}
variable      check0 equal 8334
variable      b equal ${check}+1
variable      b equal 8334+1
if            "${bwgcount} != $(v_j)" then "jump MDPBB.in loopj"
create_atoms  1 single ${x0} ${y0} ${z0} mol bs 24987 units box remap yes rotate 0 0 0 1
create_atoms  1 single 19.0488126236184 ${y0} ${z0} mol bs 24987 units box remap yes rotate 0 0 0 1
create_atoms  1 single 19.0488126236184 24.6047163055071 ${z0} mol bs 24987 units box remap yes rotate 0 0 0 1
create_atoms  1 single 19.0488126236184 24.6047163055071 17 mol bs 24987 units box remap yes rotate 0 0 0 1
Created 30 atoms
  create_atoms CPU = 0.0002451 secs
variable      check1 equal ${check}
variable      check1 equal 8364
if            "${check1} != ${check0}" then "create_bonds  single/bond 2 ${randatomj} $b" "next j"
create_bonds  single/bond 2 ${randatomj} $b
create_bonds  single/bond 2 6820 $b
create_bonds  single/bond 2 6820 8335
  2 = max # of 1-2 neighbors
  5 = max # of special neighbors
  special bonds CPU = 0.0044103 secs
next j
jump MDPBB.in loopj
variable      randnj equal round(random(v_ntop0,$(v_ntop0 + v_nbwall0),$s))
variable      randnj equal round(random(v_ntop0,6984,$s))
variable      randnj equal round(random(v_ntop0,6984,234897))
variable      randatomj equal ${randnj}
variable      randatomj equal 6613
variable      randzj equal z[${randatomj}]
variable      randzj equal z[6613]
if            "${randzj} < $(v_wthick - 0.7)" then "jump MDPBB.in loopj"
jump MDPBB.in loopj
variable      randnj equal round(random(v_ntop0,$(v_ntop0 + v_nbwall0),$s))
variable      randnj equal round(random(v_ntop0,6984,$s))
variable      randnj equal round(random(v_ntop0,6984,234897))
variable      randatomj equal ${randnj}
variable      randatomj equal 6354
variable      randzj equal z[${randatomj}]
variable      randzj equal z[6354]
if            "${randzj} < $(v_wthick - 0.7)" then "jump MDPBB.in loopj"
jump MDPBB.in loopj
variable      randnj equal round(random(v_ntop0,$(v_ntop0 + v_nbwall0),$s))
variable      randnj equal round(random(v_ntop0,6984,$s))
variable      randnj equal round(random(v_ntop0,6984,234897))
variable      randatomj equal ${randnj}
variable      randatomj equal 4510
variable      randzj equal z[${randatomj}]
variable      randzj equal z[4510]
if            "${randzj} < $(v_wthick - 0.7)" then "jump MDPBB.in loopj"
jump MDPBB.in loopj
variable      randnj equal round(random(v_ntop0,$(v_ntop0 + v_nbwall0),$s))
variable      randnj equal round(random(v_ntop0,6984,$s))
variable      randnj equal round(random(v_ntop0,6984,234897))
variable      randatomj equal ${randnj}
variable      randatomj equal 5695
variable      randzj equal z[${randatomj}]
variable      randzj equal z[5695]
if            "${randzj} < $(v_wthick - 0.7)" then "jump MDPBB.in loopj"
set           atom ${randatomj} type 4
set           atom 5695 type 4
  1 settings made for type
group         bwg id ${randatomj}                         # Add this atom to a bot-wall-grafted group
group         bwg id 5695                         
47 atoms in group bwg
variable      bwgcount equal count(bwg)
print         "bwg contains ${bwgcount}"
bwg contains 47
print         "j = $(v_j)"
j = 47
variable      x0 equal x[${randatomj}]
variable      x0 equal x[5695]
variable      y0 equal y[${randatomj}]
variable      y0 equal y[5695]
variable      check0 equal ${check}
variable      check0 equal 8364
variable      b equal ${check}+1
variable      b equal 8364+1
if            "${bwgcount} != $(v_j)" then "jump MDPBB.in loopj"
create_atoms  1 single ${x0} ${y0} ${z0} mol bs 24987 units box remap yes rotate 0 0 0 1
create_atoms  1 single 2.3811015779523 ${y0} ${z0} mol bs 24987 units box remap yes rotate 0 0 0 1
create_atoms  1 single 2.3811015779523 0 ${z0} mol bs 24987 units box remap yes rotate 0 0 0 1
create_atoms  1 single 2.3811015779523 0 17 mol bs 24987 units box remap yes rotate 0 0 0 1
Created 30 atoms
  create_atoms CPU = 0.0002505 secs
variable      check1 equal ${check}
variable      check1 equal 8394
if            "${check1} != ${check0}" then "create_bonds  single/bond 2 ${randatomj} $b" "next j"
create_bonds  single/bond 2 ${randatomj} $b
create_bonds  single/bond 2 5695 $b
create_bonds  single/bond 2 5695 8365
  2 = max # of 1-2 neighbors
  5 = max # of special neighbors
  special bonds CPU = 0.0061635 secs
next j
jump MDPBB.in loopj
variable      randnj equal round(random(v_ntop0,$(v_ntop0 + v_nbwall0),$s))
variable      randnj equal round(random(v_ntop0,6984,$s))
variable      randnj equal round(random(v_ntop0,6984,234897))
variable      randatomj equal ${randnj}
variable      randatomj equal 5254
variable      randzj equal z[${randatomj}]
variable      randzj equal z[5254]
if            "${randzj} < $(v_wthick - 0.7)" then "jump MDPBB.in loopj"
jump MDPBB.in loopj
variable      randnj equal round(random(v_ntop0,$(v_ntop0 + v_nbwall0),$s))
variable      randnj equal round(random(v_ntop0,6984,$s))
variable      randnj equal round(random(v_ntop0,6984,234897))
variable      randatomj equal ${randnj}
variable      randatomj equal 4882
variable      randzj equal z[${randatomj}]
variable      randzj equal z[4882]
if            "${randzj} < $(v_wthick - 0.7)" then "jump MDPBB.in loopj"
jump MDPBB.in loopj
variable      randnj equal round(random(v_ntop0,$(v_ntop0 + v_nbwall0),$s))
variable      randnj equal round(random(v_ntop0,6984,$s))
variable      randnj equal round(random(v_ntop0,6984,234897))
variable      randatomj equal ${randnj}
variable      randatomj equal 6184
variable      randzj equal z[${randatomj}]
variable      randzj equal z[6184]
if            "${randzj} < $(v_wthick - 0.7)" then "jump MDPBB.in loopj"
set           atom ${randatomj} type 4
set           atom 6184 type 4
  1 settings made for type
group         bwg id ${randatomj}                         # Add this atom to a bot-wall-grafted group
group         bwg id 6184                         
48 atoms in group bwg
variable      bwgcount equal count(bwg)
print         "bwg contains ${bwgcount}"
bwg contains 48
print         "j = $(v_j)"
j = 48
variable      x0 equal x[${randatomj}]
variable      x0 equal x[6184]
variable      y0 equal y[${randatomj}]
variable      y0 equal y[6184]
variable      check0 equal ${check}
variable      check0 equal 8394
variable      b equal ${check}+1
variable      b equal 8394+1
if            "${bwgcount} != $(v_j)" then "jump MDPBB.in loopj"
create_atoms  1 single ${x0} ${y0} ${z0} mol bs 24987 units box remap yes rotate 0 0 0 1
create_atoms  1 single 23.811015779523 ${y0} ${z0} mol bs 24987 units box remap yes rotate 0 0 0 1
create_atoms  1 single 23.811015779523 10.3181068377933 ${z0} mol bs 24987 units box remap yes rotate 0 0 0 1
create_atoms  1 single 23.811015779523 10.3181068377933 17 mol bs 24987 units box remap yes rotate 0 0 0 1
Created 30 atoms
  create_atoms CPU = 0.000188 secs
variable      check1 equal ${check}
variable      check1 equal 8424
if            "${check1} != ${check0}" then "create_bonds  single/bond 2 ${randatomj} $b" "next j"
create_bonds  single/bond 2 ${randatomj} $b
create_bonds  single/bond 2 6184 $b
create_bonds  single/bond 2 6184 8395
  2 = max # of 1-2 neighbors
  5 = max # of special neighbors
  special bonds CPU = 0.0047611 secs
next j
jump MDPBB.in loopj
variable      randnj equal round(random(v_ntop0,$(v_ntop0 + v_nbwall0),$s))
variable      randnj equal round(random(v_ntop0,6984,$s))
variable      randnj equal round(random(v_ntop0,6984,234897))
variable      randatomj equal ${randnj}
variable      randatomj equal 5992
variable      randzj equal z[${randatomj}]
variable      randzj equal z[5992]
if            "${randzj} < $(v_wthick - 0.7)" then "jump MDPBB.in loopj"
set           atom ${randatomj} type 4
set           atom 5992 type 4
  1 settings made for type
group         bwg id ${randatomj}                         # Add this atom to a bot-wall-grafted group
group         bwg id 5992                         
49 atoms in group bwg
variable      bwgcount equal count(bwg)
print         "bwg contains ${bwgcount}"
bwg contains 49
print         "j = $(v_j)"
j = 49
variable      x0 equal x[${randatomj}]
variable      x0 equal x[5992]
variable      y0 equal y[${randatomj}]
variable      y0 equal y[5992]
variable      check0 equal ${check}
variable      check0 equal 8424
variable      b equal ${check}+1
variable      b equal 8424+1
if            "${bwgcount} != $(v_j)" then "jump MDPBB.in loopj"
create_atoms  1 single ${x0} ${y0} ${z0} mol bs 24987 units box remap yes rotate 0 0 0 1
create_atoms  1 single 4.7622031559046 ${y0} ${z0} mol bs 24987 units box remap yes rotate 0 0 0 1
create_atoms  1 single 4.7622031559046 7.1433047338569 ${z0} mol bs 24987 units box remap yes rotate 0 0 0 1
create_atoms  1 single 4.7622031559046 7.1433047338569 17 mol bs 24987 units box remap yes rotate 0 0 0 1
Created 30 atoms
  create_atoms CPU = 0.0001884 secs
variable      check1 equal ${check}
variable      check1 equal 8454
if            "${check1} != ${check0}" then "create_bonds  single/bond 2 ${randatomj} $b" "next j"
create_bonds  single/bond 2 ${randatomj} $b
create_bonds  single/bond 2 5992 $b
create_bonds  single/bond 2 5992 8425
  2 = max # of 1-2 neighbors
  5 = max # of special neighbors
  special bonds CPU = 0.0036846 secs
next j
jump MDPBB.in loopj
variable      randnj equal round(random(v_ntop0,$(v_ntop0 + v_nbwall0),$s))
variable      randnj equal round(random(v_ntop0,6984,$s))
variable      randnj equal round(random(v_ntop0,6984,234897))
variable      randatomj equal ${randnj}
variable      randatomj equal 4794
variable      randzj equal z[${randatomj}]
variable      randzj equal z[4794]
if            "${randzj} < $(v_wthick - 0.7)" then "jump MDPBB.in loopj"
jump MDPBB.in loopj
variable      randnj equal round(random(v_ntop0,$(v_ntop0 + v_nbwall0),$s))
variable      randnj equal round(random(v_ntop0,6984,$s))
variable      randnj equal round(random(v_ntop0,6984,234897))
variable      randatomj equal ${randnj}
variable      randatomj equal 6824
variable      randzj equal z[${randatomj}]
variable      randzj equal z[6824]
if            "${randzj} < $(v_wthick - 0.7)" then "jump MDPBB.in loopj"
set           atom ${randatomj} type 4
set           atom 6824 type 4
  1 settings made for type
group         bwg id ${randatomj}                         # Add this atom to a bot-wall-grafted group
group         bwg id 6824                         
50 atoms in group bwg
variable      bwgcount equal count(bwg)
print         "bwg contains ${bwgcount}"
bwg contains 50
print         "j = $(v_j)"
j = 50
variable      x0 equal x[${randatomj}]
variable      x0 equal x[6824]
variable      y0 equal y[${randatomj}]
variable      y0 equal y[6824]
variable      check0 equal ${check}
variable      check0 equal 8454
variable      b equal ${check}+1
variable      b equal 8454+1
if            "${bwgcount} != $(v_j)" then "jump MDPBB.in loopj"
create_atoms  1 single ${x0} ${y0} ${z0} mol bs 24987 units box remap yes rotate 0 0 0 1
create_atoms  1 single 20.6362136755866 ${y0} ${z0} mol bs 24987 units box remap yes rotate 0 0 0 1
create_atoms  1 single 20.6362136755866 24.6047163055071 ${z0} mol bs 24987 units box remap yes rotate 0 0 0 1
create_atoms  1 single 20.6362136755866 24.6047163055071 17 mol bs 24987 units box remap yes rotate 0 0 0 1
Created 30 atoms
  create_atoms CPU = 0.0001899 secs
variable      check1 equal ${check}
variable      check1 equal 8484
if            "${check1} != ${check0}" then "create_bonds  single/bond 2 ${randatomj} $b" "next j"
create_bonds  single/bond 2 ${randatomj} $b
create_bonds  single/bond 2 6824 $b
create_bonds  single/bond 2 6824 8455
  2 = max # of 1-2 neighbors
  5 = max # of special neighbors
  special bonds CPU = 0.0044286 secs
next j
jump MDPBB.in loopj
variable      randnj equal round(random(v_ntop0,$(v_ntop0 + v_nbwall0),$s))
variable      randnj equal round(random(v_ntop0,6984,$s))
variable      randnj equal round(random(v_ntop0,6984,234897))
variable      randatomj equal ${randnj}
variable      randatomj equal 6718
variable      randzj equal z[${randatomj}]
variable      randzj equal z[6718]
if            "${randzj} < $(v_wthick - 0.7)" then "jump MDPBB.in loopj"
jump MDPBB.in loopj
variable      randnj equal round(random(v_ntop0,$(v_ntop0 + v_nbwall0),$s))
variable      randnj equal round(random(v_ntop0,6984,$s))
variable      randnj equal round(random(v_ntop0,6984,234897))
variable      randatomj equal ${randnj}
variable      randatomj equal 4584
variable      randzj equal z[${randatomj}]
variable      randzj equal z[4584]
if            "${randzj} < $(v_wthick - 0.7)" then "jump MDPBB.in loopj"
jump MDPBB.in loopj
variable      randnj equal round(random(v_ntop0,$(v_ntop0 + v_nbwall0),$s))
variable      randnj equal round(random(v_ntop0,6984,$s))
variable      randnj equal round(random(v_ntop0,6984,234897))
variable      randatomj equal ${randnj}
variable      randatomj equal 5752
variable      randzj equal z[${randatomj}]
variable      randzj equal z[5752]
if            "${randzj} < $(v_wthick - 0.7)" then "jump MDPBB.in loopj"
set           atom ${randatomj} type 4
set           atom 5752 type 4
  1 settings made for type
group         bwg id ${randatomj}                         # Add this atom to a bot-wall-grafted group
group         bwg id 5752                         
51 atoms in group bwg
variable      bwgcount equal count(bwg)
print         "bwg contains ${bwgcount}"
bwg contains 51
print         "j = $(v_j)"
j = 51
variable      x0 equal x[${randatomj}]
variable      x0 equal x[5752]
variable      y0 equal y[${randatomj}]
variable      y0 equal y[5752]
variable      check0 equal ${check}
variable      check0 equal 8484
variable      b equal ${check}+1
variable      b equal 8484+1
if            "${bwgcount} != $(v_j)" then "jump MDPBB.in loopj"
create_atoms  1 single ${x0} ${y0} ${z0} mol bs 24987 units box remap yes rotate 0 0 0 1
create_atoms  1 single 23.811015779523 ${y0} ${z0} mol bs 24987 units box remap yes rotate 0 0 0 1
create_atoms  1 single 23.811015779523 0.7937005259841 ${z0} mol bs 24987 units box remap yes rotate 0 0 0 1
create_atoms  1 single 23.811015779523 0.7937005259841 17 mol bs 24987 units box remap yes rotate 0 0 0 1
Created 30 atoms
  create_atoms CPU = 0.0001636 secs
variable      check1 equal ${check}
variable      check1 equal 8514
if            "${check1} != ${check0}" then "create_bonds  single/bond 2 ${randatomj} $b" "next j"
create_bonds  single/bond 2 ${randatomj} $b
create_bonds  single/bond 2 5752 $b
create_bonds  single/bond 2 5752 8485
  2 = max # of 1-2 neighbors
  5 = max # of special neighbors
  special bonds CPU = 0.0057787 secs
next j
jump MDPBB.in loopj
variable      randnj equal round(random(v_ntop0,$(v_ntop0 + v_nbwall0),$s))
variable      randnj equal round(random(v_ntop0,6984,$s))
variable      randnj equal round(random(v_ntop0,6984,234897))
variable      randatomj equal ${randnj}
variable      randatomj equal 4916
variable      randzj equal z[${randatomj}]
variable      randzj equal z[4916]
if            "${randzj} < $(v_wthick - 0.7)" then "jump MDPBB.in loopj"
jump MDPBB.in loopj
variable      randnj equal round(random(v_ntop0,$(v_ntop0 + v_nbwall0),$s))
variable      randnj equal round(random(v_ntop0,6984,$s))
variable      randnj equal round(random(v_ntop0,6984,234897))
variable      randatomj equal ${randnj}
variable      randatomj equal 5111
variable      randzj equal z[${randatomj}]
variable      randzj equal z[5111]
if            "${randzj} < $(v_wthick - 0.7)" then "jump MDPBB.in loopj"
jump MDPBB.in loopj
variable      randnj equal round(random(v_ntop0,$(v_ntop0 + v_nbwall0),$s))
variable      randnj equal round(random(v_ntop0,6984,$s))
variable      randnj equal round(random(v_ntop0,6984,234897))
variable      randatomj equal ${randnj}
variable      randatomj equal 4777
variable      randzj equal z[${randatomj}]
variable      randzj equal z[4777]
if            "${randzj} < $(v_wthick - 0.7)" then "jump MDPBB.in loopj"
jump MDPBB.in loopj
variable      randnj equal round(random(v_ntop0,$(v_ntop0 + v_nbwall0),$s))
variable      randnj equal round(random(v_ntop0,6984,$s))
variable      randnj equal round(random(v_ntop0,6984,234897))
variable      randatomj equal ${randnj}
variable      randatomj equal 6815
variable      randzj equal z[${randatomj}]
variable      randzj equal z[6815]
if            "${randzj} < $(v_wthick - 0.7)" then "jump MDPBB.in loopj"
set           atom ${randatomj} type 4
set           atom 6815 type 4
  1 settings made for type
group         bwg id ${randatomj}                         # Add this atom to a bot-wall-grafted group
group         bwg id 6815                         
52 atoms in group bwg
variable      bwgcount equal count(bwg)
print         "bwg contains ${bwgcount}"
bwg contains 52
print         "j = $(v_j)"
j = 52
variable      x0 equal x[${randatomj}]
variable      x0 equal x[6815]
variable      y0 equal y[${randatomj}]
variable      y0 equal y[6815]
variable      check0 equal ${check}
variable      check0 equal 8514
variable      b equal ${check}+1
variable      b equal 8514+1
if            "${bwgcount} != $(v_j)" then "jump MDPBB.in loopj"
create_atoms  1 single ${x0} ${y0} ${z0} mol bs 24987 units box remap yes rotate 0 0 0 1
create_atoms  1 single 18.2551120976343 ${y0} ${z0} mol bs 24987 units box remap yes rotate 0 0 0 1
create_atoms  1 single 18.2551120976343 23.811015779523 ${z0} mol bs 24987 units box remap yes rotate 0 0 0 1
create_atoms  1 single 18.2551120976343 23.811015779523 17 mol bs 24987 units box remap yes rotate 0 0 0 1
Created 30 atoms
  create_atoms CPU = 0.0001989 secs
variable      check1 equal ${check}
variable      check1 equal 8544
if            "${check1} != ${check0}" then "create_bonds  single/bond 2 ${randatomj} $b" "next j"
create_bonds  single/bond 2 ${randatomj} $b
create_bonds  single/bond 2 6815 $b
create_bonds  single/bond 2 6815 8515
  2 = max # of 1-2 neighbors
  5 = max # of special neighbors
  special bonds CPU = 0.0027707 secs
next j
jump MDPBB.in loopj
variable      randnj equal round(random(v_ntop0,$(v_ntop0 + v_nbwall0),$s))
variable      randnj equal round(random(v_ntop0,6984,$s))
variable      randnj equal round(random(v_ntop0,6984,234897))
variable      randatomj equal ${randnj}
variable      randatomj equal 5358
variable      randzj equal z[${randatomj}]
variable      randzj equal z[5358]
if            "${randzj} < $(v_wthick - 0.7)" then "jump MDPBB.in loopj"
jump MDPBB.in loopj
variable      randnj equal round(random(v_ntop0,$(v_ntop0 + v_nbwall0),$s))
variable      randnj equal round(random(v_ntop0,6984,$s))
variable      randnj equal round(random(v_ntop0,6984,234897))
variable      randatomj equal ${randnj}
variable      randatomj equal 5127
variable      randzj equal z[${randatomj}]
variable      randzj equal z[5127]
if            "${randzj} < $(v_wthick - 0.7)" then "jump MDPBB.in loopj"
jump MDPBB.in loopj
variable      randnj equal round(random(v_ntop0,$(v_ntop0 + v_nbwall0),$s))
variable      randnj equal round(random(v_ntop0,6984,$s))
variable      randnj equal round(random(v_ntop0,6984,234897))
variable      randatomj equal ${randnj}
variable      randatomj equal 5945
variable      randzj equal z[${randatomj}]
variable      randzj equal z[5945]
if            "${randzj} < $(v_wthick - 0.7)" then "jump MDPBB.in loopj"
jump MDPBB.in loopj
variable      randnj equal round(random(v_ntop0,$(v_ntop0 + v_nbwall0),$s))
variable      randnj equal round(random(v_ntop0,6984,$s))
variable      randnj equal round(random(v_ntop0,6984,234897))
variable      randatomj equal ${randnj}
variable      randatomj equal 5888
variable      randzj equal z[${randatomj}]
variable      randzj equal z[5888]
if            "${randzj} < $(v_wthick - 0.7)" then "jump MDPBB.in loopj"
set           atom ${randatomj} type 4
set           atom 5888 type 4
  1 settings made for type
group         bwg id ${randatomj}                         # Add this atom to a bot-wall-grafted group
group         bwg id 5888                         
53 atoms in group bwg
variable      bwgcount equal count(bwg)
print         "bwg contains ${bwgcount}"
bwg contains 53
print         "j = $(v_j)"
j = 53
variable      x0 equal x[${randatomj}]
variable      x0 equal x[5888]
variable      y0 equal y[${randatomj}]
variable      y0 equal y[5888]
variable      check0 equal ${check}
variable      check0 equal 8544
variable      b equal ${check}+1
variable      b equal 8544+1
if            "${bwgcount} != $(v_j)" then "jump MDPBB.in loopj"
create_atoms  1 single ${x0} ${y0} ${z0} mol bs 24987 units box remap yes rotate 0 0 0 1
create_atoms  1 single 20.6362136755866 ${y0} ${z0} mol bs 24987 units box remap yes rotate 0 0 0 1
create_atoms  1 single 20.6362136755866 3.9685026299205 ${z0} mol bs 24987 units box remap yes rotate 0 0 0 1
create_atoms  1 single 20.6362136755866 3.9685026299205 17 mol bs 24987 units box remap yes rotate 0 0 0 1
Created 30 atoms
  create_atoms CPU = 0.000176 secs
variable      check1 equal ${check}
variable      check1 equal 8574
if            "${check1} != ${check0}" then "create_bonds  single/bond 2 ${randatomj} $b" "next j"
create_bonds  single/bond 2 ${randatomj} $b
create_bonds  single/bond 2 5888 $b
create_bonds  single/bond 2 5888 8545
  2 = max # of 1-2 neighbors
  5 = max # of special neighbors
  special bonds CPU = 0.0030893 secs
next j
jump MDPBB.in loopj
variable      randnj equal round(random(v_ntop0,$(v_ntop0 + v_nbwall0),$s))
variable      randnj equal round(random(v_ntop0,6984,$s))
variable      randnj equal round(random(v_ntop0,6984,234897))
variable      randatomj equal ${randnj}
variable      randatomj equal 6748
variable      randzj equal z[${randatomj}]
variable      randzj equal z[6748]
if            "${randzj} < $(v_wthick - 0.7)" then "jump MDPBB.in loopj"
set           atom ${randatomj} type 4
set           atom 6748 type 4
  1 settings made for type
group         bwg id ${randatomj}                         # Add this atom to a bot-wall-grafted group
group         bwg id 6748                         
54 atoms in group bwg
variable      bwgcount equal count(bwg)
print         "bwg contains ${bwgcount}"
bwg contains 54
print         "j = $(v_j)"
j = 54
variable      x0 equal x[${randatomj}]
variable      x0 equal x[6748]
variable      y0 equal y[${randatomj}]
variable      y0 equal y[6748]
variable      check0 equal ${check}
variable      check0 equal 8574
variable      b equal ${check}+1
variable      b equal 8574+1
if            "${bwgcount} != $(v_j)" then "jump MDPBB.in loopj"
create_atoms  1 single ${x0} ${y0} ${z0} mol bs 24987 units box remap yes rotate 0 0 0 1
create_atoms  1 single 19.0488126236184 ${y0} ${z0} mol bs 24987 units box remap yes rotate 0 0 0 1
create_atoms  1 single 19.0488126236184 23.0173152535389 ${z0} mol bs 24987 units box remap yes rotate 0 0 0 1
create_atoms  1 single 19.0488126236184 23.0173152535389 17 mol bs 24987 units box remap yes rotate 0 0 0 1
Created 30 atoms
  create_atoms CPU = 0.0001939 secs
variable      check1 equal ${check}
variable      check1 equal 8604
if            "${check1} != ${check0}" then "create_bonds  single/bond 2 ${randatomj} $b" "next j"
create_bonds  single/bond 2 ${randatomj} $b
create_bonds  single/bond 2 6748 $b
create_bonds  single/bond 2 6748 8575
  2 = max # of 1-2 neighbors
  5 = max # of special neighbors
  special bonds CPU = 0.0037082 secs
next j
jump MDPBB.in loopj
variable      randnj equal round(random(v_ntop0,$(v_ntop0 + v_nbwall0),$s))
variable      randnj equal round(random(v_ntop0,6984,$s))
variable      randnj equal round(random(v_ntop0,6984,234897))
variable      randatomj equal ${randnj}
variable      randatomj equal 4625
variable      randzj equal z[${randatomj}]
variable      randzj equal z[4625]
if            "${randzj} < $(v_wthick - 0.7)" then "jump MDPBB.in loopj"
jump MDPBB.in loopj
variable      randnj equal round(random(v_ntop0,$(v_ntop0 + v_nbwall0),$s))
variable      randnj equal round(random(v_ntop0,6984,$s))
variable      randnj equal round(random(v_ntop0,6984,234897))
variable      randatomj equal ${randnj}
variable      randatomj equal 5290
variable      randzj equal z[${randatomj}]
variable      randzj equal z[5290]
if            "${randzj} < $(v_wthick - 0.7)" then "jump MDPBB.in loopj"
jump MDPBB.in loopj
variable      randnj equal round(random(v_ntop0,$(v_ntop0 + v_nbwall0),$s))
variable      randnj equal round(random(v_ntop0,6984,$s))
variable      randnj equal round(random(v_ntop0,6984,234897))
variable      randatomj equal ${randnj}
variable      randatomj equal 4414
variable      randzj equal z[${randatomj}]
variable      randzj equal z[4414]
if            "${randzj} < $(v_wthick - 0.7)" then "jump MDPBB.in loopj"
jump MDPBB.in loopj
variable      randnj equal round(random(v_ntop0,$(v_ntop0 + v_nbwall0),$s))
variable      randnj equal round(random(v_ntop0,6984,$s))
variable      randnj equal round(random(v_ntop0,6984,234897))
variable      randatomj equal ${randnj}
variable      randatomj equal 6966
variable      randzj equal z[${randatomj}]
variable      randzj equal z[6966]
if            "${randzj} < $(v_wthick - 0.7)" then "jump MDPBB.in loopj"
jump MDPBB.in loopj
variable      randnj equal round(random(v_ntop0,$(v_ntop0 + v_nbwall0),$s))
variable      randnj equal round(random(v_ntop0,6984,$s))
variable      randnj equal round(random(v_ntop0,6984,234897))
variable      randatomj equal ${randnj}
variable      randatomj equal 5802
variable      randzj equal z[${randatomj}]
variable      randzj equal z[5802]
if            "${randzj} < $(v_wthick - 0.7)" then "jump MDPBB.in loopj"
jump MDPBB.in loopj
variable      randnj equal round(random(v_ntop0,$(v_ntop0 + v_nbwall0),$s))
variable      randnj equal round(random(v_ntop0,6984,$s))
variable      randnj equal round(random(v_ntop0,6984,234897))
variable      randatomj equal ${randnj}
variable      randatomj equal 5224
variable      randzj equal z[${randatomj}]
variable      randzj equal z[5224]
if            "${randzj} < $(v_wthick - 0.7)" then "jump MDPBB.in loopj"
jump MDPBB.in loopj
variable      randnj equal round(random(v_ntop0,$(v_ntop0 + v_nbwall0),$s))
variable      randnj equal round(random(v_ntop0,6984,$s))
variable      randnj equal round(random(v_ntop0,6984,234897))
variable      randatomj equal ${randnj}
variable      randatomj equal 5544
variable      randzj equal z[${randatomj}]
variable      randzj equal z[5544]
if            "${randzj} < $(v_wthick - 0.7)" then "jump MDPBB.in loopj"
jump MDPBB.in loopj
variable      randnj equal round(random(v_ntop0,$(v_ntop0 + v_nbwall0),$s))
variable      randnj equal round(random(v_ntop0,6984,$s))
variable      randnj equal round(random(v_ntop0,6984,234897))
variable      randatomj equal ${randnj}
variable      randatomj equal 5158
variable      randzj equal z[${randatomj}]
variable      randzj equal z[5158]
if            "${randzj} < $(v_wthick - 0.7)" then "jump MDPBB.in loopj"
jump MDPBB.in loopj
variable      randnj equal round(random(v_ntop0,$(v_ntop0 + v_nbwall0),$s))
variable      randnj equal round(random(v_ntop0,6984,$s))
variable      randnj equal round(random(v_ntop0,6984,234897))
variable      randatomj equal ${randnj}
variable      randatomj equal 4725
variable      randzj equal z[${randatomj}]
variable      randzj equal z[4725]
if            "${randzj} < $(v_wthick - 0.7)" then "jump MDPBB.in loopj"
jump MDPBB.in loopj
variable      randnj equal round(random(v_ntop0,$(v_ntop0 + v_nbwall0),$s))
variable      randnj equal round(random(v_ntop0,6984,$s))
variable      randnj equal round(random(v_ntop0,6984,234897))
variable      randatomj equal ${randnj}
variable      randatomj equal 4437
variable      randzj equal z[${randatomj}]
variable      randzj equal z[4437]
if            "${randzj} < $(v_wthick - 0.7)" then "jump MDPBB.in loopj"
jump MDPBB.in loopj
variable      randnj equal round(random(v_ntop0,$(v_ntop0 + v_nbwall0),$s))
variable      randnj equal round(random(v_ntop0,6984,$s))
variable      randnj equal round(random(v_ntop0,6984,234897))
variable      randatomj equal ${randnj}
variable      randatomj equal 4798
variable      randzj equal z[${randatomj}]
variable      randzj equal z[4798]
if            "${randzj} < $(v_wthick - 0.7)" then "jump MDPBB.in loopj"
jump MDPBB.in loopj
variable      randnj equal round(random(v_ntop0,$(v_ntop0 + v_nbwall0),$s))
variable      randnj equal round(random(v_ntop0,6984,$s))
variable      randnj equal round(random(v_ntop0,6984,234897))
variable      randatomj equal ${randnj}
variable      randatomj equal 4632
variable      randzj equal z[${randatomj}]
variable      randzj equal z[4632]
if            "${randzj} < $(v_wthick - 0.7)" then "jump MDPBB.in loopj"
jump MDPBB.in loopj
variable      randnj equal round(random(v_ntop0,$(v_ntop0 + v_nbwall0),$s))
variable      randnj equal round(random(v_ntop0,6984,$s))
variable      randnj equal round(random(v_ntop0,6984,234897))
variable      randatomj equal ${randnj}
variable      randatomj equal 5425
variable      randzj equal z[${randatomj}]
variable      randzj equal z[5425]
if            "${randzj} < $(v_wthick - 0.7)" then "jump MDPBB.in loopj"
jump MDPBB.in loopj
variable      randnj equal round(random(v_ntop0,$(v_ntop0 + v_nbwall0),$s))
variable      randnj equal round(random(v_ntop0,6984,$s))
variable      randnj equal round(random(v_ntop0,6984,234897))
variable      randatomj equal ${randnj}
variable      randatomj equal 5773
variable      randzj equal z[${randatomj}]
variable      randzj equal z[5773]
if            "${randzj} < $(v_wthick - 0.7)" then "jump MDPBB.in loopj"
jump MDPBB.in loopj
variable      randnj equal round(random(v_ntop0,$(v_ntop0 + v_nbwall0),$s))
variable      randnj equal round(random(v_ntop0,6984,$s))
variable      randnj equal round(random(v_ntop0,6984,234897))
variable      randatomj equal ${randnj}
variable      randatomj equal 5505
variable      randzj equal z[${randatomj}]
variable      randzj equal z[5505]
if            "${randzj} < $(v_wthick - 0.7)" then "jump MDPBB.in loopj"
jump MDPBB.in loopj
variable      randnj equal round(random(v_ntop0,$(v_ntop0 + v_nbwall0),$s))
variable      randnj equal round(random(v_ntop0,6984,$s))
variable      randnj equal round(random(v_ntop0,6984,234897))
variable      randatomj equal ${randnj}
variable      randatomj equal 5801
variable      randzj equal z[${randatomj}]
variable      randzj equal z[5801]
if            "${randzj} < $(v_wthick - 0.7)" then "jump MDPBB.in loopj"
jump MDPBB.in loopj
variable      randnj equal round(random(v_ntop0,$(v_ntop0 + v_nbwall0),$s))
variable      randnj equal round(random(v_ntop0,6984,$s))
variable      randnj equal round(random(v_ntop0,6984,234897))
variable      randatomj equal ${randnj}
variable      randatomj equal 6327
variable      randzj equal z[${randatomj}]
variable      randzj equal z[6327]
if            "${randzj} < $(v_wthick - 0.7)" then "jump MDPBB.in loopj"
set           atom ${randatomj} type 4
set           atom 6327 type 4
  1 settings made for type
group         bwg id ${randatomj}                         # Add this atom to a bot-wall-grafted group
group         bwg id 6327                         
55 atoms in group bwg
variable      bwgcount equal count(bwg)
print         "bwg contains ${bwgcount}"
bwg contains 55
print         "j = $(v_j)"
j = 55
variable      x0 equal x[${randatomj}]
variable      x0 equal x[6327]
variable      y0 equal y[${randatomj}]
variable      y0 equal y[6327]
variable      check0 equal ${check}
variable      check0 equal 8604
variable      b equal ${check}+1
variable      b equal 8604+1
if            "${bwgcount} != $(v_j)" then "jump MDPBB.in loopj"
create_atoms  1 single ${x0} ${y0} ${z0} mol bs 24987 units box remap yes rotate 0 0 0 1
create_atoms  1 single 24.6047163055071 ${y0} ${z0} mol bs 24987 units box remap yes rotate 0 0 0 1
create_atoms  1 single 24.6047163055071 12.6992084157456 ${z0} mol bs 24987 units box remap yes rotate 0 0 0 1
create_atoms  1 single 24.6047163055071 12.6992084157456 17 mol bs 24987 units box remap yes rotate 0 0 0 1
Created 30 atoms
  create_atoms CPU = 0.0001908 secs
variable      check1 equal ${check}
variable      check1 equal 8634
if            "${check1} != ${check0}" then "create_bonds  single/bond 2 ${randatomj} $b" "next j"
create_bonds  single/bond 2 ${randatomj} $b
create_bonds  single/bond 2 6327 $b
create_bonds  single/bond 2 6327 8605
  2 = max # of 1-2 neighbors
  5 = max # of special neighbors
  special bonds CPU = 0.0028498 secs
next j
jump MDPBB.in loopj
variable      randnj equal round(random(v_ntop0,$(v_ntop0 + v_nbwall0),$s))
variable      randnj equal round(random(v_ntop0,6984,$s))
variable      randnj equal round(random(v_ntop0,6984,234897))
variable      randatomj equal ${randnj}
variable      randatomj equal 5847
variable      randzj equal z[${randatomj}]
variable      randzj equal z[5847]
if            "${randzj} < $(v_wthick - 0.7)" then "jump MDPBB.in loopj"
set           atom ${randatomj} type 4
set           atom 5847 type 4
  1 settings made for type
group         bwg id ${randatomj}                         # Add this atom to a bot-wall-grafted group
group         bwg id 5847                         
56 atoms in group bwg
variable      bwgcount equal count(bwg)
print         "bwg contains ${bwgcount}"
bwg contains 56
print         "j = $(v_j)"
j = 56
variable      x0 equal x[${randatomj}]
variable      x0 equal x[5847]
variable      y0 equal y[${randatomj}]
variable      y0 equal y[5847]
variable      check0 equal ${check}
variable      check0 equal 8634
variable      b equal ${check}+1
variable      b equal 8634+1
if            "${bwgcount} != $(v_j)" then "jump MDPBB.in loopj"
create_atoms  1 single ${x0} ${y0} ${z0} mol bs 24987 units box remap yes rotate 0 0 0 1
create_atoms  1 single 5.5559036818887 ${y0} ${z0} mol bs 24987 units box remap yes rotate 0 0 0 1
create_atoms  1 single 5.5559036818887 3.1748021039364 ${z0} mol bs 24987 units box remap yes rotate 0 0 0 1
create_atoms  1 single 5.5559036818887 3.1748021039364 17 mol bs 24987 units box remap yes rotate 0 0 0 1
Created 30 atoms
  create_atoms CPU = 0.0001672 secs
variable      check1 equal ${check}
variable      check1 equal 8664
if            "${check1} != ${check0}" then "create_bonds  single/bond 2 ${randatomj} $b" "next j"
create_bonds  single/bond 2 ${randatomj} $b
create_bonds  single/bond 2 5847 $b
create_bonds  single/bond 2 5847 8635
  2 = max # of 1-2 neighbors
  5 = max # of special neighbors
  special bonds CPU = 0.0038311 secs
next j
jump MDPBB.in loopj
variable      randnj equal round(random(v_ntop0,$(v_ntop0 + v_nbwall0),$s))
variable      randnj equal round(random(v_ntop0,6984,$s))
variable      randnj equal round(random(v_ntop0,6984,234897))
variable      randatomj equal ${randnj}
variable      randatomj equal 6933
variable      randzj equal z[${randatomj}]
variable      randzj equal z[6933]
if            "${randzj} < $(v_wthick - 0.7)" then "jump MDPBB.in loopj"
jump MDPBB.in loopj
variable      randnj equal round(random(v_ntop0,$(v_ntop0 + v_nbwall0),$s))
variable      randnj equal round(random(v_ntop0,6984,$s))
variable      randnj equal round(random(v_ntop0,6984,234897))
variable      randatomj equal ${randnj}
variable      randatomj equal 6480
variable      randzj equal z[${randatomj}]
variable      randzj equal z[6480]
if            "${randzj} < $(v_wthick - 0.7)" then "jump MDPBB.in loopj"
set           atom ${randatomj} type 4
set           atom 6480 type 4
  1 settings made for type
group         bwg id ${randatomj}                         # Add this atom to a bot-wall-grafted group
group         bwg id 6480                         
57 atoms in group bwg
variable      bwgcount equal count(bwg)
print         "bwg contains ${bwgcount}"
bwg contains 57
print         "j = $(v_j)"
j = 57
variable      x0 equal x[${randatomj}]
variable      x0 equal x[6480]
variable      y0 equal y[${randatomj}]
variable      y0 equal y[6480]
variable      check0 equal ${check}
variable      check0 equal 8664
variable      b equal ${check}+1
variable      b equal 8664+1
if            "${bwgcount} != $(v_j)" then "jump MDPBB.in loopj"
create_atoms  1 single ${x0} ${y0} ${z0} mol bs 24987 units box remap yes rotate 0 0 0 1
create_atoms  1 single 26.9858178834594 ${y0} ${z0} mol bs 24987 units box remap yes rotate 0 0 0 1
create_atoms  1 single 26.9858178834594 16.6677110456661 ${z0} mol bs 24987 units box remap yes rotate 0 0 0 1
create_atoms  1 single 26.9858178834594 16.6677110456661 17 mol bs 24987 units box remap yes rotate 0 0 0 1
Created 30 atoms
  create_atoms CPU = 0.0001792 secs
variable      check1 equal ${check}
variable      check1 equal 8694
if            "${check1} != ${check0}" then "create_bonds  single/bond 2 ${randatomj} $b" "next j"
create_bonds  single/bond 2 ${randatomj} $b
create_bonds  single/bond 2 6480 $b
create_bonds  single/bond 2 6480 8665
  2 = max # of 1-2 neighbors
  5 = max # of special neighbors
  special bonds CPU = 0.0030168 secs
next j
jump MDPBB.in loopj
variable      randnj equal round(random(v_ntop0,$(v_ntop0 + v_nbwall0),$s))
variable      randnj equal round(random(v_ntop0,6984,$s))
variable      randnj equal round(random(v_ntop0,6984,234897))
variable      randatomj equal ${randnj}
variable      randatomj equal 6756
variable      randzj equal z[${randatomj}]
variable      randzj equal z[6756]
if            "${randzj} < $(v_wthick - 0.7)" then "jump MDPBB.in loopj"
set           atom ${randatomj} type 4
set           atom 6756 type 4
  1 settings made for type
group         bwg id ${randatomj}                         # Add this atom to a bot-wall-grafted group
group         bwg id 6756                         
58 atoms in group bwg
variable      bwgcount equal count(bwg)
print         "bwg contains ${bwgcount}"
bwg contains 58
print         "j = $(v_j)"
j = 58
variable      x0 equal x[${randatomj}]
variable      x0 equal x[6756]
variable      y0 equal y[${randatomj}]
variable      y0 equal y[6756]
variable      check0 equal ${check}
variable      check0 equal 8694
variable      b equal ${check}+1
variable      b equal 8694+1
if            "${bwgcount} != $(v_j)" then "jump MDPBB.in loopj"
create_atoms  1 single ${x0} ${y0} ${z0} mol bs 24987 units box remap yes rotate 0 0 0 1
create_atoms  1 single 22.2236147275548 ${y0} ${z0} mol bs 24987 units box remap yes rotate 0 0 0 1
create_atoms  1 single 22.2236147275548 23.0173152535389 ${z0} mol bs 24987 units box remap yes rotate 0 0 0 1
create_atoms  1 single 22.2236147275548 23.0173152535389 17 mol bs 24987 units box remap yes rotate 0 0 0 1
Created 30 atoms
  create_atoms CPU = 0.000239 secs
variable      check1 equal ${check}
variable      check1 equal 8724
if            "${check1} != ${check0}" then "create_bonds  single/bond 2 ${randatomj} $b" "next j"
create_bonds  single/bond 2 ${randatomj} $b
create_bonds  single/bond 2 6756 $b
create_bonds  single/bond 2 6756 8695
  2 = max # of 1-2 neighbors
  5 = max # of special neighbors
  special bonds CPU = 0.0042302 secs
next j
jump MDPBB.in loopj
variable      randnj equal round(random(v_ntop0,$(v_ntop0 + v_nbwall0),$s))
variable      randnj equal round(random(v_ntop0,6984,$s))
variable      randnj equal round(random(v_ntop0,6984,234897))
variable      randatomj equal ${randnj}
variable      randatomj equal 4457
variable      randzj equal z[${randatomj}]
variable      randzj equal z[4457]
if            "${randzj} < $(v_wthick - 0.7)" then "jump MDPBB.in loopj"
jump MDPBB.in loopj
variable      randnj equal round(random(v_ntop0,$(v_ntop0 + v_nbwall0),$s))
variable      randnj equal round(random(v_ntop0,6984,$s))
variable      randnj equal round(random(v_ntop0,6984,234897))
variable      randatomj equal ${randnj}
variable      randatomj equal 6708
variable      randzj equal z[${randatomj}]
variable      randzj equal z[6708]
if            "${randzj} < $(v_wthick - 0.7)" then "jump MDPBB.in loopj"
set           atom ${randatomj} type 4
set           atom 6708 type 4
  1 settings made for type
group         bwg id ${randatomj}                         # Add this atom to a bot-wall-grafted group
group         bwg id 6708                         
59 atoms in group bwg
variable      bwgcount equal count(bwg)
print         "bwg contains ${bwgcount}"
bwg contains 59
print         "j = $(v_j)"
j = 59
variable      x0 equal x[${randatomj}]
variable      x0 equal x[6708]
variable      y0 equal y[${randatomj}]
variable      y0 equal y[6708]
variable      check0 equal ${check}
variable      check0 equal 8724
variable      b equal ${check}+1
variable      b equal 8724+1
if            "${bwgcount} != $(v_j)" then "jump MDPBB.in loopj"
create_atoms  1 single ${x0} ${y0} ${z0} mol bs 24987 units box remap yes rotate 0 0 0 1
create_atoms  1 single 3.1748021039364 ${y0} ${z0} mol bs 24987 units box remap yes rotate 0 0 0 1
create_atoms  1 single 3.1748021039364 23.0173152535389 ${z0} mol bs 24987 units box remap yes rotate 0 0 0 1
create_atoms  1 single 3.1748021039364 23.0173152535389 17 mol bs 24987 units box remap yes rotate 0 0 0 1
Created 30 atoms
  create_atoms CPU = 0.0001621 secs
variable      check1 equal ${check}
variable      check1 equal 8754
if            "${check1} != ${check0}" then "create_bonds  single/bond 2 ${randatomj} $b" "next j"
create_bonds  single/bond 2 ${randatomj} $b
create_bonds  single/bond 2 6708 $b
create_bonds  single/bond 2 6708 8725
  2 = max # of 1-2 neighbors
  5 = max # of special neighbors
  special bonds CPU = 0.0034574 secs
next j
jump MDPBB.in loopj
variable      randnj equal round(random(v_ntop0,$(v_ntop0 + v_nbwall0),$s))
variable      randnj equal round(random(v_ntop0,6984,$s))
variable      randnj equal round(random(v_ntop0,6984,234897))
variable      randatomj equal ${randnj}
variable      randatomj equal 5450
variable      randzj equal z[${randatomj}]
variable      randzj equal z[5450]
if            "${randzj} < $(v_wthick - 0.7)" then "jump MDPBB.in loopj"
jump MDPBB.in loopj
variable      randnj equal round(random(v_ntop0,$(v_ntop0 + v_nbwall0),$s))
variable      randnj equal round(random(v_ntop0,6984,$s))
variable      randnj equal round(random(v_ntop0,6984,234897))
variable      randatomj equal ${randnj}
variable      randatomj equal 6875
variable      randzj equal z[${randatomj}]
variable      randzj equal z[6875]
if            "${randzj} < $(v_wthick - 0.7)" then "jump MDPBB.in loopj"
set           atom ${randatomj} type 4
set           atom 6875 type 4
  1 settings made for type
group         bwg id ${randatomj}                         # Add this atom to a bot-wall-grafted group
group         bwg id 6875                         
60 atoms in group bwg
variable      bwgcount equal count(bwg)
print         "bwg contains ${bwgcount}"
bwg contains 60
print         "j = $(v_j)"
j = 60
variable      x0 equal x[${randatomj}]
variable      x0 equal x[6875]
variable      y0 equal y[${randatomj}]
variable      y0 equal y[6875]
variable      check0 equal ${check}
variable      check0 equal 8754
variable      b equal ${check}+1
variable      b equal 8754+1
if            "${bwgcount} != $(v_j)" then "jump MDPBB.in loopj"
create_atoms  1 single ${x0} ${y0} ${z0} mol bs 24987 units box remap yes rotate 0 0 0 1
create_atoms  1 single 13.4929089417297 ${y0} ${z0} mol bs 24987 units box remap yes rotate 0 0 0 1
create_atoms  1 single 13.4929089417297 25.3984168314912 ${z0} mol bs 24987 units box remap yes rotate 0 0 0 1
create_atoms  1 single 13.4929089417297 25.3984168314912 17 mol bs 24987 units box remap yes rotate 0 0 0 1
Created 30 atoms
  create_atoms CPU = 0.0002049 secs
variable      check1 equal ${check}
variable      check1 equal 8784
if            "${check1} != ${check0}" then "create_bonds  single/bond 2 ${randatomj} $b" "next j"
create_bonds  single/bond 2 ${randatomj} $b
create_bonds  single/bond 2 6875 $b
create_bonds  single/bond 2 6875 8755
  2 = max # of 1-2 neighbors
  5 = max # of special neighbors
  special bonds CPU = 0.0031615 secs
next j
jump MDPBB.in loopj

# Assign the beads to 2 different groups of grafted and non-grafted beads

group         gbeads type 2
120 atoms in group gbeads
group         fbeads type 3
3480 atoms in group fbeads

#--- Create harmonic bonds in the walls ---#
bond_coeff    3 harmonic 800.0 $(1.5874 * sqrt(2)/2)
bond_coeff    3 harmonic 800.0 1.1224613044555256103
create_bonds  many bwall bwall 3 0.5 1.2
Neighbor list info ...
  update every 1 steps, delay 10 steps, check yes
  max neighbors/atom: 4000, page size: 100000
  master list distance cutoff = 11.1225
  ghost atom cutoff = 11.1225
  binsize = 5.56123, bins = 6 6 13
  2 neighbor lists, perpetual/occasional/extra = 1 1 0
  (1) command create_bonds, occasional
      attributes: full, newton on
      pair build: full/bin
      stencil: full/bin/3d
      bin: standard
  (2) pair lj/cut, perpetual
      attributes: half, newton on
      pair build: half/bin/newton
      stencil: half/bin/3d/newton
      bin: standard
Added 12960 bonds, new total = 16560
  12 = max # of 1-2 neighbors
  12 = max # of special neighbors
  special bonds CPU = 0.0043235 secs
create_bonds  many twall twall 3 0.5 1.2
Added 12960 bonds, new total = 29520
  12 = max # of 1-2 neighbors
  12 = max # of special neighbors
  special bonds CPU = 0.0049469 secs

info system


fix           1 twall setforce 0.0 0.0 0.0  # Freeze top wall
fix           2 bwall setforce 0.0 0.0 0.0  # Freeze bottom wall

#dump           1 all image 250 stg0.*.jpg type type zoom 2 view 60 120 bond none none
#dump          2 all atom 50 dump.brush
#dump          3 all custom 100 dump.random.bin id x y z vx vy vz


#--- Minimize the system to obtain the initial structure for the PB bilayer ---#

timestep      0.010
minimize      0.0 1.0e-8 10000 100000
WARNING: Using 'neigh_modify every 1 delay 0 check yes' setting during minimization (src/min.cpp:168)
Neighbor list info ...
  update every 1 steps, delay 0 steps, check yes
  max neighbors/atom: 4000, page size: 100000
  master list distance cutoff = 11.1225
  ghost atom cutoff = 11.1225
  binsize = 5.56123, bins = 6 6 13
  1 neighbor lists, perpetual/occasional/extra = 1 0 0
  (1) pair lj/cut, perpetual
      attributes: half, newton on
      pair build: half/bin/newton
      stencil: half/bin/3d/newton
      bin: standard
WARNING: Inconsistent image flags (src/domain.cpp:784)
Per MPI rank memory allocation (min/avg/max) = 35.35 | 35.35 | 35.35 Mbytes
Step Temp E_pair E_mol TotEng Press 
       0            0 0.0089794653    9.0584173    9.0673968    1.0198392 
      54            0 -0.071475036    7.6692279    7.5977529    1.1344806 
Loop time of 1.37209 on 1 procs for 54 steps with 8784 atoms

99.1% CPU use with 1 MPI tasks x 1 OpenMP threads

Minimization stats:
  Stopping criterion = linesearch alpha is zero
  Energy initial, next-to-last, final = 
         9.06739676916      7.59775291095      7.59775291095
  Force two-norm initial, final = 938.779 161.77
  Force max component initial, final = 107.218 12.0367
  Final line search alpha, max atom move = 3.96153e-09 4.76837e-08
  Iterations, force evaluations = 54 111

MPI task timing breakdown:
Section |  min time  |  avg time  |  max time  |%varavg| %total
---------------------------------------------------------------
Pair    | 1.2773     | 1.2773     | 1.2773     |   0.0 | 93.10
Bond    | 0.062299   | 0.062299   | 0.062299   |   0.0 |  4.54
Neigh   | 0          | 0          | 0          |   0.0 |  0.00
Comm    | 0.012092   | 0.012092   | 0.012092   |   0.0 |  0.88
Output  | 0          | 0          | 0          |   0.0 |  0.00
Modify  | 0.0034339  | 0.0034339  | 0.0034339  |   0.0 |  0.25
Other   |            | 0.01691    |            |       |  1.23

Nlocal:    8784 ave 8784 max 8784 min
Histogram: 1 0 0 0 0 0 0 0 0 0
Nghost:    19666 ave 19666 max 19666 min
Histogram: 1 0 0 0 0 0 0 0 0 0
Neighs:    4.88014e+06 ave 4.88014e+06 max 4.88014e+06 min
Histogram: 1 0 0 0 0 0 0 0 0 0

Total # of neighbors = 4880143
Ave neighs/atom = 555.572
Ave special neighs/atom = 6.72131
Neighbor list builds = 0
Dangerous builds = 0

#--- Shrink the simulation box such that it encloses the system exactly ---#

variable z_f equal bound(all,zmin)
variable z_c equal bound(all,zmax)

change_box all z final ${z_f} $(v_z_c + 0.1) units box
change_box all z final 0 $(v_z_c + 0.1) units box
change_box all z final 0 70.099999999999994316 units box
  orthogonal box = (0 0 0) to (28.2843 28.2843 70.1)

info variables                              # For diagnostics

minimize      0.0 1.0e-8 10000 100000
WARNING: Using 'neigh_modify every 1 delay 0 check yes' setting during minimization (src/min.cpp:168)
WARNING: Inconsistent image flags (src/domain.cpp:784)
Per MPI rank memory allocation (min/avg/max) = 35.35 | 35.35 | 35.35 Mbytes
Step Temp E_pair E_mol TotEng Press 
      54            0 -0.071475036    7.6692279    7.5977529    1.1652297 
      55            0 -0.071475036    7.6692279    7.5977529    1.1652297 
Loop time of 0.519855 on 1 procs for 1 steps with 8784 atoms

99.2% CPU use with 1 MPI tasks x 1 OpenMP threads

Minimization stats:
  Stopping criterion = linesearch alpha is zero
  Energy initial, next-to-last, final = 
         7.59775291095      7.59775291095      7.59775291095
  Force two-norm initial, final = 161.77 161.77
  Force max component initial, final = 12.0367 12.0367
  Final line search alpha, max atom move = 3.96153e-09 4.76837e-08
  Iterations, force evaluations = 1 43

MPI task timing breakdown:
Section |  min time  |  avg time  |  max time  |%varavg| %total
---------------------------------------------------------------
Pair    | 0.48559    | 0.48559    | 0.48559    |   0.0 | 93.41
Bond    | 0.023934   | 0.023934   | 0.023934   |   0.0 |  4.60
Neigh   | 0          | 0          | 0          |   0.0 |  0.00
Comm    | 0.0046777  | 0.0046777  | 0.0046777  |   0.0 |  0.90
Output  | 0          | 0          | 0          |   0.0 |  0.00
Modify  | 0.0013659  | 0.0013659  | 0.0013659  |   0.0 |  0.26
Other   |            | 0.004283   |            |       |  0.82

Nlocal:    8784 ave 8784 max 8784 min
Histogram: 1 0 0 0 0 0 0 0 0 0
Nghost:    19666 ave 19666 max 19666 min
Histogram: 1 0 0 0 0 0 0 0 0 0
Neighs:    4.90978e+06 ave 4.90978e+06 max 4.90978e+06 min
Histogram: 1 0 0 0 0 0 0 0 0 0

Total # of neighbors = 4909778
Ave neighs/atom = 558.946
Ave special neighs/atom = 6.72131
Neighbor list builds = 0
Dangerous builds = 0

#--- Remove the fixes for the restart file ---#
unfix         1
unfix         2

#--- Write Restart File ---#

write_restart  MDPBB.rst
#write_data     MDPBB.data
print        "Created a Polymer Brush Bilayer with Surface Coverage = $(v_M/(lx*ly))"
Created a Polymer Brush Bilayer with Surface Coverage = 0.075000000000000011102

label          sim

include        ecs.in
# This is an input script that creates a mono disperse polymer brush bilayer
# A coarse grained bead-spring model is used for the polymers which are end
# grafted to the surfaces of 2 opposing FCC walls at random sites.

clear
OMP_NUM_THREADS environment is not set. Defaulting to 1 thread. (src/comm.cpp:88)
  using 1 OpenMP thread(s) per MPI task


#--- Read in the Restart file ---#

read_restart    MDPBB.rst
  restoring atom style bond from restart
  orthogonal box = (0 0 0) to (28.2843 28.2843 70.1)
  1 by 1 by 1 MPI processor grid
  restoring pair style lj/cut from restart
  restoring bond style hybrid from restart
  8784 atoms
  29520 bonds
  12 = max # of 1-2 neighbors
  12 = max # of special neighbors
  special bonds CPU = 0.0083273 secs
  read_restart CPU = 0.0168989 secs
reset_timestep  0

#--- Redefine the bond coeffs ---#

bond_coeff    1 fene 30.0 1.5 0.0 0.0      # Values obtained from literature [Grest, Galushcko]
bond_coeff    2 fene 30.0 1.5 0.0 0.0       # This is the grafting bond between the polymer and the wall atom
bond_coeff    3 harmonic 800.0 $(1.5874 * sqrt(2)/2)
bond_coeff    3 harmonic 800.0 1.1224613044555256103

neigh_modify   every 1 delay 0 check yes

#--- Define variables ---#

# for dimensional values: eps = 4.14e-21 J at T = 300K and sigma = 0.5nm

#--- Moved to main.in ---#
#variable       Temp       equal ${Tstr} #[Grest96]
#variable       Tstep     equal 0.005                       # Timestep in Tau (default = 0.005)
#variable       Nequil    equal 10000                       # Number of timesteps to equilibrate
#variable       Ncomp     equal 200000                      # Number of timesteps to compress - until no more occilation of walls
#variable       Nshear    equal 1000000                     # Number of timesteps to shear - use approx 4ns for 10m/s
#variable       Nthermo   equal 1000                        # Number of timesteps between thermo data prints
#variable       Ndump_e   equal 10000
#variable       Ndump_c   equal 10000                       # Number of timesteps per dump file (compression)
#variable       Ndump_s   equal 10000                       # Number of timesteps per dump file (shear)
#variable       Wall_v    equal 0.0002                      # Wall velocity (A/fs) - equal to 10 m/s
#variable       Pcomp     equal 1
variable        Pcomp2    equal ${Pcomp}
variable        Pcomp2    equal 1
variable        Wall_v2   equal ${Wall_v}
variable        Wall_v2   equal 0.00000005

# For Equilibration - density profiles (10 for entire run)
variable       Nfreqe   equal ${Nequil}/10                  # Calculate bin averages every this many timesteps
variable       Nfreqe   equal 300000/10                  
variable       Neverye  equal 100                           # Use input values every this many timesteps
variable       Nrepeate equal ${Nfreqe}/${Neverye}          #s Number of times to use input values
variable       Nrepeate equal 30000/${Neverye}          
variable       Nrepeate equal 30000/100          


# For compression - density profiles (10 for entire run)
variable       Nfreqc   equal ${Ncomp}/10                  # Calculate bin averages every this many timesteps
variable       Nfreqc   equal 700000/10                  
variable       Neveryc  equal 100                          # Use input values every this many timesteps
variable       Nrepeatc equal ${Nfreqc}/${Neveryc}         # Number of times to use input values
variable       Nrepeatc equal 70000/${Neveryc}         
variable       Nrepeatc equal 70000/100         

# For Shear - density profiles (10 for entire run)
variable       Nfreqs   equal ${Nshear}/10                  # Calculate bin averages every this many timesteps
variable       Nfreqs   equal 4000000/10                  
variable       Neverys  equal 100                          # Use input values every this many timesteps
variable       Nrepeats equal ${Nfreqs}/${Neverys}         # Number of times to use input values
variable       Nrepeats equal 400000/${Neverys}         
variable       Nrepeats equal 400000/100         


variable       binres   equal  0.001                       # Giving 1000 data points across the sim. box


variable       bwzmin  equal bound(bwall,zmin)
variable       bwzmax  equal bound(bwall,zmax)
variable       twzmin  equal bound(twall,zmin)
variable       twzmax  equal bound(twall,zmax)
variable       c       equal count(gbeads)
variable       surfcov equal $(v_M/(lx*ly))
variable       surfcov equal 0.075000000000000011102
variable       D       equal v_twzmin-v_bwzmax
variable       Dout    equal v_twzmax-v_bwzmin
variable       srate   equal (v_Wall_v/v_D)


#--- Define regions and groups ---#

print        "bwzmin = ${bwzmin}"
bwzmin = 0
print        "bwzmax = ${bwzmax}"
bwzmax = 2.3811015779523
print        "twzmin = ${twzmin}"
twzmin = 67.6188984220477
print        "twzmax = ${twzmax}"
twzmax = 70

region         bwallb  block  INF INF INF INF ${bwzmin} $(v_bwzmin + 0.4) units box
region         bwallb  block  INF INF INF INF 0 $(v_bwzmin + 0.4) units box
region         bwallb  block  INF INF INF INF 0 0.4000000000000000222 units box
region         bwallm  block  INF INF INF INF $(v_bwzmin + 0.35) $(v_bwzmax - 0.35) units box
region         bwallm  block  INF INF INF INF 0.3499999999999999778 $(v_bwzmax - 0.35) units box
region         bwallm  block  INF INF INF INF 0.3499999999999999778 2.0311015779522998415 units box
region         bwallt  block  INF INF INF INF $(v_bwzmax - 0.7) $(v_bwzmax) units box
region         bwallt  block  INF INF INF INF 1.6811015779522999747 $(v_bwzmax) units box
region         bwallt  block  INF INF INF INF 1.6811015779522999747 2.3811015779522999303 units box
region         bmelt   block  INF INF INF INF $(v_bwzmax) $(v_twzmax / 2) units box
region         bmelt   block  INF INF INF INF 2.3811015779522999303 $(v_twzmax / 2) units box
region         bmelt   block  INF INF INF INF 2.3811015779522999303 35 units box
region         tmelt   block  INF INF INF INF $(v_twzmax / 2)  $(v_twzmin - 0.1) units box
region         tmelt   block  INF INF INF INF 35  $(v_twzmin - 0.1) units box
region         tmelt   block  INF INF INF INF 35  67.518898422047712415 units box
region         twallb  block  INF INF INF INF $(v_twzmin - 0.1) $(v_twzmin + 0.35) units box
region         twallb  block  INF INF INF INF 67.518898422047712415 $(v_twzmin + 0.35) units box
region         twallb  block  INF INF INF INF 67.518898422047712415 67.968898422047701047 units box
region         twallm  block  INF INF INF INF $(v_twzmin + 0.35) $(v_twzmax - 0.35) units box
region         twallm  block  INF INF INF INF 67.968898422047701047 $(v_twzmax - 0.35) units box
region         twallm  block  INF INF INF INF 67.968898422047701047 69.650000000000005684 units box
region         twallt  block  INF INF INF INF $(v_twzmax - 0.35) $(v_twzmax) units box
region         twallt  block  INF INF INF INF 69.650000000000005684 $(v_twzmax) units box
region         twallt  block  INF INF INF INF 69.650000000000005684 70 units box

group          bwsurf  region bwallt
648 atoms in group bwsurf
group          bwbulk  region bwallm
1296 atoms in group bwbulk
group          bwout   region bwallb
648 atoms in group bwout
group          bbeads  region bmelt
1800 atoms in group bbeads
group          tbeads  region tmelt
1800 atoms in group tbeads
group          abeads  union  bbeads tbeads
3600 atoms in group abeads
group          twsurf  region twallb
648 atoms in group twsurf
group          twbulk  region twallm
1296 atoms in group twbulk
group          twout   region twallt
648 atoms in group twout
group          rest4bot union abeads twall
6192 atoms in group rest4bot
group          rest4top union abeads bwall
6192 atoms in group rest4top
group          walls    union bwall twall
5184 atoms in group walls
group          alltop   union twall tbeads
4392 atoms in group alltop
# Other groups are: gbeads fbeads bwall twall

info system
info coeffs

#--- Exclude wall-wall interactions ---#

#neigh_modify exclude type 1 1
#neigh_modify exclude type 1 4
#neigh_modify exclude type 4 4


############
# Computes #
############

#compute         sysTemp   all    temp/deform                       # Calculate the temperature without translational velocities
#compute         sysPress  all    pressure sysTemp                  # Calculate the pressure of the entire system of atoms
compute         melTemp   abeads temp
compute         melPress  all    pressure melTemp
compute         wallTemp  walls  temp
compute         wallPress all    pressure wallTemp
variable        melDens   equal  $(mass(abeads))/(lx*ly*v_D)
variable        melDens   equal  3600/(lx*ly*v_D)

#--- Forces and Energies ---#

compute         fbwall  bwall group/group rest4bot
compute         ftwall  twall group/group rest4top
compute         fwalls  bwall group/group twall

#--- Like done in comp_shear.in ---#
group           rest_bot union abeads bwall
6192 atoms in group rest_bot
group           rest_bot2 subtract all bwsurf
8136 atoms in group rest_bot2
compute         ggbot bwsurf group/group rest_bot
compute         ggbot2 bwsurf group/group rest_bot

group           rest_top union abeads twall
6192 atoms in group rest_top
group           rest_top2 subtract all twsurf
8136 atoms in group rest_top2
compute         ggtop twsurf group/group rest_top
compute         ggtop2 twsurf group/group rest_top2


#--- Calculate the applied force on each atom for the pressure applied---#
variable Fcomp equal (${Pcomp}*lx*ly)
variable Fcomp equal (1*lx*ly)
variable Fcatom equal (-${Fcomp})/(count(twout))
variable Fcatom equal (-800)/(count(twout))


#compute	        peratom   all   stress/atom NULL
#compute	        p_all     all   reduce sum c_peratom[1] c_peratom[2] c_peratom[3]
#variable	      press_all equal -(c_p_all[1]+c_p_all[2]+c_p_all[3])/(3*v_volume)



info groups variables                              # For diagnostics


#################
# Equilibration #
#################

#--- Number Density profiles (Equil) ---#
compute         eabeads abeads chunk/atom bin/1d z lower ${binres} units reduced # Check bound keyword to maybe only bin melt area
compute         eabeads abeads chunk/atom bin/1d z lower 0.001 units reduced 
fix             abeads_edz abeads ave/chunk ${Neverye} ${Nrepeate} ${Nfreqe} eabeads density/number file abeads_edz
fix             abeads_edz abeads ave/chunk 100 ${Nrepeate} ${Nfreqe} eabeads density/number file abeads_edz
fix             abeads_edz abeads ave/chunk 100 300 ${Nfreqe} eabeads density/number file abeads_edz
fix             abeads_edz abeads ave/chunk 100 300 30000 eabeads density/number file abeads_edz
compute         ebbeads bbeads chunk/atom bin/1d z lower ${binres} units reduced # Check bound keyword to maybe only bin melt area
compute         ebbeads bbeads chunk/atom bin/1d z lower 0.001 units reduced 
fix             bbeads_edz bbeads  ave/chunk ${Neverye} ${Nrepeate} ${Nfreqe} ebbeads density/number file bbeads_edz
fix             bbeads_edz bbeads  ave/chunk 100 ${Nrepeate} ${Nfreqe} ebbeads density/number file bbeads_edz
fix             bbeads_edz bbeads  ave/chunk 100 300 ${Nfreqe} ebbeads density/number file bbeads_edz
fix             bbeads_edz bbeads  ave/chunk 100 300 30000 ebbeads density/number file bbeads_edz
compute         etbeads tbeads chunk/atom bin/1d z lower ${binres} units reduced # Check bound keyword to maybe only bin melt area
compute         etbeads tbeads chunk/atom bin/1d z lower 0.001 units reduced 
fix             tbeads_edz tbeads  ave/chunk ${Neverye} ${Nrepeate} ${Nfreqe} etbeads density/number file tbeads_edz
fix             tbeads_edz tbeads  ave/chunk 100 ${Nrepeate} ${Nfreqe} etbeads density/number file tbeads_edz
fix             tbeads_edz tbeads  ave/chunk 100 300 ${Nfreqe} etbeads density/number file tbeads_edz
fix             tbeads_edz tbeads  ave/chunk 100 300 30000 etbeads density/number file tbeads_edz

#--- Radius of gyration of the bottom brush chains ---#
compute         chunk_bot bbeads chunk/atom molecule
compute         rgbbeads bbeads gyration/chunk chunk_bot
variable        aveRg    equal  (ave(c_rgbbeads))


#--- Fixes (Equil) ---#

#velocity       abeads create ${Temp} 290842 dist gaussian
#fix             nvt_melt    abeads nvt temp ${Temp} ${Temp} 100.0

# NVE for all and langevin thermostat for melt
fix             nve_melt abeads nve
fix             lang_melt abeads langevin ${Temp} ${Temp} 0.1 798753
fix             lang_melt abeads langevin 1 ${Temp} 0.1 798753
fix             lang_melt abeads langevin 1 1 0.1 798753
fix             nve_walls  walls nve

#--- Langevin thermostat the bulk of the walls in y ---#
# Only thermostat the bulk of the wall not the surface or the outer layer
compute         Tempyt     twbulk temp/partial 0 1 0
fix             lang_tbulk twbulk langevin ${Temp} ${Temp} 0.1 87239 zero yes
fix             lang_tbulk twbulk langevin 1 ${Temp} 0.1 87239 zero yes
fix             lang_tbulk twbulk langevin 1 1 0.1 87239 zero yes
fix_modify      lang_tbulk temp Tempyt
compute         Tempyb     bwbulk temp/partial 0 1 0
fix             lang_bbulk bwbulk langevin ${Temp} ${Temp} 0.1 87239 zero yes
fix             lang_bbulk bwbulk langevin 1 ${Temp} 0.1 87239 zero yes
fix             lang_bbulk bwbulk langevin 1 1 0.1 87239 zero yes
fix_modify      lang_bbulk temp Tempyb

#--- Freeze the outer layer of the walls ---#
fix             freeze_bout bwout setforce 0.0 0.0 0.0
fix             freeze_tout twout setforce 0.0 0.0 0.0

variable        sbot equal  f_freeze_bout[1]/(lx*ly)
variable        pbot equal -f_freeze_bout[3]/(lx*ly)
#--- Thermo output ---#

thermo_style  custom step etotal ke pe epair temp c_melTemp c_wallTemp v_Fcatom v_Pcomp2 press pxx pyy pzz pxy pxz pyz c_melPress c_wallPress v_melDens v_surfcov v_aveRg v_Wall_v2 v_srate v_D v_bwzmax zhi c_fbwall[1] c_fbwall[3] c_ftwall[1] c_ftwall[3] v_sbot v_pbot #c_ggbot[1] c_ggbot[3] c_ggtop[1] c_ggtop[3]
thermo        ${Nthermo}
thermo        1000
thermo_modify flush yes

#--- Dumps ---#
#dump           eq all image ${Ndump_e} stg1.*.jpg type type zoom 2 view 60 120 bond none none


#--- Run Equilibration ---#
timestep    ${Tstep}
timestep    0.005
run         ${Nequil}
run         300000
Neighbor list info ...
  update every 1 steps, delay 0 steps, check yes
  max neighbors/atom: 2000, page size: 100000
  master list distance cutoff = 1.42246
  ghost atom cutoff = 1.42246
  binsize = 0.711231, bins = 40 40 99
  8 neighbor lists, perpetual/occasional/extra = 1 7 0
  (1) pair lj/cut, perpetual
      attributes: half, newton on
      pair build: half/bin/newton
      stencil: half/bin/3d/newton
      bin: standard
  (2) compute group/group, occasional, copy from (1)
      attributes: half, newton on
      pair build: copy
      stencil: none
      bin: none
  (3) compute group/group, occasional, copy from (1)
      attributes: half, newton on
      pair build: copy
      stencil: none
      bin: none
  (4) compute group/group, occasional, copy from (1)
      attributes: half, newton on
      pair build: copy
      stencil: none
      bin: none
  (5) compute group/group, occasional, copy from (1)
      attributes: half, newton on
      pair build: copy
      stencil: none
      bin: none
  (6) compute group/group, occasional, copy from (1)
      attributes: half, newton on
      pair build: copy
      stencil: none
      bin: none
  (7) compute group/group, occasional, copy from (1)
      attributes: half, newton on
      pair build: copy
      stencil: none
      bin: none
  (8) compute group/group, occasional, copy from (1)
      attributes: half, newton on
      pair build: copy
      stencil: none
      bin: none
WARNING: Inconsistent image flags (src/domain.cpp:784)
Per MPI rank memory allocation (min/avg/max) = 8.568 | 8.568 | 8.568 Mbytes
Step TotEng KinEng PotEng E_pair Temp c_melTemp c_wallTemp v_Fcatom v_Pcomp2 Press Pxx Pyy Pzz Pxy Pxz Pyz c_melPress c_wallPress v_melDens v_surfcov v_aveRg v_Wall_v2 v_srate v_D v_bwzmax Zhi c_fbwall[1] c_fbwall[3] c_ftwall[1] c_ftwall[3] v_sbot v_pbot 
WARNING: One or more chunks do not contain all atoms in molecule (src/compute_chunk_atom.cpp:1161)
       0    8.7330033            0    8.7330033 -0.071475036            0            0            0   -1.2345679            1   0.88177689    1.7031904    1.7031871  -0.76104679 -1.5711907e-05 -4.0587857e-08 -5.1206675e-07   0.88177689   0.88177689  0.068978418        0.075    3.8373271        5e-08 7.6642686e-10    65.237797    2.3811016         70.1            0            0            0            0 -5.6843419e-16    22.094841 
    1000    8.9872306    1.6851232    7.3021074  -0.02933584    1.1235434    1.0283599    1.1898542   -1.2345679            1 -0.047291791    1.1137457    1.2659018   -2.5215228 0.00057855496  0.013765834 -0.0010561309  -0.15725995    -0.113288  0.069373837        0.075    3.4706593        5e-08 7.7082041e-10    64.865952    2.5702601         70.1 0.00028109492 -0.0010473468 8.4280645e-05 0.00066325254  0.068705359   -9.8102304 
    2000    8.2160133    1.6570381    6.5589751 -0.037381306    1.1048179    1.0022629    1.1762437   -1.2345679            1   0.17555222    1.2764151    1.3525984   -2.1023568  0.002644638 -0.005480162 -0.0042234186  0.066841964   0.11123082  0.069370047        0.075    3.2302889        5e-08 7.707783e-10    64.869496    2.5715912         70.1 -0.0008173573 -0.00093113432 -4.7263086e-05 8.2733919e-05  -0.91897649   -14.425158 
    3000     7.602313    1.6976874    5.9046256 -0.044134893    1.1319205    1.0076825    1.2184079   -1.2345679            1   0.78400767    1.7125886    1.7016829   -1.0622484 -0.0068398816  0.033659551 -0.020136754   0.67140053   0.71933846  0.069365926        0.075    3.0349521        5e-08 7.7073251e-10     64.87335    2.5614257         70.1 0.0024292814 -0.0024385383 0.00031631884 0.00039857303    1.9472717     3.810699 
    4000    7.1268195    1.5426792    5.5841403 -0.048441844    1.0285699    1.0028652    1.0466173   -1.2345679            1   0.52374018    1.4106093    1.4719385   -1.3113273 -0.0044343764  0.023285062   0.02754842    0.4270102   0.45938012  0.069380412        0.075     2.882755        5e-08 7.7089346e-10    64.859805    2.5717694         70.1 -0.0010823124 -0.0040032216 0.00025980754 0.0014081374  -0.11579457   -9.6477562 
    5000    6.7146414    1.5734808    5.1411606 -0.059238685    1.0491066    1.0295297     1.062903   -1.2345679            1   0.68903336    1.5205595    1.5458883  -0.99934776 -0.0024102888 0.0081150634 0.0026777548   0.59079823   0.62296208  0.069337421        0.075    2.7456437        5e-08 7.7041578e-10     64.90002    2.5465411         70.1 4.4107054e-06 -0.0010235391 0.0009534734 0.0034483022    1.3138995   -6.2806066 
    6000    6.3736169     1.471803    4.9018139 -0.068582983   0.98131372    1.0220935   0.95318616   -1.2345679            1   0.72716771    1.5191216    1.5485394   -0.8861579  0.002324755 -0.017399629 -0.0036109588   0.63907277   0.66157365  0.069311226        0.075    2.6399557        5e-08 7.7012473e-10    64.924548    2.5290291         70.1 -0.00032520769 -0.0049701015 -0.0002230017 0.0014204716  -0.19594607   -2.9527485 
    7000    6.0978838    1.4738261    4.6240576 -0.079042549   0.98266263    1.0199916   0.95693154   -1.2345679            1   0.73691729    1.4900611    1.5265247  -0.80583399  0.003350116 -0.031907723 -0.020600061   0.64847621   0.67145813  0.069339886        0.075    2.5296895        5e-08 7.7044318e-10    64.897712    2.5452218         70.1 0.00037324697 -0.008887943 -0.0013935928 0.0093712274    1.6390261   -10.406693 
    8000    5.8348784      1.40908    4.4257985 -0.095636929   0.93949359   0.98523615   0.90791189   -1.2345679            1    0.8932948    1.5896778    1.6120735  -0.52186689 -0.0036308708 -0.0063032537 -0.026136088   0.80938418   0.83006611  0.069318336        0.075    2.4535498        5e-08 7.7020373e-10    64.917888    2.5436872         70.1 -0.0089263301  -0.02232466 -0.0015947396  0.014077215  -0.33064922     4.835931 
    9000    5.6279582    1.3647025    4.2632557  -0.11106085   0.90990528   0.99103717   0.85374403   -1.2345679            1   0.87689145    1.5294745    1.5727863  -0.47158648 -0.0073364951   0.01860252 -0.0072956881   0.79798712   0.81329048  0.069342822        0.075    2.3872035        5e-08 7.7047579e-10    64.894965    2.5509606         70.1 0.0017863221 -0.014143284 0.0046280125  0.016892614  -0.37133981   -3.3193922 
   10000    5.5008875    1.4303418    4.0705458  -0.12383428   0.95366975   0.99287128   0.92663277   -1.2345679            1   0.78659077    1.4764757    1.4845502  -0.60125359 0.0025298046 0.0023442991  0.000617845   0.70094994   0.72287209  0.069342343        0.075    2.3417484        5e-08 7.7047047e-10    64.895414    2.5512553         70.1  0.010391981 -0.033519673 -0.0033741285  0.037032459  -0.27714343   -8.1424435 
   11000    5.3596016    1.3614447    3.9981568  -0.13245085   0.90773316    1.0144657   0.83379475   -1.2345679            1   0.93722986    1.5494619    1.5762495  -0.31402186 0.0014943121  0.011534722 0.0055047714   0.86016927   0.87212533   0.06934866        0.075    2.2771817        5e-08 7.7054067e-10    64.889502    2.5447037         70.1 0.0036904641 -0.046510839 0.0015745041  0.047856663    0.7957398   -4.2057522 
   12000    5.2459119    1.3755862    3.8703257  -0.14350278   0.91716188   0.99925555   0.86033418   -1.2345679            1    1.0104828    1.6097695    1.6094395  -0.18776071 -0.0036351446  0.025411212 -0.019038434   0.93096936   0.94635437  0.069348027        0.075     2.232297        5e-08 7.7053363e-10    64.890094    2.5553096         70.1 0.0027047106 -0.063906977 -0.0027247105  0.048990794   0.59509005   0.68509869 
   13000    5.2184789    1.3460428    3.8724362  -0.15754857   0.89746402    0.9950594   0.82986835   -1.2345679            1   0.97296127    1.5585304    1.5746781  -0.21432462 -0.0030044109 0.0088106525  0.015240291   0.89626356   0.90910216  0.069326487        0.075    2.1875014        5e-08 7.702943e-10    64.910256    2.5566114         70.1 0.0066901036 -0.061205373 0.0093540671  0.076308454   -1.5115171   0.48337112 
   14000    5.1525826    1.3352596    3.8173231  -0.15006361   0.89027439      1.01587   0.80323438   -1.2345679            1    1.0370173    1.6110779    1.6088313  -0.10885726 -0.0025290669  0.018698572 -0.013682769   0.96278115   0.97182265  0.069345546        0.075    2.1639585        5e-08 7.7050607e-10    64.892416    2.5501832         70.1 0.0028663645  -0.07083029 0.0048771729  0.081066991  -0.44338156   -2.6404365 
   15000    5.1114763    1.3336278    3.7778485  -0.15025126   0.88918644    1.0109141   0.80483206   -1.2345679            1   0.93995813    1.5196865    1.5305489  -0.23036097  0.001277637 -0.0011218439 -0.0059095879   0.86557432   0.87508153  0.069360478        0.075    2.1298557        5e-08 7.7067198e-10    64.878445    2.5528104         70.1 0.0015285527 -0.075845069 -0.016963242  0.085797047  -0.25002866    1.9345743 
   16000    5.1161494    1.3254573    3.7906921  -0.14730964   0.88373882   0.99020033   0.80998399   -1.2345679            1    1.0261406     1.579003    1.5892421 -0.089823154 -0.0023514321 -0.017134243  0.013262583   0.95128066   0.96259335  0.069357371        0.075    2.1081195        5e-08 7.7063746e-10    64.881352      2.55934         70.1 -0.019299017 -0.086970431 0.0023595178   0.07295905   0.83405886   -2.8471512 
   17000    5.0597817    1.3260991    3.7336826  -0.16119179   0.88416672    1.0201831   0.78988954   -1.2345679            1   0.99697468    1.5596328      1.55968  -0.12838879  0.006008363 -0.050923751 -0.013519558   0.92397188   0.93150324  0.069344293        0.075    2.0869752        5e-08 7.7049214e-10    64.893588    2.5726271         70.1 -0.014256016 -0.094004128 0.0069298476   0.11776822    1.1663979  0.086993524 
   18000    5.0387342    1.2896584    3.7490758  -0.14849927   0.85987017   0.99283232   0.76770909   -1.2345679            1    1.1003333    1.6319082    1.6416323  0.027459508 0.0033503605 -0.057946154  -0.02343042    1.0293805    1.0366171  0.069354887        0.075    2.0646845        5e-08 7.7060986e-10    64.883676    2.5633925         70.1 -0.0087957533 -0.092449168 -0.0017343716  0.086109524  -0.64735037    3.4218491 
   19000    5.0770593    1.3221996    3.7548597  -0.15193044   0.88156677     1.007881    0.7940261   -1.2345679            1     1.021066    1.5854402    1.5782091  -0.10045115 0.0018391471 -0.048934887 -0.0048771726   0.94768093   0.95638409  0.069391133        0.075     2.053019        5e-08 7.7101259e-10    64.849784    2.5617344         70.1    0.0030219   -0.1035608 0.0033899449  0.061900061    1.1663437   0.64917146 
   20000    5.0266701    1.3075186    3.7191515  -0.14791084   0.87177833   0.99451801   0.78671787   -1.2345679            1    1.0181225    1.5753969    1.5653859   -0.0864153 0.00051783697 -0.037715387 -0.017363541   0.94541282   0.95429814  0.069331114        0.075    2.0271144        5e-08 7.7034571e-10    64.905924    2.5464168         70.1 0.0018965026 -0.085303539 0.0025290143   0.10239793   0.75847304  -0.43418514 
   21000    5.0314032    1.3065879    3.7248153  -0.15579874   0.87115781    1.0076963   0.77651554   -1.2345679            1    1.0500841    1.5975035    1.6021327 -0.049383804 0.00020867481 -0.014391613 -0.015748333   0.97831739   0.98541405   0.06932574        0.075    2.0176788        5e-08  7.70286e-10    64.910956    2.5520924         70.1 -0.0051267645 -0.077202095 0.0011131529  0.060861277    2.3886065   0.48692848 
   22000    5.0465382     1.299372    3.7471661  -0.15710041   0.86634666    1.0032708   0.77143564   -1.2345679            1    1.0517076    1.5966273    1.5963767 -0.037881308 0.0059589518  0.023868392 -0.028321676   0.98041031   0.98732149  0.069313914        0.075    2.0130108        5e-08 7.701546e-10     64.92203    2.5343452         70.1 -0.008163519  -0.11364051 -0.0034897344  0.095499854   0.99912876    1.2797094 
   23000    5.0346737    1.2885083    3.7461653  -0.15637569   0.85910337    1.0015475   0.76035796   -1.2345679            1     1.080855    1.6125899    1.6261842 0.0037908401 -0.0058483632  -0.01356187 -0.0091214166    1.0105815    1.0165795  0.069294724        0.075    2.0023768        5e-08 7.6994138e-10    64.940009    2.5283528         70.1 -0.0024716054 -0.089663031 -0.0050480299  0.098408322    2.0684805  -0.24371521 
   24000    5.0354205    1.2982599    3.7371606  -0.15833582   0.86560511     1.000849   0.77186074   -1.2345679            1    1.0052604    1.5594537    1.5619389  -0.10561131 0.0041895826 -0.011392309 0.0051737514   0.93392388   0.94102978  0.069339339        0.075    1.9871332        5e-08 7.704371e-10    64.898224    2.5480435         70.1 0.0029504721 -0.098569495 -0.00092906938  0.095008436 -0.089587579    2.6716332 
   25000    5.0441948    1.2900013    3.7541935  -0.14823382   0.86009878    1.0039815   0.76035465   -1.2345679            1      1.06308    1.6044609    1.5961708 -0.011391633 -0.009517359 -0.048258547 -0.0055709755   0.99280688   0.99864833  0.069368039        0.075    1.9748225        5e-08 7.7075599e-10    64.871374    2.5489705         70.1 0.0074007839  -0.10167925 0.0037482387   0.11099674   0.82092176  -0.76598593 
   26000    5.0387295     1.288256    3.7504735  -0.15808778   0.85893515    1.0114441   0.75320087   -1.2345679            1   0.96303166    1.5275518    1.5269882  -0.16544499 0.0026873632  -0.02423307  0.017456559   0.89341967   0.89812104  0.069377944        0.075     1.969634        5e-08 7.7086605e-10    64.862112    2.5649789         70.1 0.0062079171  -0.10088644 -0.00084678359  0.074873361    1.2282111   -5.4366343 
   27000    5.0105532    1.2801898    3.7303634  -0.15360839   0.85355706   0.99493731   0.75554934   -1.2345679            1    1.0808201    1.6179579    1.6166593 0.0078430216 0.0038082524 -0.022790162  0.017755631    1.0109911    1.0169688   0.06933529        0.075     1.960644        5e-08 7.7039211e-10    64.902014    2.5555561         70.1 -0.0015182652 -0.095823697 0.0046262812    0.1181143    1.8966674   -1.4025275 
   28000    5.0180583    1.3077992    3.7102591  -0.15779664    0.8719654    1.0008343   0.78264894   -1.2345679            1     1.090237    1.6295021    1.6283667  0.012842188 0.0010550027 -0.031968766  0.016797409    1.0179034    1.0260073  0.069359817        0.075    1.9507596        5e-08 7.7066464e-10    64.879064    2.5588727         70.1 0.0011380178  -0.11230559 -0.0035114864  0.093905792   0.44399466    2.7143456 
   29000     5.019297    1.2946129    3.7246842  -0.16197037   0.86317353    1.0029104   0.76630884   -1.2345679            1    1.0536539    1.5929434    1.5998711 -0.031852787 -0.00043641191 -0.053576514 -0.0064808619   0.98283046   0.98929095  0.069374279        0.075    1.9408994        5e-08 7.7082532e-10    64.865539    2.5476532         70.1 -0.010568007 -0.091024995 -0.0059340805  0.085857149    1.4993357    1.5308378 
   30000    5.0122496    1.2887828    3.7234668  -0.15712172   0.85928634    1.0189371   0.74859299   -1.2345679            1    1.0600761     1.599819    1.6092862 -0.028876806 0.0026330494 -0.034701048 0.0079754337   0.99089001   0.99468464  0.069365215        0.075    1.9381417        5e-08 7.7072461e-10    64.874015    2.5644908         70.1 -0.0056251185 -0.084943143 0.00085503031  0.084045347    3.6048401   -2.4753345 
   31000    5.0097558     1.295581    3.7141749  -0.15653184   0.86381898    1.0187571   0.75639887   -1.2345679            1    1.0401084    1.5884349    1.5932104 -0.061320025    0.0012768 -0.011949017 -0.0014521086   0.97020085   0.97472846  0.069327029        0.075    1.9331002        5e-08 7.7030032e-10    64.909748    2.5507824         70.1 0.0040442539  -0.10959919 -0.00031796396   0.10326282   0.43371776    1.3554231 
   32000    4.9857803    1.2817423     3.704038  -0.16528399   0.85459217   0.96948744   0.77497545   -1.2345679            1    1.0543795    1.5920787    1.6016783 -0.030618404 0.0026806249 -0.0068007846 -0.0045487188    0.9827551   0.99216152  0.069374066        0.075    1.9251478        5e-08 7.7082295e-10    64.865738    2.5735325         70.1 -0.00024295675  -0.08777645  0.004100665   0.11033179   -1.4558529  -0.76659505 
   33000    4.9960174    1.2765317    3.7194858   -0.1605034     0.851118   0.98652247   0.75725931   -1.2345679            1    1.0463767    1.5884048    1.5896983  -0.03897318 -0.00078407018  0.012666356  0.018261829   0.97638958   0.98306542  0.069325966        0.075    1.9276986        5e-08 7.7028851e-10    64.910744    2.5476441         70.1 -0.0024692405 -0.076166158 -0.0043561248  0.086230868     1.130933    1.6500231 
   34000      5.01705    1.2727502    3.7442998  -0.15466506   0.84859677   0.98808804   0.75189978   -1.2345679            1    1.0172792    1.5621741    1.5657179 -0.076054244 0.0031452998  0.015774176 -0.031912977    0.9477875   0.95386752  0.069302262        0.075    1.9176982        5e-08 7.7002514e-10    64.932945    2.5339271         70.1 -0.0015305327 -0.077523257 0.0076564553  0.094790408  -0.11259705      1.66556 
   35000    5.0314605    1.2825359    3.7489246  -0.15948146    0.8551213    1.0001396    0.7545877   -1.2345679            1   0.97489891    1.5276543    1.5331176   -0.1360752 -0.0012331541 0.00099580153 -0.014649335   0.90515876   0.91071378  0.069379037        0.075    1.9036323        5e-08 7.7087819e-10     64.86109    2.5565562         70.1 -0.0059089202   -0.1012285 -0.0070569619  0.090959331    1.2324272   -2.1941171 
   36000    5.0068282    1.2877787    3.7190495   -0.1577727   0.85861689    1.0014464   0.75960379   -1.2345679            1    1.0817092    1.6180978    1.6110643  0.015965556 -0.005863773 -0.029730806 0.0035805415    1.0115055    1.0174402   0.06938006        0.075    1.9066792        5e-08 7.7088956e-10    64.860134    2.5664018         70.1 -0.0073984299 -0.098072523 -0.0019481904  0.099559248   -2.5767841    2.5145682 
   37000    5.0024341    1.2849926    3.7174415   -0.1566007   0.85675929    1.0158711   0.74643965   -1.2345679            1    1.0397042    1.5822397    1.5818311 -0.044958154 -0.0063071681 -0.014130138  0.012888008    0.9707171   0.97450948  0.069361037        0.075    1.8924421        5e-08 7.7067818e-10    64.877923    2.5618904         70.1 -0.010798517  -0.10419456  0.012879566  0.096390564    0.1392077   -0.6367425 
   38000     5.034197    1.2764112    3.7577857  -0.14874348    0.8510377   0.98095777   0.76098729   -1.2345679            1     1.054078    1.5943607    1.5957755 -0.027902032 0.0059635451 0.0026735441 -0.034500966   0.98374643   0.99112393  0.069363513        0.075    1.9042561        5e-08 7.707057e-10    64.875607     2.569251         70.1 -0.019102718  -0.11345218 0.0044166521    0.1021229  -0.16611026    0.0736926 
   39000    5.0113083    1.2891597    3.7221486  -0.15935293   0.85953763    1.0204296   0.74798243   -1.2345679            1    1.0900016    1.6214806    1.6234333  0.025090862 -0.0023649064  -0.01887257 0.0075214098    1.0208719    1.0245143  0.069345795        0.075    1.8875374        5e-08 7.7050884e-10    64.892183    2.5633788         70.1 -0.00046028058 -0.072952001 0.0063338806  0.081352599   0.40535612    2.3298534 
   40000    4.9980037    1.2848444    3.7131593  -0.14862101   0.85666044    1.0023246   0.75567862   -1.2345679            1    1.0597171    1.6041383     1.596258 -0.021245057  0.002055539  0.044178403  0.020561489   0.98987608    0.9953917  0.069359837        0.075    1.8845023        5e-08 7.7066486e-10    64.879045     2.556142         70.1 -0.00094799023  -0.10183922 -0.0026272064  0.089153461   -1.9986752    1.3752496 
   41000    5.0304981    1.2850449    3.7454532  -0.15984536   0.85679414    0.9928055   0.76251513   -1.2345679            1    1.0805305    1.6170367    1.6053813  0.019173316 -0.0009947085  0.043602436 -0.0041409667    1.0100576     1.016816  0.069347668        0.075    1.8695713        5e-08 7.7052964e-10     64.89043    2.5411491         70.1 0.0019833086 -0.095160719 -0.0040069759   0.10477576  -0.95862309    2.5982385 
   42000    5.0098638    1.2668722    3.7429916  -0.14378191   0.84467765   0.98209984   0.74941665   -1.2345679            1    1.0214526    1.5575421    1.5730284 -0.066212512 0.0022172098  0.055896467 0.0011448572    0.9521904   0.95842523  0.069369615        0.075    1.8569077        5e-08 7.707735e-10      64.8699    2.5678317         70.1 0.0058304683  -0.10644335 0.0048952135  0.092289653   -2.9557148    1.2981618 
   43000    5.0155118     1.308836    3.7066758  -0.15694694   0.87265666     1.022647   0.76867391   -1.2345679            1    1.0858891    1.6102852    1.6250431  0.022338907 -0.0022656964  0.037429117  0.014451596     1.014847    1.0202595  0.069366333        0.075    1.8404936        5e-08 7.7073704e-10    64.872969     2.556871         70.1 -0.0097460755   -0.1028058 0.00045157345  0.073835262  -0.97308207  -0.43386819 
   44000    5.0384681    1.2831954    3.7552726  -0.14245912   0.85556103    1.0005368     0.755057   -1.2345679            1    1.0785789    1.6019646     1.607757  0.026015144 0.0033437315  0.032721353  0.015343726    1.0087954    1.0143683  0.069322563        0.075    1.8403337        5e-08 7.702507e-10     64.91393      2.54676         70.1 -0.0052956966  -0.10461333 0.0028892575   0.11516922    -3.191548    -2.687435 
   45000     5.006014     1.256212     3.749802  -0.15745169   0.83757002   0.97418406   0.74286881   -1.2345679            1    1.0252124    1.5652082     1.576882 -0.066453083 -0.0057465724  0.016061253 -0.031735716   0.95655532   0.96269299  0.069354616        0.075    1.8370826        5e-08 7.7060685e-10    64.883929    2.5550804         70.1  0.010200889  -0.11067661 0.0033443644  0.094320864   -1.4252062  -0.69355632 
   46000    5.0204696    1.2961536    3.7243159  -0.15933994    0.8642008    1.0198724   0.75627141   -1.2345679            1    1.0551525    1.5953771    1.5968897 -0.026809267 0.0061179086  0.065208307 -0.0026079849   0.98525676   0.98970102  0.069322577        0.075    1.8429295        5e-08 7.7025086e-10    64.913917    2.5332702         70.1 0.0022420353 -0.099856383 0.0028025599   0.07453657    -1.585332  -0.46620234 
   47000    5.0165128     1.296623    3.7198898  -0.15954988   0.86451377    1.0132377   0.76140885   -1.2345679            1    1.0636827    1.6019423    1.6015254  -0.01241946 -0.002337198   0.01657772 0.0088759774   0.99331214     0.998657  0.069345399        0.075     1.834211        5e-08 7.7050443e-10    64.892553    2.5687307         70.1 -0.0017817114 -0.085626478 0.0078969512  0.094745856   0.48025155    2.1879825 
   48000    4.9971858     1.275478    3.7217078  -0.16088123    0.8504155   0.96568701   0.77053672   -1.2345679            1    1.0009513    1.5571352    1.5494861  -0.10376739 0.0026138221  -0.03443794  0.026628446    0.9297371   0.93897719  0.069332983        0.075    1.8292517        5e-08 7.7036648e-10    64.904174    2.5523917         70.1 0.0088464224  -0.10347177 -0.014300537  0.099367853      1.51181   -2.7678065 
   49000    4.9683947    1.2576657     3.710729  -0.15670554   0.83853926   0.98758701   0.73520444   -1.2345679            1    1.0914972    1.6068037     1.622088  0.045600043 0.0010242113 -0.015196515  0.018680648    1.0235485    1.0281177  0.069308527        0.075    1.8305136        5e-08 7.7009475e-10    64.927076    2.5398915         70.1 0.0031380054 -0.092354895  0.013589034   0.11078628   -0.5330949    1.5844031 
   50000    4.9848944    1.2661739    3.7187206  -0.15899562   0.84421203   0.98795491   0.74456194   -1.2345679            1    1.0706368    1.6017208    1.5942137  0.015975887 -0.0052166516 0.0007135026 0.0080866766    1.0018232    1.0072336  0.069306039        0.075    1.8418867        5e-08 7.700671e-10    64.929406    2.5411292         70.1 -0.0047907802  -0.11669406 -0.0057668863  0.094610468   -0.2069984  -0.98303382 
   51000    4.9902534    1.2693464     3.720907  -0.15453894    0.8463273   0.98010774   0.75359538   -1.2345679            1    1.0827821    1.6118531    1.6130831  0.023409906 -0.010884484 -0.0077592905 -0.0048251411    1.0131336    1.0198825  0.069315049        0.075    1.8437538        5e-08 7.7016721e-10    64.920967    2.5349784         70.1 0.0057363446 -0.085968499 -0.0042703069   0.11148548  -0.22857791   -1.3674573 
   52000    4.9978521    1.2567011    3.7411509  -0.15676719   0.83789614   0.98542138   0.73561842   -1.2345679            1    1.0297519    1.5777272    1.5742999 -0.062771351 0.0085791994 -0.006968238 -0.042034459   0.96176493   0.96651135  0.069374275        0.075    1.8329429        5e-08 7.7082527e-10    64.865543    2.5684753         70.1 0.0076072445 -0.082728428 -0.004626758  0.094163473     -1.01664  0.061049348 
   53000    4.9799867    1.2769537     3.703033  -0.15600162   0.85139941   0.99008796   0.75526036   -1.2345679            1    1.0348408    1.5777726     1.574199 -0.047449168 0.0020930875  0.028237688 -0.022383816   0.96503849   0.97130075  0.069329841        0.075    1.8296001        5e-08 7.7033156e-10    64.907116    2.5370265         70.1 0.0012200252 -0.099794548 -0.0033822271  0.078084404   0.85709869  -0.97663785 
   54000    4.9945211    1.2725897    3.7219314  -0.15029483   0.84848976   0.99333531   0.74807481   -1.2345679            1    1.0502526     1.586777    1.5857608 -0.021780136 -0.0004544748 0.0011324442 -0.0041626704   0.98111432   0.98650409  0.069372145        0.075    1.8260579        5e-08 7.7080161e-10    64.867535    2.5563576         70.1 0.00093856332  -0.12138504 -0.003455328  0.091535339  -0.33258484   0.53584316 
   55000    4.9733727    1.2645798    3.7087928  -0.15574886    0.8431492    1.0007014   0.73390988   -1.2345679            1    1.0408867     1.586867    1.5794763  -0.04368312 -0.0049874993 0.0016715148 -0.0032001246   0.97305764   0.97666553  0.069315452        0.075    1.8330247        5e-08 7.7017168e-10     64.92059    2.5580135         70.1 0.0099114995  -0.10905848 0.0026893469   0.10459957    1.1723724   -1.9571333 
   56000    5.0188446    1.2765868    3.7422578  -0.15707577   0.85115477   0.99644638    0.7504306   -1.2345679            1    1.0501429    1.5793109    1.5804261 -0.0093082942 -0.0051247288 0.0098453628 -0.0063422462   0.98078694   0.98619477  0.069304801        0.075    1.8311616        5e-08 7.7005334e-10    64.930567    2.5184368         70.1 -0.0058029273 -0.089625104 -0.0042202864   0.13818162   0.69041354   0.41806425 
   57000    4.9899709    1.2640591    3.7259118  -0.15831394   0.84280201   0.98277502   0.74576938   -1.2345679            1    1.0160345    1.5656784    1.5659278 -0.083502848 -0.0020425206  0.048237887   0.01607971    0.9471093   0.95296372  0.069377938        0.075    1.8310625        5e-08 7.7086598e-10    64.862118    2.5673397         70.1 4.7158641e-05  -0.11811582 -0.0077287335     0.124576    1.3632379   -1.2452493 
   58000      4.97897    1.2604869     3.718483  -0.15868015   0.84042031    0.9851486   0.74008523   -1.2345679            1    1.0868193    1.6170185    1.6082173  0.035222228 0.00021413552  0.040795011  0.030115635    1.0184195    1.0235963  0.069356639        0.075    1.8439795        5e-08 7.7062932e-10    64.882037    2.5432039         70.1 0.0078730872 -0.092430607 0.00083855629   0.11204062   0.66083479    3.1180873 
   59000    5.0154635      1.29317    3.7222935  -0.15449983   0.86221152    1.0091406   0.76035245   -1.2345679            1    1.0918533     1.613189    1.6150729  0.047297883 -0.0063985637  0.089226079 -0.0070684818    1.0215803    1.0270905  0.069347721        0.075    1.8387701        5e-08 7.7053023e-10    64.890381    2.5639962         70.1 -0.0021840777  -0.12089334 0.0033229105   0.10988573   -1.6996831     1.077709 
   60000    5.0508519    1.2832237    3.7676282  -0.14653509   0.85557987    1.0048054   0.75212492   -1.2345679            1    1.0472177    1.5888088    1.5998842 -0.047039987 0.0087906517  0.039794946  -0.03050922   0.97770512   0.98273309  0.069343374        0.075    1.8182656        5e-08 7.7048193e-10    64.894448    2.5331899         70.1 -0.0017542915  -0.12838381 0.0049361033  0.078495536  -0.32923848   0.27309198 
   61000    5.0016354    1.2758272    3.7258082  -0.15480782   0.85064829     1.001273   0.74622082   -1.2345679            1    1.0263227    1.5713237    1.5769048 -0.069260506 -9.1328838e-05  0.044328311 -0.0047132829   0.95735579    0.9620648  0.069331372        0.075    1.8260288        5e-08 7.7034858e-10    64.905682    2.5420652         70.1 0.0022716154  -0.10026616    0.0113654   0.11068836  -0.79628453   0.55651258 
   62000    5.0140492    1.2880062     3.726043  -0.16727912   0.85876857    1.0135263   0.75147275   -1.2345679            1    1.0454537    1.5900804    1.5894401 -0.043159334 0.00057090248 0.0043560265 -0.011644269   0.97600144   0.98040947  0.069363931        0.075    1.8155584        5e-08 7.7071035e-10    64.875216    2.5599519         70.1 0.0083031653 -0.093011861 -0.004865167   0.10079344   0.95321239   0.61014116 
   63000    5.0087972    1.2743282     3.734469  -0.15518318   0.84964888     1.012433   0.73677784   -1.2345679            1    1.0927269    1.6268835    1.6108105  0.040486652 -0.0043917081 0.0039355793  0.038567903    1.0246328    1.0277528  0.069349723        0.075    1.7967133        5e-08 7.7055247e-10    64.888508    2.5604204         70.1  -0.01194123  -0.11072744 0.0018205911  0.094245515  -0.71199695   -0.1038375 
   64000    5.0047743    1.2904017    3.7143726  -0.14136094   0.86036575    1.0207519   0.74916193   -1.2345679            1    1.1268149    1.6547171     1.643379  0.082348488 -0.0065524659  0.011721368 0.0030472933    1.0575762    1.0613069  0.069382529        0.075     1.792139        5e-08 7.7091699e-10    64.857826     2.557743         70.1 0.0062841318  -0.10236519  0.012688851  0.093143469   -1.1540548    0.3521807 
   65000    5.0270601    1.2822553    3.7448048  -0.15174726   0.85493421    1.0002867   0.75416853   -1.2345679            1    1.0315231    1.5725135    1.5670634 -0.045007409 -0.0028803347  0.015515203   0.01145527   0.96182173   0.96732857  0.069324002        0.075    1.7780517        5e-08 7.7026669e-10    64.912583    2.5438014         70.1 -0.0033537947 -0.096244327  0.017240649   0.09731178 -0.020132221    1.4142799 
   66000    4.9848377    1.2701828    3.7146549   -0.1540675   0.84688493   0.99056954   0.74727581   -1.2345679            1    1.0593921    1.5977719    1.5938901 -0.013485555 -0.0034834789 -0.033696254 -0.0032105333   0.99032776   0.99582117  0.069335349        0.075    1.7773214        5e-08 7.7039276e-10     64.90196     2.550685         70.1 0.00087406924 -0.087550245 0.0063681729  0.079653344    1.0093701  0.021819925 
   67000    5.0069582    1.2763912    3.7305671  -0.15857292   0.85102433   0.97526123   0.76492022   -1.2345679            1     1.023549    1.5762663    1.5697063 -0.075325462 0.0024769853 -0.015692972 -0.004584408   0.95285392   0.96096048   0.06937252        0.075    1.7675919        5e-08 7.7080578e-10    64.867183    2.5698143         70.1 0.0044809753  -0.10029885 0.0055805692  0.090209576   0.54353656   -1.7408716 
   68000    4.9618232    1.2558905    3.7059327  -0.15963081   0.83735566   0.97795272   0.73988866   -1.2345679            1    1.1100906    1.6275235    1.6377294  0.065018949 0.0038695266 -0.010639558  0.016548778     1.041709    1.0473293  0.069360617        0.075    1.7767084        5e-08 7.7067352e-10    64.878316     2.560938         70.1 -0.00021242852 -0.097581229 -0.0069355515   0.10502565  -0.11985471    1.1301359 
   69000    5.0114311    1.2771159    3.7343152  -0.15790268   0.85150756   0.99096625   0.75483376   -1.2345679            1   0.96615587    1.5289616    1.5241402  -0.15463416 -0.0077695144  0.012812944 -0.036423546   0.89639297   0.90255944  0.069346275        0.075    1.7856444        5e-08 7.7051417e-10    64.891734    2.5620077         70.1 0.00063354606 -0.088207539 -0.0054442562   0.11192376   -0.8369608   -1.1338952 
   70000    4.9910265    1.2833205    3.7077061  -0.16314198   0.85564439    1.0149378   0.74519841   -1.2345679            1    1.0345812     1.571404    1.5745556 -0.042216015  -0.00403238 -0.038355648 -0.030364166   0.96570882   0.96944637  0.069362066        0.075    1.7939321        5e-08 7.7068963e-10     64.87696    2.5632674         70.1 -0.0048583879  -0.13113674 -0.0012272244    0.1017431   0.58218817   -1.2304006 
   71000    4.9682887    1.2677276    3.7005611  -0.15324956   0.84524796    1.0023633   0.73631243   -1.2345679            1    1.0599495    1.5955232    1.6025135 -0.018188124 0.0023109416 0.0027482751   0.01272301   0.99189841   0.99562169  0.069340388        0.075    1.7786236        5e-08 7.7044876e-10    64.897243    2.5380608         70.1  0.011825253 -0.088471526 -0.0047536786  0.094924391  -0.76189301  -0.83040803 
   72000    4.9877358    1.2765404    3.7111954  -0.15754153   0.85112382   0.99622152    0.7505343   -1.2345679            1    1.0202806    1.5611555    1.5608395 -0.061153305 0.00011942477 -0.016477053 0.0066356536   0.95091505    0.9563469  0.069363388        0.075    1.7864376        5e-08 7.7070432e-10    64.875723    2.5652635         70.1 0.0081609065  -0.10325356 -0.0088033208  0.080989373   0.58088939   0.10646656 
   73000    4.9727369    1.2756602    3.6970767  -0.15909306   0.85053699   0.98499593   0.75733475   -1.2345679            1    1.0632224    1.5939059    1.6015129 -0.0057514919 -0.0014369156 0.0096016586  0.045414274    0.9932284    1.0000092  0.069365737        0.075    1.7965944        5e-08 7.7073041e-10    64.873527    2.5686297         70.1 -0.013121196 -0.096950707 -0.0049080916  0.098755202   0.24874248   0.85961597 
   74000    4.9743661    1.2775312    3.6968349   -0.1522287   0.85178442    1.0011007   0.74826568   -1.2345679            1    1.0147324    1.5621122    1.5679056 -0.085820741 0.0036542848  0.036602051 0.0032969372    0.9455765   0.95048555  0.069333446        0.075    1.7973473        5e-08 7.7037162e-10    64.903741    2.5439449         70.1 -0.0025017193 -0.098133521 0.00045251361  0.090881725     -1.48525   -2.9702535 
   75000    4.9887297    1.2707694    3.7179603  -0.15681727   0.84727606   0.97854086   0.75629116   -1.2345679            1     1.065069    1.6021519    1.5983187 -0.0052634081 0.0057713435 0.0090053803 -0.010084602   0.99517145      1.00227   0.06938044        0.075     1.814573        5e-08 7.7089378e-10    64.859779    2.5728802         70.1  0.013314395  -0.10415207 0.0025693403  0.097838816   -1.1302792   0.16157898 
   76000    5.0292608    1.2853281    3.7439327  -0.16170271   0.85698294    1.0067911   0.75312365   -1.2345679            1    1.0379019    1.5758325    1.5782117 -0.040338452 0.0020099912  0.037066821 -0.011523347   0.96829707   0.97328991  0.069338513        0.075    1.8079544        5e-08 7.7042792e-10    64.898998    2.5444168         70.1 -0.002606779  -0.10709689 -0.00010814558   0.10983649   0.42885752     1.264854 
   77000     5.023653    1.2684421    3.7552109  -0.15740421   0.84572434   0.96767363    0.7612077   -1.2345679            1    1.0337955    1.5775008    1.5771342 -0.053248595 0.0050746553  0.060153829  0.013894137   0.96344349   0.97169388  0.069342546        0.075    1.8117144        5e-08 7.7047273e-10    64.895224    2.5579092         70.1 -0.0039365797  -0.10028204 -0.008995306  0.093886662   -2.5041862   -1.6241737 
   78000    5.0147377    1.2889325    3.7258052  -0.14953058   0.85938619    1.0127085   0.75308722   -1.2345679            1    1.0955271    1.6244147    1.6194722  0.042694294 9.6391447e-05 0.0087106766 0.0070382753    1.0259256    1.0305353  0.069348137        0.075    1.8065137        5e-08 7.7053485e-10    64.889992    2.5453291         70.1 0.0085312875  -0.11175452 -0.008242404   0.10420382   -2.0204938    1.9362963 
   79000    5.0010597    1.2926943    3.7083654  -0.15070083   0.86189433    1.0038783   0.76346899   -1.2345679            1    1.0472352    1.5858017    1.5963695 -0.040465743 -0.0080180556  0.016989113 -0.034896805   0.97667419    0.9828101  0.069333713        0.075    1.8055226        5e-08 7.7037459e-10     64.90349    2.5487799         70.1   0.01745072 -0.098445274 -0.012799173  0.096946075    0.1469975  0.054036197 
   80000    4.9944462    1.2775835    3.7168627  -0.15685063    0.8518193   0.98463703   0.75975694   -1.2345679            1    1.0354648    1.5785954    1.5703837 -0.042584696 -0.0070723244 -0.052077823 -0.0081696948   0.96524689   0.97227456  0.069360292        0.075    1.7982107        5e-08 7.7066991e-10     64.87862    2.5692577         70.1 0.0084237159  -0.10358373 0.0079280251   0.11109989  -0.35111412   0.53987785 
   81000    5.0435172    1.3058842     3.737633   -0.1556806   0.87068858    1.0020828   0.77961834   -1.2345679            1    1.0612516    1.5917187    1.6007362 -0.0087002611 0.0041608525  -0.01570872 0.00040030614   0.98919803   0.99694171  0.069342248        0.075    1.7895795        5e-08 7.7046943e-10    64.895502    2.5493029         70.1  0.003509481 -0.087483228 0.0080483932  0.092279266  -0.35433809    1.0645455 
   82000    4.9866021    1.2585428    3.7280593  -0.15065961   0.83912405   0.98232971   0.73984601   -1.2345679            1    1.0150882    1.5533217     1.554001 -0.062058065 0.0042249046 -0.047189772  0.016363602    0.9467105   0.95204604  0.069379811        0.075    1.7771037        5e-08 7.7088678e-10    64.860367     2.577357         70.1 -0.0070898487  -0.10741924 0.00093224476   0.11929912  -0.16052343   -1.8934684 
   83000    5.0088316     1.286326    3.7225055   -0.1518729   0.85764833    1.0064588     0.754482   -1.2345679            1    1.0206602    1.5696087    1.5627558 -0.070383914 -0.0091033424 -0.057463611  0.032718718   0.95092978    0.9560695  0.069359353        0.075    1.7718617        5e-08 7.7065948e-10    64.879498    2.5751677         70.1 -0.0085574028  -0.10814688 0.0025878047   0.08657398    1.0724923   -2.6846773 
   84000    4.9790357    1.2800013    3.6990345  -0.15669319   0.85343134    1.0211619   0.73712633   -1.2345679            1     1.114923    1.6347755    1.6417704  0.068223112 0.0012510552 -0.043168334 0.0098780299    1.0467966    1.0493887  0.069331437        0.075    1.7663665        5e-08 7.703493e-10    64.905621    2.5453011         70.1 0.0027013448 -0.080224028 0.0019737589   0.09535582  -0.42233117   0.49910571 
   85000    5.0127575    1.2963748    3.7163828  -0.15675619   0.86434824   0.99665022   0.77264643   -1.2345679            1    1.0190928    1.5569631    1.5677215 -0.067406172 0.0044073582 -0.020066976 -0.012760386   0.94768366   0.95513163  0.069347385        0.075    1.7655599        5e-08 7.705265e-10    64.890695    2.5507803         70.1 0.0085407295  -0.10131347 0.00077529765   0.10248319   0.22720513   0.34954059 
   86000    5.0057746    1.2652587    3.7405158  -0.14740891   0.84360187   0.97530671   0.75231071   -1.2345679            1    1.1259662     1.643586    1.6494198  0.084892803 0.00093061697 -0.022102625 -0.0067799313    1.0564365    1.0633748  0.069355246        0.075    1.7596737        5e-08 7.7061384e-10     64.88334    2.5612016         70.1 0.0019470179  -0.11662527 0.0035727559   0.11246131    -1.478052    4.9337649 
   87000    5.0048209    1.2681825    3.7366383  -0.16041033   0.84555129    1.0015585   0.73738526   -1.2345679            1    1.0745125    1.6028325    1.6081026  0.012602465  0.001152432 0.00088976599 -0.019138093    1.0063622    1.0102363  0.069318333        0.075    1.7487921        5e-08 7.702037e-10    64.917891    2.5482871         70.1 -0.0067359074 -0.089967873 -0.0055242905   0.11336829  -0.81107203   0.13010616 
   88000    4.9907628    1.2779087    3.7128541  -0.15671554   0.85203614    1.0070897   0.74453361   -1.2345679            1     1.053515    1.5917388    1.5917164  -0.02291003 -0.002517828  0.041557644 0.00088211296    0.9847041   0.98888387  0.069339547        0.075    1.7452261        5e-08 7.7043941e-10     64.89803    2.5440315         70.1 0.0047027158  -0.10444085 -0.0099615182   0.10944677   0.44647697    1.4292528 
   89000    4.9705371     1.263202    3.7073351  -0.15959158   0.84223055    1.0056584   0.72891112   -1.2345679            1    1.0281819    1.5595847    1.5794274 -0.054466583 0.0043823036   0.03202948 -0.0087950543   0.96081476   0.96364254  0.069331077        0.075    1.7447037        5e-08 7.703453e-10    64.905958    2.5465538         70.1 -0.004036976 -0.093711662 -0.0011608849   0.11429055  -0.55453461   -1.6686729 
   90000    4.9913693    1.2712928    3.7200765  -0.14885034   0.84762502    1.0006309   0.74154352   -1.2345679            1     1.035574    1.5811734    1.5715578 -0.046009149 -0.0007630985  0.020077346 0.0085203178   0.96703942   0.97135736  0.069394821        0.075    1.7382607        5e-08 7.7105357e-10    64.846338    2.5738691         70.1 -0.011476377 -0.095678386 0.0086975343  0.089183655  0.019014832   -1.9067601 
   91000    5.0038489     1.284098     3.719751  -0.15325048   0.85616277    1.0031615   0.75425417   -1.2345679            1    1.0268932    1.5731799    1.5652208 -0.057720988 -0.0014771305  0.023151802 -0.038994944    0.9571839   0.96251416  0.069343025        0.075    1.7429297        5e-08 7.7047806e-10    64.894775    2.5512468         70.1 0.0012453439  -0.11488279 0.0055124859   0.10377611    1.3309859   -2.4752701 
   92000    5.0437523     1.315645    3.7281073  -0.15764825   0.87719655    1.0306557   0.77080599   -1.2345679            1    1.0655629    1.5984285    1.5932906 0.0049696721 -0.0020163779 -0.0084161015 -0.023402783   0.99432385   0.99941938  0.069316777        0.075    1.7317669        5e-08 7.7018641e-10    64.919349    2.5432287         70.1 -0.0056617512  -0.10335202 -0.0098242161  0.083870265    2.3174403   0.90879072 
   93000    5.0220304    1.2809827    3.7410477  -0.15264548    0.8540857    1.0014726   0.75190715   -1.2345679            1    1.0579565    1.5898607    1.5978751 -0.013866342 0.0033465719 -0.022683593 0.0070222709   0.98846404   0.99368578  0.069334419        0.075    1.7246717        5e-08 7.7038243e-10     64.90283    2.5526322         70.1 -0.0092587056  -0.11104662 0.0063392157  0.097523741    2.2472396   -2.4726333 
   94000    5.0029355    1.2796669    3.7232687   -0.1596022   0.85320837   0.98019062   0.76519835   -1.2345679            1    1.0633309    1.5940668    1.5977608 -0.0018348351 0.0010085425 -0.033760914 -0.016138275   0.99261012     1.000426    0.0693619        0.075    1.7286898        5e-08 7.7068777e-10    64.877116    2.5628156         70.1 0.0010535653 -0.093254563 0.0080368128   0.10870402    1.5635987    0.3565233 
   95000    5.0281849    1.2858397    3.7423452  -0.15568279   0.85732406   0.99496249   0.76191535   -1.2345679            1    1.0523791    1.5927546    1.5952337 -0.030851051 -0.0011344369 -0.016792185  0.012643337   0.98196169   0.98852619  0.069363868        0.075    1.7340658        5e-08 7.7070965e-10    64.875275    2.5656255         70.1 -0.0061359473  -0.09563939 -0.012722698   0.10762242   0.12985494    3.2536015 
   96000    4.9631249    1.2721489     3.690976   -0.1537624   0.84819582   0.98934565   0.75034708   -1.2345679            1    1.0567266    1.5958452    1.5981173  -0.02378263 0.00011666395 -0.021426708 -0.012333489    0.9873784   0.99323422  0.069356878        0.075    1.7275248        5e-08 7.7063198e-10    64.881813      2.56126         70.1 -0.007409452  -0.10310209 -0.010149823   0.10646292    1.0205612    -1.216595 
   97000    5.0090662    1.2764044    3.7326618  -0.15086791   0.85103317   0.99639647    0.7502592   -1.2345679            1      1.03718    1.5744412    1.5795945 -0.042495823 0.0089712234  0.017176251 -0.019454315   0.96783985   0.97323504  0.069348152        0.075    1.7306793        5e-08 7.7053502e-10    64.889977    2.5677925         70.1 -0.0022742167  -0.10431665 0.0021826727    0.1282948   0.89610473   -4.0612018 
   98000    4.9812377     1.264676    3.7165617  -0.16060659   0.84321336    1.0021075   0.73304223   -1.2345679            1    1.0301257    1.5686335    1.5605058 -0.038762151 0.0027727124  0.011788145 -0.017783714   0.96237683   0.96581429   0.06936984        0.075    1.7278226        5e-08  7.70776e-10     64.86969    2.5543566         70.1 0.0036133745  -0.11215537 0.0011851124  0.097922266  -0.46702749   0.24823337 
   99000    5.0095295     1.273087    3.7364425  -0.15390398    0.8488213     1.017948   0.73154596   -1.2345679            1    1.0150107    1.5664855    1.5539652 -0.075418689 0.00059802334 -0.011043762 -0.011110887   0.94740008   0.94968267  0.069387081        0.075    1.7155162        5e-08 7.7096756e-10    64.853572    2.5724064         70.1 -0.0041872419 -0.096539316 0.0026069072    0.1227484  -0.42053204   -2.6935351 
  100000    4.9933191    1.2747691      3.71855  -0.16247653   0.84994285    1.0043545   0.74288565   -1.2345679            1     1.031031    1.5715253    1.5785986 -0.057030859 -0.0020511367  0.050656515 0.00055349353   0.96237238   0.96657539  0.069369097        0.075    1.7240935        5e-08 7.7076775e-10    64.870384    2.5484285         70.1 -0.00062738354 -0.068386389 -0.010914248   0.13194974   0.53667371  -0.60268135 
  101000    4.9740945    1.2520985     3.721996  -0.15469698   0.83482736   0.98255169    0.7324108   -1.2345679            1    1.0215925    1.5661725    1.5629167 -0.064311624 -0.0058793924 -0.040724121 -0.0076717487     0.953902   0.95853613  0.069343248        0.075    1.7346204        5e-08 7.7048054e-10    64.894566    2.5545857         70.1 -0.0034935855  -0.10238966 0.00081829926   0.10061279   0.80875026   -2.3922746 
  102000    5.0133387    1.2852913    3.7280474  -0.15029154    0.8569584    1.0062583   0.75345207   -1.2345679            1    1.0575907    1.5885251    1.5941417 -0.0098948694 0.0013006505 -0.047770836 0.0084779169   0.98795545   0.99301285  0.069314923        0.075     1.731344        5e-08 7.7016582e-10    64.921084    2.5406875         70.1 0.00097894081 -0.088650008 0.0015736545   0.10725151    1.3524401   -0.9894097 
  103000    5.0142806    1.2990802    3.7152004  -0.16058708   0.86615209    1.0300351   0.75252122   -1.2345679            1    1.0142157    1.5689691    1.5564711 -0.082793029 0.0015731543 -0.028589229 0.0011074754   0.94466654   0.94811199  0.069383594        0.075    1.7199162        5e-08 7.7092882e-10    64.856831    2.5731067         70.1 0.0072809535 -0.081627806 -0.0021644435   0.12627204  -0.25201528   0.48328458 
  104000    5.0365464    1.2995828    3.7369636  -0.15177953   0.86648721    1.0088494   0.76780011   -1.2345679            1    1.0525212    1.5961143    1.5851997 -0.023750441 0.0028058327 -0.021328718  0.010057049   0.98155993    0.9877771  0.069353525        0.075    1.6995499        5e-08 7.7059472e-10     64.88495    2.5667921         70.1 0.0030673846  -0.12413829 -0.0045478239   0.11683618    1.3444851   -1.0822203 
  105000     4.990072    1.2879753    3.7020967  -0.15659092   0.85874795    1.0052041   0.75721659   -1.2345679            1     1.078731    1.6116644    1.5984931  0.026035605 -0.0026193906 -0.040266888 -0.020310515    1.0087479    1.0142209  0.069339334        0.075    1.7029881        5e-08 7.7043704e-10    64.898229    2.5437834         70.1 0.0041784566  -0.10569648 -0.0049014094    0.0839787    1.3317794   -2.8268116 
  106000    4.9978462    1.2686015    3.7292447  -0.15327621   0.84583063     1.001562   0.73785622   -1.2345679            1     1.034605    1.5739051    1.5602977 -0.030387901 -0.0047485765 -0.014900056  0.015585975   0.96641115   0.97032854  0.069345998        0.075     1.708818        5e-08 7.7051109e-10    64.891993    2.5285007         70.1 0.0010723003  -0.10568729 0.0046854615   0.10054885  0.027326096  -0.43152633 
  107000    5.0083816    1.2808141    3.7275675  -0.15860322   0.85397331    1.0267178   0.73418678   -1.2345679            1    1.0662632    1.6070242    1.5848104 0.0069549233 0.0029856172 -0.00086601262  0.036783473   0.99840849    1.0003723  0.069347531        0.075    1.7011894        5e-08 7.7052812e-10    64.890558    2.5550222         70.1  0.002201116  -0.10730622 -4.2022451e-05   0.12581391    3.3778509   0.21846168 
  108000    4.9966487    1.2943743    3.7022744  -0.15589559   0.86301443    1.0271942   0.74917689   -1.2345679            1    1.0727553    1.6090567    1.5942713  0.014937982 -0.0036081317  0.027147239 -0.0072837583    1.0035153    1.0068339  0.069331649        0.075    1.6978415        5e-08 7.7035165e-10    64.905423    2.5631802         70.1 3.9966715e-05 -0.095107657 -0.00036537579   0.13919005  0.050432356  -0.65375939 
  109000    4.9996608    1.2783369    3.7213239   -0.1543193   0.85232165   0.98943565   0.75727612   -1.2345679            1    1.0738185    1.6028039    1.5957991   0.02285236 0.00026789199 0.0074638448  0.015194229    1.0038298    1.0103203  0.069329655        0.075    1.7008846        5e-08 7.703295e-10     64.90729    2.5375984         70.1  0.001224116  -0.10796121 -0.00072534635   0.11446031   0.38040745    2.2610438 
  110000    4.9929835    1.2636379    3.7293457  -0.16099149   0.84252115   0.98827591   0.74147371   -1.2345679            1    1.0455413    1.5835904    1.5861098 -0.033076253 -0.0042391548  0.035400522 -0.016050329   0.97701317   0.98211754  0.069366685        0.075    1.6995526        5e-08 7.7074094e-10     64.87264    2.5658331         70.1 -0.0019780853 -0.096929167  0.010011721   0.10260607   0.75071393   0.46412225 
  111000    4.9823454     1.254577    3.7277684  -0.15661062   0.83647987   0.98384626   0.73431218   -1.2345679            1    1.0208707    1.5551349     1.556817 -0.049339807 0.0016243056 0.0080669907  0.015539547   0.95300443    0.9577312  0.069352105        0.075    1.6867361        5e-08 7.7057894e-10    64.886279    2.5631956         70.1 0.00082990905  -0.11567489 -0.0041316577   0.11558758  -0.42619913   -3.1147058 
  112000    5.0050931    1.2760805    3.7290126  -0.15169068    0.8508172    1.0081454   0.74173496   -1.2345679            1    1.0894379    1.6239407    1.6122024  0.032170506 0.0022163698 -0.016394414 0.0044123557    1.0208856     1.024739  0.069348017        0.075    1.6868292        5e-08 7.7053353e-10    64.890103    2.5477849         70.1 -0.019762253  -0.11665443 -0.00082907292   0.10320055 -0.060438737    1.5452764 
  113000    4.9923802    1.2800952     3.712285  -0.15204945   0.85349398   0.99062474   0.75843704   -1.2345679            1    1.0757446    1.5984156    1.6023271  0.026491232 0.00051205489 -0.031726902 0.0080828978    1.0056487    1.0121701  0.069351531        0.075    1.6864039        5e-08 7.7057257e-10    64.886815    2.5509687         70.1 0.0062067881  -0.11619874 -0.0099388293   0.09885018   -0.2094207    2.9516421 
  114000    5.0139411    1.2894845    3.7244566  -0.14866945   0.85975419    1.0119324   0.75424973   -1.2345679            1    1.0635908     1.601287    1.5937565 -0.0042709888 -0.0044109612 -0.030086933 -0.016081932    0.9938819   0.99864887  0.069318792        0.075     1.675714        5e-08 7.702088e-10    64.917461    2.5291561         70.1 -0.0034349534  -0.11926698 -0.0027612559   0.10733799   -1.2537059  0.013590536 
  115000    5.0074083    1.2822558    3.7251525  -0.15675573   0.85493454    1.0075681   0.74911293   -1.2345679            1    1.0721244     1.609217    1.6054502  0.001706166 -0.0074707028 -0.031751409 -0.010791587    1.0028903    1.0074626  0.069371533        0.075    1.6834451        5e-08 7.7079482e-10    64.868106    2.5626778         70.1  0.014053041  -0.11649178  -0.01453998   0.11915143    0.6654086   0.73805694 
  116000     5.003018    1.2908823    3.7121357  -0.15214888   0.86068621    1.0218718   0.74892736   -1.2345679            1    1.0657142    1.5990228    1.5907705 0.0073492728 0.0035998322  0.014917317 -0.00025676555   0.99649719    1.0001344  0.069337444        0.075    1.6741907        5e-08 7.7041605e-10    64.899998    2.5437251         70.1 -0.0060668253  -0.13497023 -0.0034192594  0.087161403   -1.6938026   -2.6201818 
  117000    4.9724495     1.264785    3.7076645  -0.15851084   0.84328601    1.0074564   0.72945116   -1.2345679            1    1.0171926    1.5640809    1.5596579 -0.072160947 -0.0030856687  0.022386778 -0.043945474   0.94977564   0.95253794  0.069320672        0.075    1.6659653        5e-08 7.7022969e-10      64.9157    2.5412732         70.1 -0.0020791486  -0.11375227 -0.0029091219   0.10188089   0.51418156   -1.4888511 
  118000    4.9850814    1.2662998    3.7187816  -0.15106093   0.84429599    1.0158304   0.72534788   -1.2345679            1    1.0982337    1.6309055    1.6156299  0.048165666 0.0026037569  -0.01903681 0.0045775321    1.0311959    1.0330416  0.069343343        0.075    1.6652086        5e-08 7.7048159e-10    64.894477    2.5680425         70.1 -0.0046937446  -0.10955006 0.0015635108   0.10492071  -0.56372077   0.79452881 
  119000    4.9974211    1.2786617    3.7187594   -0.1562886   0.85253816   0.98325357   0.76193577   -1.2345679            1   0.99715654    1.5520235      1.54494  -0.10549391 8.8688534e-05 -0.027530073 0.0089220744   0.92673726   0.93405508  0.069347768        0.075    1.6793323        5e-08 7.7053076e-10    64.890336    2.5668491         70.1 -0.002847641  -0.10605835 -4.2951979e-05    0.1480757    -1.254957   0.13444522 
  120000    5.0168485    1.2824899    3.7343585  -0.15955115   0.85509063    1.0116893   0.74651576   -1.2345679            1    1.1039553    1.6213272    1.6299597  0.060579076 0.0034349768 -0.027719227 -0.023848434    1.0349612     1.039029  0.069347047        0.075    1.6709922        5e-08 7.7052274e-10    64.891011    2.5477138         70.1 -0.0046583624 -0.070937655 -0.013795383   0.10888925     1.126784    3.3156653 
  121000    4.9941023    1.2774306    3.7166717  -0.16374127   0.85171734   0.99543616    0.7520854   -1.2345679            1    1.0729921    1.6031055    1.6068459 0.0090248556 0.00092053552 -0.027296197 -0.0078338855    1.0034832    1.0091088  0.069344972        0.075    1.6705517        5e-08 7.7049969e-10    64.892953    2.5532393         70.1  0.003325626  -0.10859768  0.016192572   0.11200442  -0.21344989  -0.23787376 
  122000    4.9667424    1.2624714     3.704271  -0.15803014   0.84174341   0.98198253   0.74452581   -1.2345679            1    1.0824382    1.6122273    1.6086202   0.02646727 -0.00013032727 -0.014278604 -0.026409663     1.013628    1.0194183  0.069352545        0.075    1.6815048        5e-08 7.7058383e-10    64.885867    2.5523487         70.1  0.002631104 -0.093106272 0.0056354462   0.13663231    1.0967981   0.65785067 
  123000     4.995065    1.2731102    3.7219548  -0.16270631   0.84883678   0.99867288   0.74495653   -1.2345679            1     1.051688    1.5961806    1.5828975 -0.024013977 -0.0050227896 -0.020858088 0.0090176813   0.98283801   0.98759703  0.069353321        0.075    1.6734243        5e-08 7.7059245e-10    64.885141    2.5471961         70.1 0.00088614831  -0.11763725 0.0020894065  0.097571388   0.68496172   -1.8449344 
  124000    4.9945218    1.2665442    3.7279775   -0.1579265   0.84445897   0.97369792   0.75488024   -1.2345679            1    1.0574843     1.598706    1.5762358 -0.0024889957 -0.004404462 -0.013068594 -0.0019169334   0.98771709   0.99499607  0.069313138        0.075    1.6665553        5e-08 7.7014597e-10    64.922757    2.5513965         70.1 -0.0035501078  -0.12498236 0.00041067979   0.12157461  -0.42481456    1.0324862 
  125000    4.9736273    1.2514561    3.7221712  -0.16063465   0.83439906   0.97961593   0.73372356   -1.2345679            1    1.0196077    1.5543089    1.5559422 -0.051428039 -0.0061743566 -0.040321352 -0.041538567    0.9517958   0.95673966  0.069350389        0.075    1.6549843        5e-08 7.7055987e-10    64.887884     2.548196         70.1 -0.0056341264  -0.11149284 0.0022458426   0.09870701    2.9541683   -1.1880751 
  126000    5.0127573    1.2710158    3.7417415  -0.15587215   0.84744035   0.98927659   0.74911483   -1.2345679            1    1.0577756    1.5960615    1.5828401 -0.0055749448 0.0020043501 -0.060068483  0.012954926   0.98854121   0.99428757  0.069344368        0.075    1.6432971        5e-08 7.7049298e-10    64.893518    2.5386666         70.1  0.006872037 -0.095535302 -0.0019913162  0.098835791  -0.14000771    1.7397267 
  127000    4.9926348    1.2847945    3.7078402  -0.15997664   0.85662722    1.0150214   0.74680589   -1.2345679            1    1.1323204    1.6423184     1.652251   0.10239193 0.0052635782  0.024926493  0.018641601    1.0632995    1.0671802  0.069313513        0.075    1.6527795        5e-08 7.7015014e-10    64.922406    2.5317274         70.1 -0.0096184471 -0.091270149  -0.01057454   0.12182262   0.17605354   0.72384903 
  128000      5.00357    1.2828867    3.7206833  -0.14962569   0.85535515    1.0110795   0.74738745   -1.2345679            1    1.0503247    1.5887798    1.5935877 -0.031393326 0.0048220188  -0.02612513 -0.00067025687   0.98125003   0.98543751   0.06934155        0.075    1.6668866        5e-08 7.7046166e-10    64.896156    2.5358122         70.1 0.0064288359  -0.12282721 -0.017873336  0.093562706   0.12356322   0.94109089 
  129000    5.0034784    1.2911479    3.7123305  -0.15429865   0.86086325   0.99896412    0.7651341   -1.2345679            1    1.0874365    1.6155226    1.6134172  0.033369769 0.0084451654 -0.037473124  0.027527497    1.0167217    1.0233268  0.069313165        0.075    1.6619697        5e-08 7.7014628e-10    64.922731    2.5460556         70.1  0.012482423 -0.088631858 -0.0045098087   0.11473864    3.3658718    0.2387313 
  130000    5.0118919    1.2786386    3.7332533  -0.15165827   0.85252281    1.0220286   0.73498494   -1.2345679            1     1.080304    1.6077081    1.5991527  0.034051082 -0.00068686374 -0.018961396  0.011408825    1.0123755    1.0147141   0.06932661        0.075    1.6616067        5e-08 7.7029566e-10    64.910141    2.5573415         70.1 -0.011960523  -0.11199179 0.0052226261   0.10578989    1.2864879    1.4872569 
  131000    4.9661183    1.2506481    3.7154702  -0.16153037   0.83386032   0.98371676   0.72996306   -1.2345679            1     1.015234    1.5552053    1.5668494 -0.076352617  0.001847097 -0.030409434 -0.00074913427    0.9477697   0.95210283  0.069300509        0.075    1.6583908        5e-08 7.7000566e-10    64.934588    2.5308034         70.1 -0.013535826  -0.10352123  0.021469245   0.11209219  -0.39985943   0.73775193 
  132000    5.0091709    1.2755978    3.7335731  -0.14709481   0.85049533    1.0160138   0.73572579   -1.2345679            1    1.0902034    1.6121288     1.615694  0.042787507 -0.0012380437  -0.00247008  0.039026981    1.0222065    1.0249995  0.069343252        0.075    1.6662459        5e-08 7.7048058e-10    64.894563    2.5594718         70.1 0.0013318492  -0.12765716 0.0044166231   0.13193239    1.1125625  -0.84478996 
  133000    4.9759246    1.2621888    3.7137358  -0.14969914   0.84155504   0.99824377   0.73291502   -1.2345679            1     1.038309    1.5722265    1.5761205  -0.03342001 0.0053584016 -0.028026358  -0.01366326   0.97057187   0.97424554  0.069338578        0.075    1.6738085        5e-08 7.7042865e-10    64.898937    2.5433961         70.1 0.0077387014   -0.1242171  0.010615424   0.10550968  -0.54238802   -1.4939861 
  134000    5.0171179    1.2774338    3.7396841  -0.15596609   0.85171948   0.99549419   0.75204874   -1.2345679            1    1.0395136    1.5792175    1.5775279 -0.038204526 -0.0072615521 -0.022312272  -0.01007759    0.9700081   0.97562659  0.069344373        0.075    1.6620274        5e-08 7.7049303e-10    64.893514    2.5464697         70.1 5.1972969e-05 -0.089290379 0.0019769437   0.10240411  -0.47371938  -0.22512561 
  135000    4.9994893      1.26319    3.7362993  -0.16547179   0.84222252   0.97184785   0.75237506   -1.2345679            1    1.0453547    1.5869318    1.5687076 -0.019575365  0.003771432 -0.048240146 0.0077801639   0.97581902    0.9829852  0.069371049        0.075     1.675404        5e-08 7.7078943e-10     64.86856    2.5620381         70.1 -0.0038382017 -0.090317012 -0.014276133  0.085336189   0.75802207  -0.55549679 
  136000     5.023219    1.2949817    3.7282373  -0.15569105   0.86341944     1.015383   0.75806472   -1.2345679            1    1.0497359    1.5823654    1.5825614 -0.015719277 0.0026249187 -0.024912975 0.0095362164   0.97967434   0.98457245  0.069373266        0.075    1.6644092        5e-08 7.7081407e-10    64.866486    2.5777717         70.1 -0.018591394  -0.11704523 0.0074703647   0.11189607  -0.29037706   -1.7394985 
  137000    4.9884028    1.2826866    3.7057163  -0.15408758   0.85522174    1.0075262   0.74962874   -1.2345679            1    1.0228643    1.5643093    1.5699424  -0.06565882 0.0019676656 -0.045064608  0.017648822   0.95358244   0.95820511  0.069355901        0.075    1.6592342        5e-08 7.7062112e-10    64.882727    2.5544349         70.1 0.0059719417  -0.12253101 0.0072385757   0.10373695   -1.1844771    2.3541383 
  138000    4.9904427     1.259196    3.7312467  -0.15047528   0.83955959   0.99274343   0.73335294   -1.2345679            1    1.0864501     1.612553    1.6158622  0.030935255 2.9007114e-05 -0.050305785 0.0075297349    1.0186725    1.0227396  0.069377644        0.075     1.652277        5e-08 7.7086271e-10    64.862393    2.5753536         70.1 0.0041472288 -0.090431116 -0.012468838  0.072790275    2.0420256   0.70852314 
  139000    4.9737894    1.2713738    3.7024157  -0.15578455   0.84767902   0.99335007    0.7466907   -1.2345679            1    1.0526559    1.5891339    1.5789214 -0.010087651 -0.003375644 -0.050789636  0.012717494   0.98364556   0.98890646  0.069336717        0.075     1.655062        5e-08 7.7040796e-10    64.900679    2.5449155         70.1 -0.012448711  -0.11233141  0.018033337   0.10726626  -0.33506264   -1.9477512 
  140000    5.0100745    1.2750408    3.7350337   -0.1534256     0.850124    1.0008634    0.7456168   -1.2345679            1    1.0860606    1.6060716     1.621115  0.030995223 0.0047412263 -0.0095448167 -0.007885024    1.0171496     1.021829    0.0693303        0.075    1.6552124        5e-08 7.7033667e-10    64.906686    2.5473632         70.1 -0.0041566444  -0.11540975 -0.010669448    0.1188886   -1.0861254   -1.8049627 
  141000    5.0087613    1.2908476    3.7179137  -0.14517647   0.86066304    1.0047933   0.76074716   -1.2345679            1    1.0860864    1.6119773    1.6122942   0.03398759 1.2981398e-05  0.056757339 -0.022204197    1.0157769    1.0216026  0.069341738        0.075    1.6518944        5e-08 7.7046376e-10    64.895979    2.5754998         70.1 -0.012852932  -0.13167988 0.0001106188   0.11245323   0.37328101   0.93580724 
  142000     4.987426    1.2634138    3.7240122   -0.1463444   0.84237177   0.97725736   0.74887169   -1.2345679            1    1.0455402    1.5802301    1.5832878 -0.026897317 -0.0038586443   0.02657792 0.0098906949   0.97632833   0.98282356  0.069330314        0.075    1.6534638        5e-08 7.7033682e-10    64.906673    2.5245166         70.1 0.0093220194  -0.10148037 0.0025286324   0.12332366   -2.3242565    0.7429915 
  143000    5.0261657    1.2793713    3.7467943  -0.15364791   0.85301132    0.9857014   0.76103784   -1.2345679            1    1.0752695    1.6042379    1.5989774  0.022593262 0.0075119765  0.072211022 -0.014083722    1.0049333     1.012011  0.069324644        0.075    1.6404395        5e-08 7.7027383e-10    64.911981    2.5562285         70.1 -0.0013823842  -0.10209781 -0.0029641884   0.12075615   -2.1895922    1.3313375 
  144000    5.0174328    1.2850965    3.7323363   -0.1551396   0.85682855    1.0032684   0.75530815   -1.2345679            1    1.0946622    1.6151525    1.6197744  0.049059798 0.0021519949  0.023919361 0.0073241907    1.0248555    1.0302763  0.069360582        0.075    1.6436061        5e-08 7.7067314e-10    64.878348    2.5430649         70.1 -0.0084118666  -0.09542037  0.002419273  0.097717132     1.076606  -0.81253142 
  145000    5.0187768    1.2906885    3.7280884   -0.1478117   0.86055694    1.0107055   0.75646201   -1.2345679            1    1.1071414    1.6305727    1.6356191  0.055232327 0.0061426562  0.046651563 -0.0066326065     1.037228    1.0422782  0.069332946        0.075    1.6377006        5e-08 7.7036607e-10    64.904209    2.5365383         70.1 -0.005436302 -0.099093087 0.0017875825  0.087854648   -1.1207922    -1.920785 
  146000    5.0249885    1.2925047    3.7324838  -0.16036879   0.86176787    1.0044969   0.76282519   -1.2345679            1    1.0946452    1.6335197    1.6241893  0.026226644 -0.00093521255  0.040017916 -0.0040360195    1.0241437    1.0301805  0.069342745        0.075    1.6268531        5e-08 7.7047495e-10    64.895037    2.5537722         70.1 -0.0094193196  -0.11118284 0.0022301815   0.11537315    -2.139304    3.0593379 
  147000    5.0092428    1.2618004    3.7474424   -0.1494185   0.84129603   0.99169633   0.73702256   -1.2345679            1       1.0641    1.5961773    1.5821505  0.013972276 -0.010432798  0.056502531 -0.019243137   0.99598326    1.0004567  0.069303577        0.075     1.637778        5e-08 7.7003974e-10    64.931714    2.5427699         70.1 -0.0064826953  -0.10557969 0.0027458966   0.11455869   -1.1371286  -0.25971747 
  148000    4.9960811    1.2795575    3.7165236  -0.15544069   0.85313545   0.99180595   0.75700927   -1.2345679            1    1.0591826    1.5928673    1.5885367 -0.0038561824  0.001548857  0.050821847 -0.0033445484   0.98921864   0.99553229  0.069319714        0.075    1.6469182        5e-08 7.7021904e-10    64.916598     2.546389         70.1 0.0054910134  -0.11255822 0.00092121936   0.10071666    -1.751554    1.1026286 
  149000    4.9764342    1.2592788    3.7171554  -0.15321345    0.8396148   0.97863723   0.74324164   -1.2345679            1    1.0517506    1.5860501    1.5906531 -0.021451455 0.0019684784 0.0030126291 0.0039530747   0.98305905   0.98894539   0.06932384        0.075    1.6575496        5e-08 7.7026489e-10    64.912734    2.5279311         70.1 0.0045830354  -0.12444489 -0.0093714089  0.088459168  -0.14228513   -1.5644474 
  150000    4.9967388    1.2723083    3.7244306  -0.16081569   0.84830209    1.0029385   0.74108846   -1.2345679            1    1.0599694    1.5963036    1.5879021 -0.0042975445 -0.0020550619  0.013020535 0.0023432293   0.99147686   0.99560464  0.069332702        0.075     1.661163        5e-08 7.7036335e-10    64.904438    2.5539296         70.1 -0.0074807932  -0.11711448 -0.0094979602  0.098456139    0.9042095   0.69543483 
  151000    5.0235099    1.2877919     3.735718  -0.15035976   0.85862568   0.99566974   0.76362994   -1.2345679            1    1.0565086    1.5918768    1.5949214 -0.017272578 0.0028828296  0.035188181  0.017382356    0.9859327   0.99261027  0.069358231        0.075    1.6636004        5e-08 7.7064701e-10    64.880547    2.5499917         70.1 -0.0036354897 -0.093186464  -0.01073587   0.11668289  -0.44544897   0.94393101 
  152000    5.0031752    1.2747637    3.7284115  -0.16007923   0.84993922    1.0149736   0.73550576   -1.2345679            1    1.0997774    1.6239955    1.6137107   0.06162596 0.0036970792  0.021046124 0.0022777521    1.0318008    1.0346403   0.06933181        0.075    1.6488775        5e-08 7.7035344e-10    64.905272    2.5317158         70.1  0.010298677  -0.12418724  0.020861523   0.11168361  -0.27509096    1.3867123 
  153000    5.0220875     1.274556    3.7475316   -0.1544341   0.84980073   0.99722475    0.7475956   -1.2345679            1    1.1157057    1.6242634    1.6357337  0.087119953 -0.0046876515  0.020429765 -0.0047421404    1.0466117    1.0517076  0.069358612        0.075    1.6416614        5e-08 7.7065125e-10    64.880191    2.5361892         70.1 -0.0068838657  -0.12594978 -0.0073371299   0.13619002   -2.0506897    3.0307078 
  154000    5.0577032    1.3228526    3.7348506  -0.15192615   0.88200216    1.0326813   0.77754292   -1.2345679            1    1.0881688    1.6245644    1.6141171  0.025824742 0.0044699245  -0.01118649  0.020547483    1.0163071    1.0218952  0.069326333        0.075    1.6598474        5e-08 7.7029259e-10    64.910399    2.5396863         70.1 0.0043123769  -0.10716601 0.0033199599  0.075872329    1.4948925   -2.6145356 
  155000    4.9795477    1.2511569    3.7283908  -0.15663576   0.83419956   0.97662918   0.73545945   -1.2345679            1    1.0650292    1.5961229    1.5876189  0.011345698 0.0058311313 -0.016806709 -0.0021292551   0.99705687    1.0023528  0.069332822        0.075    1.6651023        5e-08 7.7036469e-10    64.904325    2.5279184         70.1 0.0010940812  -0.12505108 0.0084726892   0.10926098   0.58573148    1.0383295 
  156000    5.0029321    1.2794699    3.7234622  -0.15419384   0.85307708    1.0042196   0.74829052   -1.2345679            1    1.0325087    1.5778235    1.5678358 -0.048133159 -0.0030778485 -0.029692311  0.011189476   0.96335057   0.96806176  0.069376285        0.075    1.6640967        5e-08 7.7084761e-10    64.863663    2.5802389         70.1 -0.00051734132  -0.10928254 -0.012331786   0.10355183    1.1785664  -0.17196166 
  157000    4.9774535    1.2625477    3.7149057  -0.15676248   0.84179433   0.99198631   0.73766562   -1.2345679            1    1.0518886    1.5835624     1.595437 -0.023333681 -0.0018725042  -0.02429352 -0.0076023944   0.98371238   0.98822668  0.069309558        0.075    1.6639054        5e-08 7.701062e-10     64.92611    2.5444927         70.1 -0.010860139  -0.12113408 0.0036651637   0.11006893   0.86041727  -0.49839226 
  158000    5.0197694    1.2970861    3.7226832  -0.15029498   0.86482255    1.0055494   0.76727071   -1.2345679            1     1.095098    1.6144229     1.624488  0.046382975 -0.0046495827 -0.019381175 0.0023992582    1.0241856    1.0305657  0.069325892        0.075    1.6681418        5e-08 7.7028768e-10    64.910813    2.5419557         70.1 -0.0069217178 -0.097005476 -0.004452604   0.10474491   0.33230789    1.4367779 
  159000    4.9939935    1.2827148    3.7112787   -0.1631972   0.85524056   0.98734369   0.76367507   -1.2345679            1     1.082793    1.6066837    1.6145491  0.027146211 -0.0067828925  0.035974364 -0.015793076     1.012213    1.0194291  0.069332228        0.075    1.6727913        5e-08 7.7035809e-10    64.904881    2.5473955         70.1 0.0017900448  -0.10243327 -0.0023028288   0.08476988   -1.3264077   -1.8033514 
  160000    5.0152665    1.2900092    3.7252573  -0.15390268   0.86010406    1.0100179   0.75617203   -1.2345679            1    1.0568052       1.5954    1.5865798 -0.011564326 -0.0026966476  0.041358466  0.021680011   0.98691859   0.99198609  0.069373264        0.075    1.6715334        5e-08 7.7081404e-10    64.866488    2.5772971         70.1 0.0050400962  -0.12142108 -0.00041887548  0.085086152   -1.8720011  -0.11044137 
  161000    4.9500111    1.2500993    3.6999117  -0.15457639   0.83349443   0.98220656   0.73039169   -1.2345679            1    1.0599425    1.5969257    1.5881148 -0.0052131096 0.00086428126 0.0041966019  0.011458689   0.99243856   0.99690822  0.069356971        0.075    1.6467841        5e-08 7.7063301e-10    64.881727    2.5441957         70.1 -0.00063658234  -0.11170187  0.007887927   0.11478719   -1.2705352   0.98201388 
  162000    5.0043339    1.2725198    3.7318141  -0.14895743   0.84844312    1.0092951   0.73691354   -1.2345679            1    1.0893485    1.6167687    1.6144216  0.036855214 -0.0041213158  0.029000827  0.020779567    1.0212418    1.0245758  0.069342927        0.075    1.6538171        5e-08 7.7047697e-10    64.894866    2.5570549         70.1 -0.0020921092  -0.10438764 -0.0063653715    0.1006502     -1.73556    0.2625267 
  163000    5.0106239    1.2837464    3.7268775  -0.15665193   0.85592839   0.99946132   0.75642634   -1.2345679            1    1.0718272    1.5951889    1.6082525  0.012040213 0.0046724226   0.02419742  0.017329507    1.0019171    1.0076856  0.069348893        0.075    1.6533672        5e-08 7.7054326e-10    64.889284    2.5603778         70.1 -0.0016871612  -0.11384128 -0.0067482966   0.11123752  -0.22647368   0.47341241 
  164000    5.0009043    1.2819796    3.7189247  -0.15155093   0.85475039    1.0021249   0.75258055   -1.2345679            1    1.0468145    1.5842065    1.5809452 -0.024708291 -0.00029474347  0.056411715 0.0068230731   0.97725981   0.98250191  0.069407366        0.075     1.655594        5e-08 7.7119295e-10    64.834617    2.5572461         70.1 -0.0048560487 -0.078892337  0.004076244   0.11589844   -1.7596725   0.44959738 
  165000    4.9954711    1.2779214    3.7175497  -0.15330396    0.8520446   0.99889211   0.75024021   -1.2345679            1    1.0420166    1.5764323    1.5822311 -0.032613531  0.002284569 0.0061845208 -0.0011847395   0.97267827   0.97791155  0.069337279        0.075    1.6603464        5e-08 7.7041421e-10    64.900153    2.5579016         70.1 0.0038378788  -0.11596977 -0.0083624844  0.098228908   -2.5420776  -0.28199641 
  166000    5.0015105    1.2653464    3.7361641  -0.15778132   0.84366033   0.98054244   0.74877416   -1.2345679            1    1.0826371    1.6015136    1.6174247  0.028973013 -0.0019500361 0.0010516228 -0.0018571604    1.0134342    1.0197096  0.069330199        0.075    1.6539742        5e-08 7.7033555e-10     64.90678    2.5435889         70.1 0.0085302981   -0.1008274  0.011856459   0.11702331  -0.27690752   -3.1183713 
  167000    4.9911038    1.2726219     3.718482   -0.1500694   0.84851116   0.98924415   0.75095193   -1.2345679            1    1.0369598    1.5738666    1.5856863 -0.048673575 -0.0043020798 0.0055009757 0.0066168852   0.96755562   0.97347385  0.069350305        0.075    1.6488594        5e-08 7.7055894e-10    64.887963    2.5373873         70.1 -0.0007901757 -0.086580002 -0.0047047094   0.10312269  -0.40979661   0.53589334 
  168000    5.0295346    1.2983106    3.7312241  -0.15887065   0.86563892    1.0144101   0.76250138   -1.2345679            1    1.0474178    1.5917592    1.5796644 -0.029170149 -0.0049284881 -0.010946373 -0.023087088   0.97694624   0.98231683  0.069367711        0.075    1.6492989        5e-08 7.7075235e-10    64.871681    2.5715608         70.1 -0.009123443  -0.11197889 -0.0029215147   0.10480663    1.2787699  -0.66359887 
  169000     4.983544    1.2618046    3.7217393  -0.16031628   0.84129887   0.99424207   0.73525965   -1.2345679            1   0.98544431    1.5337398    1.5425462  -0.11995306 0.00085679021  0.038576356  0.006899126   0.91749048   0.92163765  0.069370336        0.075    1.6387641        5e-08 7.7078151e-10    64.869226    2.5541242         70.1 -0.0093640784   -0.1136255 -0.0096802793   0.10704625   -1.7552151    -1.470465 
  170000    5.0103141    1.2765093    3.7338048  -0.15506738   0.85110307    1.0131318   0.73875685   -1.2345679            1    1.0769375    1.6022379    1.6013132  0.027261372 -0.0050764551 -0.034407456 -0.0064815309    1.0086604    1.0119186  0.069385121        0.075    1.6420796        5e-08 7.7094579e-10    64.855403    2.5950762         70.1  0.011721037  -0.09991097 -0.003592299    0.1090311  -0.95395559   0.30571107 
  171000    4.9875777    1.2609853    3.7265924  -0.15979379   0.84075258   0.99273567   0.73537993   -1.2345679            1    1.0248085    1.5655534    1.5762987 -0.067426526 0.0008757535 -0.027871565 -0.037443278   0.95684357   0.96109854  0.069298797        0.075     1.641506        5e-08 7.6998664e-10    64.936192    2.5173508         70.1 -0.015182041 -0.091106664 0.0058170452    0.1022722  -0.95961332   -1.0984811 
  172000    5.0496519    1.2957254    3.7539265  -0.14913892   0.86391529    1.0049645   0.76613947   -1.2345679            1    1.0849092    1.6176482    1.6102012  0.026878173 -0.0028179702  0.029538585 -0.0033955227    1.0141014    1.0204144   0.06937055        0.075    1.6368778        5e-08 7.7078389e-10    64.869026    2.5696293         70.1 -0.0025035317  -0.09624324  0.021143227   0.12894877  -0.39880828   -2.7741164 
  173000     4.989423    1.2808907    3.7085323  -0.15578275   0.85402437    1.0098316   0.74599884   -1.2345679            1    1.0959176    1.6169974    1.6161379  0.054617662 -0.00011824638 -0.0023699343 -0.013638789    1.0269713    1.0311105  0.069341084        0.075    1.6488133        5e-08 7.7045649e-10    64.896591    2.5396065         70.1  0.019615422  -0.11383696 0.00091592979   0.11774268   -1.1267266    1.7682465 
  174000    5.0215802    1.2808275    3.7407526  -0.15939632   0.85398225    1.0069168   0.74795147   -1.2345679            1    1.0086185    1.5566082     1.554789 -0.085541614 0.0017454658 -0.0026512203 0.0037245468    0.9394917   0.94399845  0.069363411        0.075    1.6522325        5e-08 7.7070457e-10    64.875702    2.5665812         70.1 -0.0028081951  -0.11724117 0.0010644144   0.12060228   0.49089892   -1.3889634 
  175000    5.0123382    1.2870084    3.7253298  -0.15463599   0.85810332   0.99293172   0.76464599   -1.2345679            1    1.0832823    1.6155096    1.6015392  0.032798268 -0.0025202917 -0.028680026 -0.0096971483    1.0126126    1.0195598  0.069321565        0.075    1.6478993        5e-08 7.7023961e-10    64.914864    2.5535859         70.1  0.011086801  -0.10828065 -0.0030269238   0.11778765  -0.26108198   0.64779197 
  176000    5.0265247     1.287628    3.7388967  -0.15635812   0.85851644   0.99824043   0.76165976   -1.2345679            1    1.0837698    1.6064184    1.6074953  0.037395757 0.0039738047 -0.004314235  0.010135219    1.0133761    1.0197066  0.069371356        0.075    1.6593505        5e-08 7.7079284e-10    64.868272    2.5816733         70.1 0.0030128978  -0.09951934 0.0054763997   0.10089724   -1.1500187   0.25996873 
  177000    5.0146634    1.2872726    3.7273908  -0.14685711   0.85827946    1.0011822   0.75921548   -1.2345679            1    1.0401399     1.570458    1.5728169  -0.02285529 -0.0039330443 0.0046484611  0.016925991   0.96997201   0.97588782  0.069379165        0.075    1.6611978        5e-08 7.7087962e-10     64.86097    2.5735838         70.1  0.015216545  -0.10358871 0.0072626094   0.11358273    1.5173151   -1.0446383 
  178000    4.9935322    1.2836757    3.7098565  -0.15655711   0.85588121    1.0082265   0.75025999   -1.2345679            1    1.0020712    1.5608591    1.5581325  -0.11277818 -0.00022720976   0.01016061  0.014759671   0.93273097   0.93736703  0.069326783        0.075    1.6478164        5e-08 7.7029759e-10    64.909979    2.5502012         70.1 2.5747553e-05 -0.096632195 -0.0026239534  0.094921207  -0.10095271   -1.4189611 
  179000    5.0303413    1.3014359    3.7289054  -0.15177623   0.86772271    1.0102768   0.76890262   -1.2345679            1    1.0670159    1.5910236    1.6064689 0.0035553041 -0.0064532753 0.0080924629  -0.00225592   0.99595277    1.0021802  0.069319925        0.075    1.6491638        5e-08 7.7022139e-10      64.9164    2.5400901         70.1 -0.0026836331 -0.085960054 0.00059862038  0.088234872  -0.61639523  -0.63911271 
  180000    5.0022966    1.2925381    3.7097585  -0.15395213   0.86179017    1.0085754   0.76003094   -1.2345679            1    1.0761022    1.6227403    1.6008568  0.004709527 -0.00046861523 -0.023436829 0.0090015816     1.005859    1.0113757   0.06937196        0.075    1.6526097        5e-08 7.7079956e-10    64.867707    2.5773754         70.1 -0.009643979  -0.10645567 -0.011896942  0.089619005  0.019421392     -1.05223 
  181000    5.0171015    1.2954745     3.721627  -0.15177628   0.86374802     1.003151   0.76711524   -1.2345679            1    1.0973132    1.6236689    1.6163365  0.051934029 -0.0048182118  0.033275138  0.012597876    1.0264152    1.0329348  0.069327355        0.075    1.6545184        5e-08 7.7030395e-10    64.909443    2.5504853         70.1 0.0025241994  -0.11996111 -0.012400872    0.1352781  -0.46395946  -0.55645989 
  182000    4.9952774    1.2828611    3.7124163  -0.16027813   0.85533814   0.98683021   0.76419698   -1.2345679            1    1.0434719    1.5773293    1.5883468 -0.035260334 -0.00062763157 0.0005466651   0.05856821   0.97284367   0.98014094  0.069382321        0.075    1.6464891        5e-08 7.7091468e-10     64.85802    2.6032214         70.1 0.0027231123  -0.12473797  0.003726648    0.1047713  -0.83400742    -0.487253 
  183000    5.0040614    1.2720016    3.7320598  -0.15311292   0.84809762    1.0057332   0.73880141   -1.2345679            1    1.0431151    1.5736969    1.5855239   -0.0298755  0.001531247 0.0075115682 -0.0077607425   0.97483392   0.97857097  0.069348008        0.075    1.6494809        5e-08 7.7053342e-10    64.890112    2.5600207         70.1  0.012915547 -0.095671929 -0.00028402703  0.085681997   0.29251825   -0.9340578 
  184000    5.0259322    1.2772409    3.7486914  -0.15094016   0.85159086    1.0060719   0.74448578   -1.2345679            1    1.0491785    1.5761352    1.5907981 -0.019397677 -0.0089525813  0.020557171 -0.024885671   0.98037201   0.98461269  0.069370624        0.075    1.6376076        5e-08 7.7078471e-10    64.868957     2.565943         70.1 -0.0017944514  -0.11125022 -0.0065502164   0.11984419  -0.57681687    1.6215838 
  185000    5.0034953    1.2733963     3.730099   -0.1586564   0.84902754   0.99593112   0.74718363   -1.2345679            1    1.0771017    1.6121147     1.605209  0.013981283  0.002488608  0.035088125 -0.011846793    1.0080458    1.0131866  0.069337148        0.075     1.654279        5e-08 7.7041275e-10    64.900276    2.5546099         70.1 -0.015062542 -0.095121401 0.0014742608  0.091406101   -1.0173169    1.3602456 
  186000     4.963172    1.2492779    3.7138941  -0.15879779   0.83294679   0.96774094   0.73950839   -1.2345679            1    1.0653252    1.5931236    1.5942393 0.0086127287 0.0020927152 0.0006760279 -0.046092421   0.99697871    1.0032193   0.06930689        0.075    1.6555692        5e-08 7.7007655e-10     64.92861    2.5287275         70.1 0.0036137721  -0.10483543  0.022667727   0.11323783  -0.18944035    1.5883754 
  187000    4.9929597    1.2543886    3.7385711  -0.15205529   0.83635426   0.98257714   0.73498057   -1.2345679            1     1.065859    1.5985143    1.5901278 0.0089349658 -0.0015603817  0.021869439 -0.0056162181     0.997931     1.002801  0.069359794        0.075    1.6542701        5e-08 7.7066438e-10    64.879085    2.5718666         70.1   0.00970005  -0.10790231 -0.0009619926  0.091762254  -0.93169257   0.69175886 
  188000    4.9854212     1.272368    3.7130532  -0.14929877   0.84834188   0.99377605   0.74751819   -1.2345679            1     1.060571    1.5907807    1.5965849 -0.0056525641 -0.00086840221 -0.0070507899 0.0069596789   0.99148422   0.99679425  0.069344594        0.075    1.6498022        5e-08 7.7049548e-10    64.893307     2.536337         70.1 0.0041534445  -0.10038374 -0.00063934793   0.10836476   -3.0389843    1.8749841 
  189000    5.0309096    1.3094294    3.7214802  -0.15948709   0.87305232    1.0402219   0.75714066   -1.2345679            1    1.0636039    1.5919594    1.5946299 0.0042225627 -0.0080335145  0.029125638 -0.044988914   0.99362784   0.99684648  0.069350436        0.075    1.6457017        5e-08 7.705604e-10     64.88784    2.5488107         70.1 0.0053560278 -0.085071922  0.005678096  0.090158895 -0.088360397    1.4690927 
  190000    4.9936247    1.2631863    3.7304384   -0.1561697    0.8422201    1.0056441   0.72890334   -1.2345679            1    1.0330288    1.5729241    1.5695838 -0.043421586 0.0099686965  0.019317409 -0.0058738377    0.9656624   0.96849037   0.06934469        0.075    1.6603106        5e-08 7.7049656e-10    64.893217    2.5519713         70.1 -0.0005473091   -0.0890068 0.0028892561  0.092492159   0.98243061  -0.80123811 
  191000    4.9952317    1.2731402    3.7220915    -0.152459   0.84885677   0.99915712   0.74465417   -1.2345679            1    1.1092641    1.6187569    1.6265782  0.082457037 -0.005618913 0.0046962305  0.016325896     1.040442     1.045142  0.069300987        0.075    1.6428615        5e-08 7.7001097e-10     64.93414    2.5236789         70.1  0.014363832   -0.1136487 -0.0032614426   0.10409051  0.026205528  -0.53049148 
  192000    4.9823742    1.2700396    3.7123346  -0.15973703   0.84678949    1.0002799   0.74037134   -1.2345679            1    1.0222968    1.5767021    1.5674928 -0.077304529 0.0036622917  0.047060794  0.021588366   0.95387052   0.95810264  0.069397457        0.075    1.6264859        5e-08 7.7108286e-10    64.843875    2.5891924         70.1 -0.010437011  -0.08958348 -0.0023658658   0.10051233  -0.77765991   -1.6867336 
  193000    5.0163323    1.2831745    3.7331578  -0.16196556   0.85554709   0.99953046   0.75573219   -1.2345679            1     1.120183    1.6402928    1.6397851  0.080471067 0.0014970633 0.0038804391  0.023072697    1.0503371     1.056037  0.069362656        0.075    1.6298183        5e-08 7.7069618e-10    64.876408    2.5582516         70.1  0.014403652   -0.1300377 -0.0036151616  0.093711355   0.61437479    1.5121732 
  194000    5.0250576    1.2795061    3.7455514  -0.15456043   0.85310122    1.0035928   0.74876662   -1.2345679            1    1.0729082    1.5909559    1.5971727  0.030596003 -0.0025731152 -0.063726505  -0.01374188     1.003706    1.0085015  0.069359384        0.075    1.6293384        5e-08 7.7065983e-10    64.879469    2.5507439         70.1 -0.010999836  -0.13288885  0.010926448   0.13067485   0.41635463   0.85816492 
  195000    5.0267562    1.2838493    3.7429069  -0.15590861   0.85599696   0.99294847   0.76106497   -1.2345679            1   0.98654067     1.545425    1.5247424  -0.11054532 -0.00070610487 -0.036381519 -0.0080894187   0.91620187   0.92281703  0.069306292        0.075    1.6245444        5e-08 7.7006991e-10     64.92917    2.5313183         70.1 -0.0059270555  -0.10959202 0.0033116639  0.098689426     1.291879   -2.9138337 
  196000    4.9725269    1.2530067    3.7195203  -0.15185932    0.8354329   0.99500631   0.72478863   -1.2345679            1    1.1110526    1.6298975    1.6258271   0.07743316  0.010985501 -0.060051801    0.0297933    1.0440665    1.0471969   0.06931103        0.075    1.6320121        5e-08 7.7012255e-10    64.924731     2.539843         70.1 -0.00072927062  -0.10519336  0.005434843   0.12177021  -0.43652519  -0.52985574 
  197000    4.9810535    1.2694835      3.71157  -0.15652736   0.84641867    1.0157096   0.72902878   -1.2345679            1    1.0978695     1.618057    1.6270712  0.048480215 -0.004517589 -0.023735427 0.0020432563    1.0304915    1.0326851  0.069324132        0.075    1.6192768        5e-08 7.7026813e-10    64.912461    2.5465352         70.1 -0.018221879  -0.12652345 -0.021882635   0.11174391   -1.5718945    1.0561251 
  198000    5.0297252    1.2816698    3.7480553  -0.15639287   0.85454384   0.99668323   0.75600919   -1.2345679            1    1.0871316    1.6155266      1.61211  0.033758185 -0.001249534  0.011709934 -0.0062184567    1.0172601    1.0231683  0.069349723        0.075    1.6379443        5e-08 7.7055248e-10    64.888507    2.5669758         70.1 -0.00053848124  -0.11589212 -0.0026642959   0.10825093   0.45826601    2.4857771 
  199000      5.01573    1.2770239    3.7387061  -0.15253726   0.85144621   0.99310486   0.75324478   -1.2345679            1    1.0282247    1.5803905    1.5580315 -0.053747958 -0.003891649   0.02585463 0.0092656261   0.95860865   0.96449102  0.069385463        0.075    1.6355839        5e-08 7.7094959e-10    64.855084    2.5665097         70.1 -0.0058551071  -0.12794942  0.004523552  0.091853429   -1.8991434    -1.784216 
  200000    4.9929658    1.2880105    3.7049554  -0.15272824   0.85877142   0.99965703   0.76110819   -1.2345679            1    1.0948442    1.6164395    1.6191934  0.048899657 -0.0021069324   0.02439903  0.021009414    1.0245014      1.03069  0.069344355        0.075    1.6382526        5e-08 7.7049283e-10     64.89353    2.5578203         70.1 0.0016247352  -0.11404617 0.0018939159   0.10422193   0.46255319    1.6809382 
  201000    4.9870878    1.2687405    3.7183473  -0.15511825   0.84592327    1.0003267   0.73887101   -1.2345679            1   0.97590125    1.5267814    1.5293309  -0.12840855 0.0013706143   0.03001601 -0.019691965   0.90761365   0.91170411  0.069335799        0.075    1.6376347        5e-08 7.7039777e-10    64.901538    2.5486025         70.1 0.0087621219 -0.094273523 0.0060600697   0.10167167   0.23359802   -1.6545696 
  202000    5.0232494    1.2874753    3.7357741  -0.15623894   0.85841462    1.0127326    0.7514241   -1.2345679            1    1.0381091    1.5657596    1.5837463 -0.035178506  0.005651774 -0.0078917239 -0.0088094244   0.96866135   0.97311581  0.069337168        0.075    1.6428483        5e-08 7.7041298e-10    64.900256     2.551022         70.1 -0.013038391 -0.095249849 -0.00079009816   0.11931905   0.82017705  -0.50987993 
  203000    5.0155323    1.2642122    3.7513201  -0.14313629   0.84290407    1.0028388   0.73201036   -1.2345679            1    1.0126846    1.5579998    1.5525787 -0.072524628  0.004114269 -0.027403409 0.0067599606   0.94503108   0.94832625  0.069346582        0.075    1.6396896        5e-08 7.7051757e-10    64.891447    2.5599141         70.1 0.0049354569  -0.12635836 -0.0081850742   0.11420027    1.4548304   -2.4125021 
  204000     5.044736    1.3094343    3.7353017  -0.14741035   0.87305558    1.0194464   0.77157238   -1.2345679            1    1.1224341    1.6307516    1.6480858  0.088464836  0.006637992  -0.02343873  0.003833227    1.0511242    1.0570099   0.06936067        0.075    1.6565267        5e-08 7.7067411e-10    64.878266    2.5790188         70.1 0.0055004116  -0.12434759 -0.010704499  0.096899953   0.54530595    1.2074257 
  205000    4.9914516    1.2683974    3.7230542  -0.15570183   0.84569454   0.99116111   0.74484783   -1.2345679            1    1.0592191    1.5970378    1.5921541 -0.011534779 -0.00037653605 -0.011721916  0.024832942   0.99037909   0.99561014  0.069340359        0.075    1.6511665        5e-08 7.7044843e-10     64.89727    2.5636234         70.1 0.0076980553   -0.1185704 -0.012846291   0.11817488    1.0272653   0.46571609 
  206000    5.0292726    1.3143704    3.7149022  -0.15723273    0.8763467    1.0211883    0.7759399   -1.2345679            1    1.0251798    1.5616907    1.5703408 -0.056492041 -0.00068682215 0.0081260707  0.011412043   0.95346623   0.95964383  0.069318585        0.075    1.6476404        5e-08 7.702065e-10    64.917656    2.5508063         70.1  0.020023226  -0.11221008 0.0009462598  0.097883157     -2.32032   0.32568964 
  207000    5.0141022     1.272589    3.7415133  -0.15791435   0.84848924   0.99350385   0.74795691   -1.2345679            1    1.0619528    1.5884026     1.597275 0.00018088405 0.0010166953 -0.0024161204 0.00099916963    0.9928255   0.99819355  0.069356414        0.075       1.6409        5e-08 7.7062682e-10    64.882248     2.559642         70.1 -0.013715892  -0.10426597 -0.002617958   0.10241247   0.34203838    1.6874981 
  208000    4.9991756    1.2678092    3.7313664   -0.1447643   0.84530239   0.99153307   0.74392502   -1.2345679            1    1.0476606     1.580619    1.5868129  -0.02445013 0.0039157378 -0.0024487692 -0.033701949    0.9789059   0.98402779  0.069356619        0.075    1.6379711        5e-08 7.706291e-10    64.882055    2.5708488         70.1 0.0048342134  -0.11267306 0.0015467351  0.084268703 -0.055867689    2.4688724 
  209000    4.9845452      1.27183    3.7127152  -0.15837718   0.84798321   0.98747811   0.75128358   -1.2345679            1    1.0520725    1.5905563    1.5759646 -0.010303488 -0.0050870587 -0.0018665911 -0.017236594   0.98263769    0.9886999  0.069310934        0.075    1.6335338        5e-08 7.7012149e-10    64.924821    2.5483586         70.1  0.012375895  -0.11794365 -0.0073855463  0.096462515   0.83351794   -1.7535618 
  210000    5.0205868     1.280787    3.7397998  -0.15406333   0.85395525    1.0007867    0.7521624   -1.2345679            1    1.0104255    1.5659866    1.5451646 -0.079874575 0.0032755922 0.0082270998 -0.0088033262   0.94090952   0.94619887  0.069354752        0.075    1.6150653        5e-08 7.7060835e-10    64.883802    2.5540683         70.1 -0.0041672755 -0.079534338 4.2658021e-05  0.097866779  -0.18051898  -0.22658582 
  211000    4.9952355     1.283131    3.7121046   -0.1547058   0.85551803     1.005389   0.75161485   -1.2345679            1     1.090874    1.6228286    1.6151916  0.034601664 -0.0069630046 -0.0062977778 -0.0032569256    1.0214086    1.0263519  0.069354286        0.075     1.602658        5e-08 7.7060318e-10    64.884238    2.5623228         70.1 -0.00057138406  -0.11730379 0.00041290892   0.12279526    0.5907806   0.47413382 
  212000    4.9860035    1.2770835      3.70892  -0.16050514   0.85148594   0.98394359   0.75967356   -1.2345679            1      1.06889    1.6032516    1.5969956   0.00642287 0.00070850359 -0.00072933316 0.0094793241   0.99867983    1.0057443   0.06937432        0.075    1.6032363        5e-08 7.7082578e-10    64.865501    2.5715503         70.1 0.0051177384  -0.11237893 -0.0027275567   0.11675618   -1.3742446  -0.98096777 
  213000    5.0018481     1.281555    3.7202932  -0.15625492   0.85446724    1.0067583    0.7488834   -1.2345679            1    1.0486039    1.5781796    1.5839481 -0.016316051 -0.0026883148  0.022948581  0.032270779   0.97939092   0.98399398  0.069356169        0.075    1.6063272        5e-08 7.706241e-10    64.882476      2.55703         70.1 0.0057915727  -0.11056229 0.0090805084  0.097091754  -0.57312267   0.24642276 
  214000    5.0200109    1.2842649     3.735746  -0.15527519    0.8562741    1.0214342   0.74175453   -1.2345679            1    1.0475481    1.5776065    1.5757866 -0.010748782  0.003662061  0.011591809 -0.0087893355   0.97899403   0.98199639  0.069372804        0.075    1.6027611        5e-08 7.7080893e-10    64.866918     2.556277         70.1 -0.0045270191  -0.12114364 -0.0068282563  0.093188616   -1.4086024   0.85658149 
  215000    5.0073236    1.2871921    3.7201314  -0.15822374   0.85822578    1.0092594   0.75351583   -1.2345679            1    1.0306237    1.5699251    1.5712658 -0.049319743  0.004035224 0.0019573018  0.032087583   0.96098261    0.9658533   0.06934551        0.075    1.6047074        5e-08 7.7050567e-10    64.892449    2.5655045         70.1 0.0073235691  -0.10705663 0.0099603456   0.10914694 -0.053747626   0.82664645 
  216000    5.0143336    1.2816105    3.7327231  -0.15614526    0.8545043   0.97708626   0.76955003   -1.2345679            1    1.0965084    1.6144401    1.6140198  0.061065335 -0.0049747129  0.005968139  0.015635296    1.0253854    1.0338027  0.069322567        0.075    1.6070824        5e-08 7.7025075e-10    64.913926     2.555913         70.1 -0.011896204  -0.10373964 -0.0033880947   0.13660682 -0.078596962    1.5744356 
  217000     4.993683    1.2702366    3.7234464  -0.16007809   0.84692081   0.98992567   0.74778372   -1.2345679            1     1.094483     1.619846    1.6262951  0.037307853 -0.0027421108 0.0021491656 0.0055967036    1.0253717    1.0309533  0.069297906        0.075    1.6090737        5e-08 7.6997673e-10    64.937027    2.5367373         70.1 0.0075619182 -0.075387865 -0.013856749  0.096250158  -0.56026458    2.2451843 
  218000    5.0046827    1.2929032    3.7117795  -0.15295688   0.86203362    1.0031285   0.76422571   -1.2345679            1   0.97210608    1.5367071    1.5187664  -0.13915524 0.0089519072 -0.023911593 0.0017260444   0.90147517   0.90772913  0.069353955        0.075    1.6109179        5e-08 7.705995e-10    64.884547    2.5584124         70.1 -0.013602504  -0.09441077 0.0034047526    0.1182441    2.6611001   -2.7609476 
  219000     5.015166    1.2939906    3.7211754   -0.1545363   0.86275859   0.98238498   0.77985822   -1.2345679            1    1.0763706    1.5976881    1.6162068  0.015216866 0.0037939116 -0.008809861  0.015921472    1.0042949    1.0133249  0.069309042        0.075    1.6206263        5e-08 7.7010047e-10    64.926593    2.5464418         70.1 0.0039737657  -0.11834791 0.0046447951  0.091678333  -0.87524661  -0.36067558 
  220000    4.9738985    1.2745222    3.6993763  -0.15698811   0.84977822   0.98512453   0.75595966   -1.2345679            1    1.0716819    1.6099028    1.5990092 0.0061336072 0.00036087853 -0.039009423  0.016698364    1.0018149    1.0084603  0.069359308        0.075    1.6330886        5e-08 7.7065898e-10     64.87954    2.5549153         70.1  0.012002774 -0.085537705 -0.0057981165   0.10839207  -0.34713051    2.6537464 
  221000    5.0032401    1.2774603    3.7257798  -0.15338927   0.85173716    1.0052038   0.74533648   -1.2345679            1    1.0280224    1.5679603     1.559123 -0.043015996  0.001369882 -0.056888255 0.0020132147   0.95913729    0.9635123  0.069351994        0.075    1.6323227        5e-08 7.7057771e-10    64.886382    2.5676662         70.1  0.018246256 -0.092709957  0.009699101   0.11201057   0.13994323  -0.18441228 
  222000    5.0118152    1.2661735    3.7456417  -0.14726078    0.8442118    1.0172145   0.72424409   -1.2345679            1   0.99106965    1.5437112    1.5397191  -0.11022135 -0.006195039 -0.035823328  0.010364576    0.9241339   0.92578871  0.069358976        0.075    1.6460114        5e-08 7.7065529e-10     64.87985    2.5643993         70.1 -0.0053943148 -0.098378217 -0.010680655   0.09400326   -1.0450533   -1.1550725 
  223000    5.0158186     1.278849    3.7369696  -0.15399518   0.85266308   0.99278933   0.75552595   -1.2345679            1    1.0413032    1.5759016    1.5831724 -0.035164328 -0.0066357626 -0.016129429  0.013974957   0.97147633   0.97758978  0.069317155        0.075    1.6467928        5e-08 7.7019062e-10    64.918994    2.5392827         70.1 -0.0068840415  -0.11762971 -0.0032424275  0.076970794   0.16381213    1.8896635 
  224000       5.0113    1.2806682    3.7306318  -0.15116935   0.85387602    1.0054421   0.74879548   -1.2345679            1    1.0881719    1.6055784    1.6154607  0.043476411 0.0021736163 -0.022116632 0.0057608818     1.018967    1.0236464  0.069402752        0.075     1.631084        5e-08 7.7114169e-10    64.838928    2.5618052         70.1 -0.0047962644   -0.1166321 -0.0035087804   0.12228539  -0.65319906    3.5728408 
  225000    5.0096863    1.2828359    3.7268504  -0.15501512   0.85532134   0.98948189   0.76232722   -1.2345679            1    1.0697319    1.6002264    1.6036745 0.0052949134 0.00051674662  0.048612191 0.0056815369   0.99927647    1.0062308  0.069338147        0.075     1.619761        5e-08 7.7042385e-10    64.899341    2.5582948         70.1 -0.0025028435  -0.10999805 -0.0028769702   0.10736621   -1.0535263    3.7746546 
  226000    5.0057618    1.2701845    3.7355772  -0.15748078    0.8468861    1.0020366   0.73931522   -1.2345679            1    1.1045603    1.6167626    1.6156164  0.081301813 -0.00097364984  0.049258379 -0.0039426829    1.0362316    1.0402534   0.06931696        0.075    1.6326564        5e-08 7.7018844e-10    64.919177    2.5436082         70.1 0.0059238437   -0.1125474  -0.01729828    0.1278302   -1.9220097   -2.5376401 
  227000    4.9798406    1.2582975    3.7215431  -0.15271714   0.83896052   0.99435982   0.73121536   -1.2345679            1   0.97897975    1.5320416    1.5322815  -0.12738383 -0.00068335016 -0.011424517 0.0067073172    0.9113997   0.91516554  0.069347657        0.075    1.6233623        5e-08 7.7052952e-10    64.890441    2.5356404         70.1 -0.00039209992 -0.090627949 -0.0033946502   0.11179685   -1.3293729   -6.3074558 
  228000    4.9917768    1.2670538     3.724723  -0.15927891   0.84479871   0.98678881   0.74636583   -1.2345679            1    1.0936226    1.6155054    1.6219932  0.043369195 -0.0033924632 -0.013834305   0.02481797    1.0246423    1.0302943  0.069341057        0.075    1.6198016        5e-08 7.7045619e-10    64.896617    2.5533992         70.1  0.015004128  -0.09029417 0.0045553672   0.11623342    1.3197848   -1.0472606 
  229000    4.9941896    1.2678881    3.7263014  -0.15526659   0.84535499   0.98719703   0.74702503   -1.2345679            1    1.0191948    1.5573341    1.5688976 -0.068647259 -0.0058827333 -0.0099136542 -0.0081300867   0.95015364   0.95584031  0.069374364        0.075    1.6176371        5e-08 7.7082627e-10    64.865459    2.5645956         70.1 -0.00087478772   -0.1009898 0.0072844848   0.12370421  -0.77152805     -2.97935 
  230000    5.0077741    1.2824084    3.7253657  -0.15657453    0.8550363    1.0159478   0.74346663   -1.2345679            1    1.0735173    1.6099184     1.603757 0.0068765303 0.0034977399  0.016624932 -0.016921494     1.004805    1.0083177  0.069340797        0.075    1.6231379        5e-08 7.704533e-10     64.89686    2.5588952         70.1 -0.0023198143  -0.10919054 0.00041389962   0.10674804     1.539888   0.80817364 
  231000    5.0306483    1.2876177    3.7430306  -0.15104889   0.85850952   0.99671093    0.7627101   -1.2345679            1    1.0902393    1.6104407    1.6230613  0.037215889 0.00030899067  0.019775734 0.0016646668    1.0197484    1.0262742  0.069348678        0.075    1.6124973        5e-08 7.7054087e-10    64.889485    2.5491684         70.1 0.0029495578  -0.11288232 -0.0040228635    0.1023293   0.28569612     2.420322 
  232000    5.0150954    1.2832924     3.731803   -0.1564654   0.85562569    1.0043371   0.75252771   -1.2345679            1    1.0874497    1.6063092    1.6134539  0.042585855 -0.0027642475 -0.0049407935  0.030219964    1.0178999    1.0229951   0.06931563        0.075    1.6244194        5e-08 7.7017366e-10    64.920423    2.5505205         70.1 0.0040948378 -0.090416932 0.0064886638   0.11011154    -2.279364    1.6440481 
  233000    4.9907074    1.2712367    3.7194707  -0.15457103   0.84758764    1.0050697   0.73839794   -1.2345679            1    1.0583748     1.588525    1.5988876 -0.012288094 0.0067685468  0.046453256  -0.01934724   0.99013097   0.99387332  0.069378967        0.075    1.6198591        5e-08 7.7087741e-10    64.861156    2.5839987         70.1 0.0036707769 -0.099846875 -0.0020499242   0.10852216   -2.7003224   -1.2648142 
  234000    4.9659946     1.265641    3.7003536   -0.1604418   0.84385673   0.98727757   0.74443018   -1.2345679            1     1.106255    1.6318741    1.6249845   0.06190624 0.0053539243 -0.037991442  0.037218926    1.0374536    1.0428953  0.069333105        0.075    1.6221589        5e-08 7.7036783e-10     64.90406    2.5504102         70.1 -0.0022049062  -0.11048009 -0.0066486306   0.11599974   0.45084468   0.70588108 
  235000    5.0059602    1.2773651    3.7285951  -0.15640186   0.85167368    1.0071799   0.74385677   -1.2345679            1    1.0786562     1.614241    1.6064863  0.015241398 -9.0688404e-06 -0.018633697 -0.0070223533    1.0099078    1.0140193  0.069352965        0.075    1.6160399        5e-08 7.705885e-10    64.885474    2.5624606         70.1 0.0074601156 -0.096889807 -0.0061189091  0.089466279    1.4441525  0.045993821 
  236000    5.0255391    1.2920373    3.7335019  -0.15311092   0.86145626    1.0066163   0.76082544   -1.2345679            1    1.0704355    1.6003344    1.5987678  0.012204242 0.0011739761 0.0027917794  0.012132047    1.0001188    1.0058347  0.069370152        0.075    1.6145059        5e-08 7.7077946e-10    64.869398     2.554914         70.1 -0.007381428  -0.11200861 -0.011187849   0.11846561  -0.21093795  -0.95614566 
  237000    4.9594646    1.2601544    3.6993102  -0.16114637   0.84019857   0.97600178   0.74606091   -1.2345679            1     1.018594    1.5662747    1.5680599 -0.078552637 0.0088922888 -0.017621121 -0.00044546021   0.94964188   0.95595791  0.069348729        0.075     1.623418        5e-08 7.7054143e-10    64.889437     2.568257         70.1 -0.0069394607  -0.10363583 0.0057638351   0.11292665    1.3188386  -0.95031114 
  238000    4.9781682    1.2742235    3.7039448  -0.15783595   0.84957903   0.99556542   0.74837211   -1.2345679            1    1.0177081    1.5611432    1.5612549  -0.06927378 0.00018782696 -0.024443842 -0.012441149    0.9485424   0.95381652  0.069377564        0.075    1.6115255        5e-08 7.7086183e-10    64.862467     2.566861         70.1  0.011539744  -0.10147659 0.0064994191   0.11006536    1.8645514    1.5752578 
  239000    5.0133239    1.2614593    3.7518646  -0.15657821   0.84106865    0.9865405   0.74021738   -1.2345679            1      1.08022     1.613747    1.6038318   0.02308109 0.0027744796 -0.036448653  0.016128007    1.0118079    1.0169076  0.069311058        0.075    1.6151187        5e-08 7.7012287e-10    64.924705     2.528873         70.1   0.00735269  -0.11915616 0.0065924435  0.090802077    1.6484394    1.7092394 
  240000    4.9728622     1.271894    3.7009682  -0.15808379   0.84802587   0.99207076    0.7481668   -1.2345679            1    1.0884222    1.6081566    1.6156297  0.041480302 -0.0024362875 -0.049663254  0.037870495    1.0192755    1.0247549  0.069345622        0.075    1.6204522        5e-08 7.7050691e-10    64.892344     2.567931         70.1 -0.0095333821  -0.13617166  0.010273966   0.10553071   -1.2487269   0.58251298 
  241000    4.9745543    1.2576052    3.7169491  -0.15902073   0.83849893    1.0043125   0.72352219   -1.2345679            1    1.0723085    1.6013221    1.5951812  0.020422402 -0.0078110971 -0.0024380566  0.013711203    1.0054395    1.0078556  0.069358429        0.075    1.6123751        5e-08 7.7064921e-10    64.880363    2.5638291         70.1 -0.018849058  -0.10825487  0.014844325  0.087177592  -0.18363158   -1.3016821 
  242000    5.0327517    1.2902001    3.7425516  -0.14569691   0.86023136    1.0130151   0.75430652   -1.2345679            1    1.0812048    1.6038371    1.6084326  0.031344663 -0.0036629951 -0.033415638 -0.0098076173    1.0114906    1.0161933  0.069381787        0.075    1.6191967        5e-08 7.7090874e-10     64.85852    2.5773858         70.1 0.0016576981  -0.11959806 -0.0035741576  0.094100435  -0.46134293     1.722778 
  243000    4.9799856    1.2714286     3.708557  -0.16608074   0.84771557    1.0272932   0.72318305   -1.2345679            1    1.0459482    1.5758488    1.5856809 -0.023685151 -0.0024197513 -0.012881309 0.0088871423   0.97911048   0.98002042  0.069327067        0.075     1.608372        5e-08 7.7030075e-10    64.909712    2.5413163         70.1 -0.0020046549  -0.10604292 -0.0010368466  0.093038104  -0.87339717  -0.31403001 
  244000    5.0043457    1.2693331    3.7350126  -0.15831548   0.84631838    0.9885679   0.74770567   -1.2345679            1    1.0753067    1.6024966    1.6108584  0.012565229  0.001236268 -0.017098632  0.030900282    1.0062026    1.0118642  0.069342755        0.075    1.5968582        5e-08 7.7047505e-10    64.895028    2.5621537         70.1 -0.00012915728 -0.085417591 -0.010846457  0.081127442    1.6353585    1.8642033 
  245000     4.984353    1.2773062    3.7070468  -0.15224993   0.85163439    1.0051596   0.74519299   -1.2345679            1    1.0341205    1.5739906    1.5693263 -0.040955445 0.0065213494 -0.0039699608 -0.025204448   0.96524862    0.9696132  0.069302472        0.075    1.5875041        5e-08 7.7002747e-10    64.932749    2.5272432         70.1 0.0036218069 -0.095614703 0.0035278444   0.12100543  -0.87723076   -2.0397629 
  246000    4.9740463    1.2764449    3.6976014  -0.15288912   0.85106015   0.99567724   0.75080434   -1.2345679            1    1.0799651    1.6109976    1.6012765  0.027621275 -0.0052620873  0.059109215 -0.020264158    1.0105746    1.0160664  0.069321132        0.075    1.5959326        5e-08 7.702348e-10     64.91527    2.5485512         70.1 -0.0012967837 -0.073243853 -0.015345387  0.091387468   -2.3641032   -3.5290236 
  247000     5.000601    1.2691789    3.7314222  -0.16109886    0.8462156    1.0019833   0.73821602   -1.2345679            1    1.0718084    1.5945534    1.5902844  0.030587401 -0.0066120981  0.089012616  0.021934856    1.0035813    1.0075049  0.069360288        0.075    1.6118345        5e-08 7.7066987e-10    64.878623    2.5594281         70.1  -0.01217565  -0.11148819 -0.002708034   0.11166203   0.44895541  -0.65689943 
  248000    5.0277033    1.3027878    3.7249155  -0.15761054    0.8686241    1.0068014   0.77284339   -1.2345679            1    1.0428888    1.5829273    1.5884716  -0.04273243 0.0025952916  0.054465817  0.012535887   0.97146142   0.97827613  0.069355932        0.075    1.6045692        5e-08 7.7062146e-10    64.882698    2.5371503         70.1 0.00027348246  -0.10842673 0.0079429954   0.10182799  -0.56526281 -0.077013531 
  249000    5.0005943    1.2674143      3.73318  -0.16091157   0.84503904   0.98696009   0.74665416   -1.2345679            1    1.1067541    1.6364175    1.6186583  0.065186613 0.0016013199  0.069253412  0.016022462    1.0377472    1.0434148  0.069336099        0.075    1.6117899        5e-08 7.704011e-10    64.901257    2.5527258         70.1 -0.017938255 -0.096268202   0.00561495   0.11775918   -1.4001481  -0.66591334 
  250000    4.9946283    1.2626685    3.7319598  -0.15648636   0.84187484   0.99443963   0.73609849   -1.2345679            1    1.0167173    1.5588736    1.5674442 -0.076165974 0.00027140732  0.067451278  0.012170565   0.94868592   0.95289795  0.069348484        0.075    1.5961201        5e-08 7.7053871e-10    64.889666    2.5475692         70.1  0.018118665 -0.095993999 0.0072304817  0.087944899   0.81011704   -3.8484735 
  251000      5.00034    1.2776972    3.7226428  -0.15825252   0.85189509    1.0033377   0.74689987   -1.2345679            1    1.0075897    1.5532462    1.5480634 -0.078540526 -0.0051862405  0.064116292 -0.022086456   0.93856004   0.94319929   0.06937407        0.075    1.5889438        5e-08 7.7082301e-10    64.865734    2.5617052         70.1 -0.00089949764  -0.11279662 -0.0080518426  0.082007185   -1.7012651  -0.11982448 
  252000       5.0419     1.309656     3.732244  -0.15397769   0.87320344    1.0140652   0.77555953   -1.2345679            1    1.0357607    1.5634792    1.5849913 -0.041188448 -0.0023317262  0.052072589 -0.014652197   0.96408227   0.97068185  0.069353424        0.075    1.5875616        5e-08 7.705936e-10    64.885045     2.549454         70.1 0.0034100047  -0.11513207 0.0064160628   0.11523257    1.2128375    3.0043563 
  253000    4.9911115    1.2726543    3.7184572  -0.16028834   0.84853279   0.98911312   0.75107957   -1.2345679            1    1.0290496    1.5706712    1.5669496 -0.050471952 -0.0054010247  0.026474503 -0.013928836    0.9596337   0.96557213  0.069336205        0.075    1.5886008        5e-08 7.7040228e-10    64.901158    2.5612415         70.1  0.025222441  -0.13464553  0.014552147   0.11316536  -0.99633963 -0.070198475 
  254000    5.0315011    1.2967158    3.7347853  -0.15474046   0.86457561    1.0282227   0.75110823   -1.2345679            1    1.0920848    1.6197276    1.6085504  0.047976348 0.0019124392 -0.036868763 0.0050377476    1.0226662    1.0260974  0.069332956        0.075    1.5856767        5e-08 7.7036618e-10    64.904199    2.5443596         70.1  0.010097861  -0.12341245 -0.00036270775   0.10303113    1.0301337   0.02441354 
  255000    4.9831978    1.2626646    3.7205333  -0.15713605   0.84187222   0.99783681    0.7337351   -1.2345679            1    1.0754944    1.5965977    1.5967201  0.033165452 -0.0017263928  -0.04966786 0.00016040986    1.0076815    1.0114571  0.069375979        0.075    1.5742983        5e-08 7.7084422e-10    64.863949    2.5793388         70.1 0.0072434382  -0.09741904 0.00029176343  0.093264744    1.2034668  -0.29360616 
  256000    5.0030234    1.2753894     3.727634  -0.15743163   0.85035638   0.97656981   0.76287967   -1.2345679            1    1.0249104    1.5660179    1.5638345 -0.055121147 0.0078543595  0.033521668 -0.026660508    0.9544039    0.9622379  0.069352987        0.075    1.5843535        5e-08 7.7058874e-10    64.885454     2.547795         70.1 -0.0043784605  -0.10595733 0.0081221185   0.09686117   0.11723345  -0.94701027 
  257000    4.9700538    1.2727201    3.6973337  -0.15805421   0.84857668    1.0075521    0.7383502   -1.2345679            1    1.0340583    1.5686381    1.5774735 -0.043936769 0.0030558584  0.039841967  0.023080093   0.96581884   0.96939746  0.069337287        0.075    1.5835544        5e-08 7.704143e-10    64.900145    2.5603651         70.1 -0.0093795749   -0.1197749 -0.0019655012  0.089400484  -0.65180652   -1.3154271 
  258000    4.9962635    1.2863748    3.7098887  -0.15493886   0.85768082    1.0051969   0.75541327   -1.2345679            1    1.0427934    1.5772814     1.592107 -0.041008356 0.0035401922  0.066428543 0.0023789855    0.9729769   0.97828366  0.069336027        0.075    1.5851786        5e-08 7.7040031e-10    64.901324    2.5352374         70.1 0.0063213379  -0.10959102 -0.0060975551  0.097865937   -1.4097972   -1.2070219 
  259000    5.0010204    1.2708304      3.73019  -0.15677789   0.84731672    1.0160955   0.73028269   -1.2345679            1    1.0138877    1.5606535    1.5658118 -0.084802125 -0.0083982357 -0.0048108677 -0.0054273839   0.94639388   0.94867861  0.069333327        0.075    1.5822158        5e-08 7.703703e-10    64.903852    2.5398764         70.1 -0.0018627459  -0.11316708  0.010223732   0.10436486   0.42937202   0.96706891 
  260000    5.0004853    1.2591424    3.7413429  -0.15963419   0.83952383   0.98682255   0.73740371   -1.2345679            1    1.0496263    1.5864698    1.5824431 -0.020034011 -0.00093419183   -0.0177564  0.004994558    0.9814743   0.98629579  0.069324284        0.075    1.5869508        5e-08 7.7026982e-10    64.912319    2.5518083         70.1 -0.0034488845  -0.12070029 0.0051413732   0.10727747  -0.37739947  -0.47764364 
  261000    5.0073781    1.2866316    3.7207465  -0.15789183   0.85785209    0.9912681   0.76537546   -1.2345679            1     1.090105    1.6219116    1.6116188  0.036784762 0.00068229992   0.01374702 -0.0071470631    1.0193678    1.0264892  0.069330411        0.075    1.5830426        5e-08 7.703379e-10    64.906582    2.5513531         70.1 -0.005063394 -0.096818506 -0.001351988  0.081179258    1.3261397    1.2262047 
  262000    4.9978719    1.2626649     3.735207  -0.15176069   0.84187243   0.99217253   0.73766865   -1.2345679            1    1.1034172    1.6426245    1.6145991  0.053028073 0.0050121841 -0.0019741932 0.00049611989    1.0352407    1.0397434  0.069308492        0.075    1.5975949        5e-08 7.7009435e-10    64.927109    2.5427128         70.1 0.0025846405  -0.08934536 -0.014728075    0.1138972 -0.075062848    3.8984943 
  263000    4.9819653    1.2640885    3.7178768  -0.15693374   0.84282164   0.98774265    0.7423532   -1.2345679            1    1.0360551    1.5767812    1.5726864 -0.041302438 -0.0036257643 -0.024957912 -0.0064139412   0.96744566   0.97266554  0.069349103        0.075    1.5955136        5e-08 7.7054559e-10    64.889087    2.5811654         70.1 0.0028139423  -0.13598284  0.013096917   0.10121039    1.8448245  0.040283693 
  264000    5.0164519    1.2897432    3.7267088  -0.15184018   0.85992667    1.0266088   0.74435095   -1.2345679            1    1.0276995    1.5741263    1.5779718 -0.068999594 -0.0013793775 -0.020073316 0.0040764451   0.95890546    0.9618157  0.069332872        0.075    1.5853959        5e-08 7.7036525e-10    64.904278    2.5422759         70.1 -0.0020227769  -0.11294798 0.0017141156  0.079496077   0.54184813   -2.6639505 
  265000    5.0079231    1.2617216    3.7462015  -0.15054688   0.84124348    1.0072169   0.72615622   -1.2345679            1    1.0792574    1.6061531    1.6039518  0.027667348 -0.0029439189 -0.046339237 -0.0054057192    1.0121449    1.0146181  0.069358822        0.075    1.5809217        5e-08 7.7065357e-10    64.879995    2.5456388         70.1  0.019235456  -0.10315141 0.00039091516  0.095226073   0.44786362   -2.3849084 
  266000    4.9932137    1.2822741    3.7109396  -0.15899742   0.85494674   0.98734989   0.76317287   -1.2345679            1    1.0221125    1.5713519     1.558793 -0.063807561 0.0036358557 -0.012342946  0.001295621   0.95157884   0.95874811  0.069306832        0.075    1.5741639        5e-08 7.7007591e-10    64.928664    2.5409042         70.1 0.0064654179  -0.10279356 0.0018478627   0.10436935     0.498523   -1.3270649 
  267000     5.012938    1.2848118    3.7281262   -0.1542875   0.85663872    1.0080715   0.75165124   -1.2345679            1    1.0861257    1.6165567    1.6074381  0.034382354 0.0062145073 -0.004999141 -0.018282607     1.016657    1.0214315  0.069321775        0.075    1.5823237        5e-08 7.7024194e-10    64.914668    2.5564829         70.1 0.0055155657 -0.091375317 -0.0065822732   0.10655603    -2.204371   0.95212552 
  268000    4.9615807    1.2698156    3.6917652  -0.14960805   0.84664009   0.98043847   0.75389579   -1.2345679            1    1.0603497    1.5959777    1.5975315 -0.012460066 0.0026859103  0.013027771 -0.027383536    0.9906735   0.99742892  0.069335577        0.075    1.5920312        5e-08 7.703953e-10    64.901746    2.5437827         70.1 -0.00010963983  -0.10180656 0.0018746242   0.11731711   0.54285674   0.49796946 
  269000    4.9949139    1.3015044    3.6934096  -0.16087212   0.86776837     1.010597   0.76875767   -1.2345679            1    1.1165388    1.6399777    1.6315315  0.078107365 -0.012154778 -0.046601673  0.013954037    1.0454891    1.0516826  0.069361159        0.075     1.594608        5e-08 7.7067955e-10    64.877808    2.5569984         70.1 0.0033888265  -0.11023548 -0.010522806   0.12261119   -1.1209565    1.7806578 
  270000    4.9743196    1.2518844    3.7224352  -0.14936456   0.83468462   0.98886608   0.72778429   -1.2345679            1    1.0576765    1.5897797    1.5895275 -0.006277788 -0.0075728974  0.021534823 0.0096826782   0.99041353   0.99421483  0.069325781        0.075    1.5889723        5e-08 7.7028646e-10    64.910917    2.5404645         70.1  0.015879207  -0.12099787 -0.0086303166   0.11485411   -2.8499584   -2.6970244 
  271000    5.0190456    1.2821991    3.7368465   -0.1588052   0.85489672    1.0028337   0.75233638   -1.2345679            1    1.0024289    1.5492319    1.5502602 -0.092205373 -0.0038387464  0.024278853  0.013478458   0.93289684   0.93807089  0.069414451        0.075    1.5900932        5e-08 7.7127168e-10    64.827999    2.5683294         70.1 0.0017900653  -0.10012191 0.0078150564   0.11346213  -0.70774136  -0.55607169 
  272000    5.0122179    1.2647677    3.7474501  -0.15320938   0.84327448   0.99741058   0.73640731   -1.2345679            1    1.0727183    1.5913962    1.6051053   0.02165334  0.004234059 -0.0045030801 0.0043180929    1.0046584    1.0087083  0.069349243        0.075    1.5973576        5e-08 7.7054715e-10    64.888956    2.5565063         70.1 -0.0039844967  -0.13405262 0.0079332104   0.11477427  -0.79429519    4.3863866 
  273000    5.0311695    1.2998061    3.7313635  -0.15149604   0.86663604    1.0205177   0.75995003   -1.2345679            1    1.0959528    1.6136219    1.6269397  0.047296644 -0.0044460876 0.0051194879 -0.00077335777     1.025717    1.0304598  0.069327348        0.075    1.5939825        5e-08 7.7030387e-10     64.90945    2.5463882         70.1 -0.001628866  -0.10806175 -0.010265857    0.1161152  -0.36008714   -1.2141313 
  274000    4.9764361    1.2436052    3.7328309  -0.15895637    0.8291645    0.9636786   0.73591984   -1.2345679            1    1.0675528    1.5930078    1.5943843  0.015266473 -0.0019314113   0.02410506 -0.038900776     0.999538    1.0057076  0.069376598        0.075    1.6049618        5e-08 7.7085109e-10    64.863371    2.5652804         70.1 -0.0049285262  -0.10262988 0.0017477282   0.10184419  -0.57306302  -0.29157026 
  275000    5.0020758    1.2880908     3.713985  -0.15511892   0.85882498     1.017046    0.7491243   -1.2345679            1    1.0743232    1.6094754    1.6021864  0.011307767 -0.0020979286  0.062038277 -0.018385122     1.005088    1.0090531  0.069404234        0.075    1.6042987        5e-08 7.7115816e-10    64.837543    2.5743368         70.1 -0.0022089285  -0.10722577 0.0057327143   0.10041018   -2.0191274  -0.78474828 
  276000    4.9655572    1.2563258    3.7092314  -0.15373527   0.83764587   0.98235289   0.73732504   -1.2345679            1    1.1009995    1.6245548    1.6256324   0.05281127 -0.0099621449  0.018566235 -0.0091031741    1.0328548    1.0379558  0.069306169        0.075    1.6080141        5e-08 7.7006854e-10    64.929285    2.5277755         70.1  0.010314667  -0.12913498 -0.011760393   0.12415163   -2.2357016   0.59066351 
  277000    4.9852775     1.286228    3.6990494  -0.14839741   0.85758299    1.0065102   0.75433558   -1.2345679            1    1.0591238    1.5901697    1.5933012 -0.0060995109 0.00073905451  0.021629407 0.0072422768   0.98940694   0.99452983  0.069397212        0.075    1.5923696        5e-08 7.7108013e-10    64.844104    2.5817975         70.1  0.013128637  -0.14447073  0.011611627    0.1071374    -1.834054 -0.037804937 
  278000    5.0119537    1.2752621    3.7366916  -0.14957126   0.85027153    1.0130048   0.73743595   -1.2345679            1    1.1014352    1.6221411    1.6192417  0.062922775 0.0085637026 0.0063277135 0.0083720062    1.0332802    1.0364244  0.069359856        0.075    1.5832626        5e-08 7.7066507e-10    64.879027    2.5513297         70.1 -0.0051208881  -0.11146692 -0.0075653191    0.1137504   -1.2525129   0.90844297 
  279000    5.0120851    1.2799322    3.7321528   -0.1569624    0.8533853   0.98642996   0.76116567   -1.2345679            1    1.0573601    1.5920926     1.589945 -0.0099572367 -0.0033737162 -0.036417589 -0.0047149668   0.98701202   0.99405483  0.069337337        0.075    1.5841672        5e-08 7.7041486e-10    64.900098    2.5368883         70.1 -0.0012342331  -0.11817524 -0.0027116427   0.10286108  0.088814834   0.37352117 
  280000    4.9926972    1.2680827    3.7246145  -0.15477844   0.84548469   0.98005302   0.75220553   -1.2345679            1    1.0097996    1.5443685    1.5544096 -0.069379198 0.0051520624 -0.018386348  0.002381292   0.94027965   0.94690359  0.069354046        0.075    1.5739759        5e-08 7.7060051e-10    64.884463    2.5502378         70.1 0.0017401668  -0.09997963 -0.0022027658   0.11072493    2.1098015   -1.8214647 
  281000     4.969953    1.2442366    3.7257163  -0.15516148   0.82958554   0.96803464   0.73360855   -1.2345679            1    1.0655753    1.5963788    1.6009278 -0.00058077437 -0.0030892481   0.01794407 -0.008442458   0.99777405    1.0034505  0.069341349        0.075    1.5783629        5e-08 7.7045944e-10    64.896343    2.5412041         70.1 -0.0063221232  -0.10270076 -0.0041953416  0.093685256  0.021682391    0.2794537 
  282000     5.048028    1.2803459     3.767682  -0.15755878   0.85366112    1.0047271   0.74892781   -1.2345679            1    1.1022235    1.6118815    1.6250967  0.069692416 0.0048606106 -0.011769208 -0.034326366    1.0330065     1.037744  0.069328591        0.075    1.5789763        5e-08 7.7031768e-10    64.908286    2.5340303         70.1 -2.5648511e-06  -0.10049483  0.004490691  0.093865047 -0.093968652    1.9896208 
  283000    5.0194282    1.2882667    3.7311615   -0.1461093   0.85894224   0.99026951   0.76791622   -1.2345679            1    1.0638453    1.5971055    1.6003631 -0.0059325484 -0.00060704813  0.043419373   0.01427308   0.99287334    1.0002936  0.069319021        0.075    1.5816102        5e-08 7.7021135e-10    64.917246    2.5510385         70.1 -0.0031060292  -0.10635594 0.0078637483   0.13223227  -0.64414819  -0.70149011 
  284000    4.9784255     1.269278    3.7091475  -0.16177309   0.84628166    0.9761986    0.7562325   -1.2345679            1     1.067894     1.590244     1.605354 0.0080840722 -0.0037656651 0.0065885691 -0.033188322   0.99800185    1.0052453  0.069405386        0.075    1.5738482        5e-08 7.7117095e-10    64.836467    2.5667381         70.1  0.013574211  -0.13319379 -0.0022581599   0.10134139   -0.2170503  -0.52600688 
  285000    4.9969305    1.2795257    3.7174048  -0.15709699   0.85311426    1.0031917   0.74906728   -1.2345679            1    1.0139293    1.5498328    1.5633628 -0.071407503 -0.0064701414 0.0036081595 -0.006005242   0.94469939   0.94954834  0.069348517        0.075    1.5696122        5e-08 7.7053907e-10    64.889636    2.5440739         70.1 -0.00067814915 -0.085643489 0.0023415152   0.11437302   0.41868985   -4.0740056 
  286000    5.0120435    1.2868333    3.7252102  -0.15313307   0.85798653    1.0054104   0.75578306   -1.2345679            1    1.0201558    1.5664173    1.5650466  -0.07099633 -0.00096334602 -0.071486668 -0.024189252   0.95030521   0.95563245  0.069338451        0.075    1.5641509        5e-08 7.7042723e-10    64.899056    2.5585698         70.1 -0.0045239612  -0.10383273  -0.02121074   0.11847142   0.75939851   -1.7920639 
  287000    5.0204036     1.280426    3.7399776  -0.15802157   0.85371452    1.0028823   0.75029931   -1.2345679            1    1.0655714    1.6056208    1.5904159 0.00067746539 -0.0035717049 -0.046065542  0.013538885   0.99622757    1.0012102  0.069309787        0.075    1.5524861        5e-08 7.7010874e-10    64.925896    2.5365385         70.1 -0.0091517887  -0.11079349 -0.00092280891   0.12969317    1.1985535  -0.07476954 
  288000     4.992427    1.2694768    3.7229502   -0.1538543   0.84641422   0.99573998   0.74288789   -1.2345679            1    1.0507407      1.59165    1.5858285 -0.025256467 -0.0027069399  -0.03620937 0.0020983487   0.98208186   0.98683791  0.069321775        0.075    1.5652268        5e-08 7.7024195e-10    64.914668     2.552911         70.1  0.003649433  -0.10813192 0.0037303471  0.094809881   -1.5121431   -1.2722797 
  289000    5.0017027    1.3019176     3.699785  -0.15352941   0.86804392    1.0075173   0.77136314   -1.2345679            1    1.0692972    1.6024654     1.601684 0.0037421024 0.0072184823   0.02837164  0.020181072    0.9980066    1.0046386  0.069318259        0.075    1.5593986        5e-08 7.7020288e-10     64.91796    2.5373839         70.1 -0.0070214432  -0.10058828 0.0053510783   0.13199005    1.3909025  -0.55931574 
  290000     4.983212     1.263394     3.719818  -0.15847483   0.84235857    1.0064351   0.72858876   -1.2345679            1    1.0999856    1.6147084    1.6213362  0.063912177 -0.0056833994  0.018422052 0.0010177317    1.0326483    1.0353964  0.069371709        0.075    1.5596036        5e-08 7.7079677e-10    64.867942    2.5549099         70.1 0.00088072746  -0.12343004 -0.010308338   0.12448222   -1.0463066   0.53255215 
  291000    5.0096069    1.2766275    3.7329795  -0.16005866   0.85118188    1.0022568    0.7464419   -1.2345679            1    1.0439887    1.5748627    1.5745894 -0.017485966 -0.0036666241  0.041703436  0.029134404    0.9750014    0.9796677  0.069332105        0.075    1.5538637        5e-08 7.7035672e-10    64.904996    2.5420143         70.1 -0.0013357766  -0.13610212 -0.0035953575   0.13923251   0.37735062   0.22195824 
  292000    5.0106595    1.2637216    3.7469379  -0.15184677     0.842577   0.99170275   0.73918881   -1.2345679            1    1.1049832    1.6269168    1.6322424  0.055790468 0.00022937894  0.019029673 -0.0010224595    1.0366663    1.0413396  0.069352526        0.075    1.5528314        5e-08 7.7058362e-10    64.885885    2.5643545         70.1 0.0064886549 -0.080718728 -0.00071815901   0.10669523    1.0517421    1.4708008 
  293000    4.9957286    1.2617435    3.7339851  -0.15217433   0.84125811   0.99893932   0.73192889   -1.2345679            1    1.0745183    1.5888734    1.6054687  0.029212876 0.0044396866 -0.007591245 -0.014564447    1.0068723    1.0104102  0.069344456        0.075    1.5453055        5e-08 7.7049395e-10    64.893436    2.5523259         70.1 0.0065171397  -0.13092549  0.013186735    0.1114554    1.5135054   -1.4176569 
  294000    5.0056984    1.2823227    3.7233757  -0.15684322   0.85497916    1.0091605   0.74808281   -1.2345679            1    1.0295203    1.5715545    1.5754574 -0.058451019 0.0028500573 0.0021271093 -0.0075387447   0.96038134   0.96475624  0.069317636        0.075    1.5552882        5e-08 7.7019596e-10    64.918544    2.5553179         70.1 -0.0032126174  -0.12153527 -0.011667676   0.10603248  -0.89417394   0.59312909 
  295000    5.0023635    1.2642286    3.7381349  -0.14962505   0.84291505   0.99333236   0.73863007   -1.2345679            1    1.1011755    1.6191133    1.6181934  0.066219809 0.00070520853  0.019211683 -0.0083442205    1.0329102    1.0374272  0.069341292        0.075    1.5499144        5e-08 7.704588e-10    64.896397    2.5472555         70.1 -0.0060998338  -0.11839865 0.0038748665   0.10406377  -0.29023269 0.0078603769 
  296000    4.9745414    1.2556993    3.7188421  -0.15641606   0.83722817   0.98567735   0.73430875   -1.2345679            1    1.0922164    1.6175273    1.6175587  0.041563061 -0.0001896851 -0.050899176 -0.011630324    1.0243504    1.0289594  0.069318558        0.075    1.5582821        5e-08 7.702062e-10     64.91768     2.539936         70.1 -0.002216324  -0.10210631 -0.0047076184  0.094414063   0.15896893      2.87015 
  297000    5.0265053    1.2850676    3.7414378   -0.1458375   0.85680925    0.9994056   0.75795773   -1.2345679            1    1.0930797    1.6187494    1.6077774   0.05271235 -0.00043406726 -0.037868249  -0.01639322    1.0230281    1.0289417  0.069329505        0.075     1.564529        5e-08 7.7032784e-10     64.90743    2.5488839         70.1 -0.00082602823 -0.087628863  -0.01022321  0.085226033    0.1808504   -1.6003372 
  298000    4.9876557    1.2764756    3.7111802  -0.15425207   0.85108059   0.98958542   0.75506905   -1.2345679            1    1.0499559     1.577518    1.5939708 -0.021621097 0.0014257913 -0.031160285 0.0090038354   0.98017123   0.98644807  0.069362718        0.075    1.5585583        5e-08 7.7069687e-10     64.87635    2.5592036         70.1 -0.00031274998  -0.10540377 -0.0082917786  0.094586639  -0.58035838  -0.32035359 
  299000    4.9798779    1.2489922    3.7308857  -0.16009318   0.83275626   0.97176519   0.73639114   -1.2345679            1    1.0658588    1.5827091    1.5927466  0.022120607 0.0025449767 -0.0084094108 0.0047278722   0.99780038    1.0034946  0.069389395        0.075     1.567287        5e-08 7.7099328e-10    64.851408    2.5839122         70.1 -0.007706649 -0.081955623 0.00018520125  0.098408125    0.2936937   -2.3204447 
  300000    5.0175058    1.2916444    3.7258615  -0.16375916   0.86119428   0.99856632   0.76597129   -1.2345679            1    1.0430768    1.5826673    1.5764015 -0.029838459  0.013547527  0.028069667 -0.014281115   0.97228453   0.97899261  0.069309508        0.075    1.5830388        5e-08 7.7010565e-10    64.926157    2.5464291         70.1 0.0020541641  -0.11271243 0.0044496195   0.10342753   0.75684893   -1.5323336 
Loop time of 375.488 on 1 procs for 300000 steps with 8784 atoms

Performance: 345150.668 tau/day, 798.960 timesteps/s
99.2% CPU use with 1 MPI tasks x 1 OpenMP threads

MPI task timing breakdown:
Section |  min time  |  avg time  |  max time  |%varavg| %total
---------------------------------------------------------------
Pair    | 27.823     | 27.823     | 27.823     |   0.0 |  7.41
Bond    | 97.133     | 97.133     | 97.133     |   0.0 | 25.87
Neigh   | 100.87     | 100.87     | 100.87     |   0.0 | 26.86
Comm    | 8.3423     | 8.3423     | 8.3423     |   0.0 |  2.22
Output  | 0.60599    | 0.60599    | 0.60599    |   0.0 |  0.16
Modify  | 131.98     | 131.98     | 131.98     |   0.0 | 35.15
Other   |            | 8.735      |            |       |  2.33

Nlocal:    8784 ave 8784 max 8784 min
Histogram: 1 0 0 0 0 0 0 0 0 0
Nghost:    1926 ave 1926 max 1926 min
Histogram: 1 0 0 0 0 0 0 0 0 0
Neighs:    5815 ave 5815 max 5815 min
Histogram: 1 0 0 0 0 0 0 0 0 0

Total # of neighbors = 5815
Ave neighs/atom = 0.661999
Ave special neighs/atom = 6.72131
Neighbor list builds = 39005
Dangerous builds = 0
#undump      eq

#--- Unfix Equil ---#

unfix abeads_edz
unfix bbeads_edz
unfix tbeads_edz

unfix freeze_tout


###############
# Compression #
###############


#--- Bring the brushes closer together fit the sim box ---#

variable       bbzmax  equal bound(bbeads,zmax)
variable       tbzmin  equal bound(tbeads,zmin)
displace_atoms  alltop move 0.0 0.0 -$(v_tbzmin - v_bbzmax) units box
displace_atoms  alltop move 0.0 0.0 -39.699673844358500219 units box
variable z_f equal bound(all,zmin)
variable z_c equal bound(all,zmax)
change_box all z final ${z_f} $(v_z_c + 0.1) units box
change_box all z final 0 $(v_z_c + 0.1) units box
change_box all z final 0 30.400326155641501202 units box
  orthogonal box = (0 0 0) to (28.2843 28.2843 30.4003)

print         "D = $D"
D = 25.2264828194697
print         "D = $(v_twzmin - v_bwzmax)"
D = 25.226482819469719487
info variables

#--- Computes ---#

# Number density profiles

compute         cabeads abeads chunk/atom bin/1d z lower ${binres} units reduced # Check bound keyword to maybe only bin melt area
compute         cabeads abeads chunk/atom bin/1d z lower 0.001 units reduced 
fix             abeads_cdz abeads  ave/chunk ${Neveryc} ${Nrepeatc} ${Nfreqc} cabeads density/number file abeads_cdz
fix             abeads_cdz abeads  ave/chunk 100 ${Nrepeatc} ${Nfreqc} cabeads density/number file abeads_cdz
fix             abeads_cdz abeads  ave/chunk 100 700 ${Nfreqc} cabeads density/number file abeads_cdz
fix             abeads_cdz abeads  ave/chunk 100 700 70000 cabeads density/number file abeads_cdz
compute         cbbeads bbeads chunk/atom bin/1d z lower ${binres} units reduced # Check bound keyword to maybe only bin melt area
compute         cbbeads bbeads chunk/atom bin/1d z lower 0.001 units reduced 
fix             bbeads_cdz bbeads  ave/chunk ${Neveryc} ${Nrepeatc} ${Nfreqc} cbbeads density/number file bbeads_cdz
fix             bbeads_cdz bbeads  ave/chunk 100 ${Nrepeatc} ${Nfreqc} cbbeads density/number file bbeads_cdz
fix             bbeads_cdz bbeads  ave/chunk 100 700 ${Nfreqc} cbbeads density/number file bbeads_cdz
fix             bbeads_cdz bbeads  ave/chunk 100 700 70000 cbbeads density/number file bbeads_cdz
compute         ctbeads tbeads chunk/atom bin/1d z lower ${binres} units reduced # Check bound keyword to maybe only bin melt area
compute         ctbeads tbeads chunk/atom bin/1d z lower 0.001 units reduced 
fix             tbeads_cdz tbeads  ave/chunk ${Neveryc} ${Nrepeatc} ${Nfreqc} ctbeads density/number file tbeads_cdz
fix             tbeads_cdz tbeads  ave/chunk 100 ${Nrepeatc} ${Nfreqc} ctbeads density/number file tbeads_cdz
fix             tbeads_cdz tbeads  ave/chunk 100 700 ${Nfreqc} ctbeads density/number file tbeads_cdz
fix             tbeads_cdz tbeads  ave/chunk 100 700 70000 ctbeads density/number file tbeads_cdz



#--- Fixes ---#
fix             freeze_tout twout setforce 0.0 0.0 NULL
fix             comp_tout twout aveforce 0.0 0.0 ${Fcatom}
fix             comp_tout twout aveforce 0.0 0.0 -1.23456790123457
fix             rwalls all wall/reflect zlo EDGE zhi EDGE




#--- Dumps ---#
#dump           comp all image ${Ndump_c} stg2.*.jpg type type zoom 2 view 60 120 bond none none


#--- Run Compression ---#
timestep    ${Tstep}
timestep    0.005
run         ${Ncomp}
run         700000
WARNING: Inconsistent image flags (src/domain.cpp:784)
Per MPI rank memory allocation (min/avg/max) = 9.738 | 9.738 | 9.738 Mbytes
Step TotEng KinEng PotEng E_pair Temp c_melTemp c_wallTemp v_Fcatom v_Pcomp2 Press Pxx Pyy Pzz Pxy Pxz Pyz c_melPress c_wallPress v_melDens v_surfcov v_aveRg v_Wall_v2 v_srate v_D v_bwzmax Zhi c_fbwall[1] c_fbwall[3] c_ftwall[1] c_ftwall[3] v_sbot v_pbot 
  300000    9.3702394    1.2916444     8.078595    4.1889744   0.86119428   0.99856632   0.76597129   -1.2345679            1    8.7394852    5.8261004    11.751415    8.6409402    1.9844842   0.30898473    7.6179752    8.5762456    8.5917137   0.17838396        0.075    1.5830388        5e-08 1.982044e-09    25.226483    2.5464291    30.400326 0.0020541641  -0.11271243 0.0044496195   0.10342753   0.75684893   -1.5323336 
ERROR on proc 0: Bad FENE bond (src/MOLECULE/bond_fene.cpp:91)
Last command: run         ${Ncomp}
