next          Wall_v
jump          main.in sim

include        ecs.in
# This is an input script that creates a mono disperse polymer brush bilayer
# A coarse grained bead-spring model is used for the polymers which are end
# grafted to the surfaces of 2 opposing FCC walls at random sites.

clear
OMP_NUM_THREADS environment is not set. Defaulting to 1 thread. (src/comm.cpp:88)
  using 1 OpenMP thread(s) per MPI task


#--- Read in the Restart file ---#

read_restart    MDPBB.rst
  restoring atom style bond from restart
  orthogonal box = (0 0 0) to (80 80 70.1)
  1 by 1 by 1 MPI processor grid
  restoring pair style lj/cut from restart
  restoring bond style hybrid from restart
  69604 atoms
  230816 bonds
  12 = max # of 1-2 neighbors
  12 = max # of special neighbors
  special bonds CPU = 0.0362616 secs
  read_restart CPU = 0.102503 secs
reset_timestep  0

#--- Redefine the bond coeffs ---#

bond_coeff    1 fene 30.0 1.5 0.0 0.0      # Values obtained from literature [Grest, Galushcko]
bond_coeff    2 fene 30.0 1.5 0.0 0.0       # This is the grafting bond between the polymer and the wall atom
bond_coeff    3 harmonic 800.0 $(1.5874 * sqrt(2)/2)
bond_coeff    3 harmonic 800.0 1.1224613044555256103

neigh_modify   every 1 delay 0 check yes

#--- Define variables ---#

# for dimensional values: eps = 4.14e-21 J at T = 300K and sigma = 0.5nm

#--- Moved to main.in ---#
#variable       Temp       equal ${Tstr} #[Grest96]
#variable       Tstep     equal 0.005                       # Timestep in Tau (default = 0.005)
#variable       Nequil    equal 10000                       # Number of timesteps to equilibrate
#variable       Ncomp     equal 200000                      # Number of timesteps to compress - until no more occilation of walls
#variable       Nshear    equal 1000000                     # Number of timesteps to shear - use approx 4ns for 10m/s
#variable       Nthermo   equal 1000                        # Number of timesteps between thermo data prints
#variable       Ndump_e   equal 10000
#variable       Ndump_c   equal 10000                       # Number of timesteps per dump file (compression)
#variable       Ndump_s   equal 10000                       # Number of timesteps per dump file (shear)
#variable       Wall_v    equal 0.0002                      # Wall velocity (A/fs) - equal to 10 m/s
#variable       Pcomp     equal 1
variable        Pcomp2    equal ${Pcomp}
variable        Pcomp2    equal 1
variable        Wall_v2   equal ${Wall_v}
variable        Wall_v2   equal 0.1

# For Equilibration - density profiles (10 for entire run)
variable       Nfreqe   equal ${Nequil}/10                  # Calculate bin averages every this many timesteps
variable       Nfreqe   equal 300000/10                  
variable       Neverye  equal 100                           # Use input values every this many timesteps
variable       Nrepeate equal ${Nfreqe}/${Neverye}          #s Number of times to use input values
variable       Nrepeate equal 30000/${Neverye}          
variable       Nrepeate equal 30000/100          


# For compression - density profiles (10 for entire run)
variable       Nfreqc   equal ${Ncomp}/10                  # Calculate bin averages every this many timesteps
variable       Nfreqc   equal 700000/10                  
variable       Neveryc  equal 100                          # Use input values every this many timesteps
variable       Nrepeatc equal ${Nfreqc}/${Neveryc}         # Number of times to use input values
variable       Nrepeatc equal 70000/${Neveryc}         
variable       Nrepeatc equal 70000/100         

# For Shear - density profiles (10 for entire run)
variable       Nfreqs   equal ${Nshear}/10                  # Calculate bin averages every this many timesteps
variable       Nfreqs   equal 4000000/10                  
variable       Neverys  equal 100                          # Use input values every this many timesteps
variable       Nrepeats equal ${Nfreqs}/${Neverys}         # Number of times to use input values
variable       Nrepeats equal 400000/${Neverys}         
variable       Nrepeats equal 400000/100         


variable       binres   equal  0.001                       # Giving 1000 data points across the sim. box


variable       bwzmin  equal bound(bwall,zmin)
variable       bwzmax  equal bound(bwall,zmax)
variable       twzmin  equal bound(twall,zmin)
variable       twzmax  equal bound(twall,zmax)
variable       c       equal count(gbeads)
variable       surfcov equal $(v_M/(lx*ly))
variable       surfcov equal 0.074999999999999997224
variable       D       equal v_twzmin-v_bwzmax
variable       Dout    equal v_twzmax-v_bwzmin
variable       srate   equal (v_Wall_v/v_D)


#--- Define regions and groups ---#

print        "bwzmin = ${bwzmin}"
bwzmin = 0
print        "bwzmax = ${bwzmax}"
bwzmax = 2.3811015779523
print        "twzmin = ${twzmin}"
twzmin = 67.6188984220477
print        "twzmax = ${twzmax}"
twzmax = 70

region         bwallb  block  INF INF INF INF ${bwzmin} $(v_bwzmin + 0.4) units box
region         bwallb  block  INF INF INF INF 0 $(v_bwzmin + 0.4) units box
region         bwallb  block  INF INF INF INF 0 0.4000000000000000222 units box
region         bwallm  block  INF INF INF INF $(v_bwzmin + 0.35) $(v_bwzmax - 0.35) units box
region         bwallm  block  INF INF INF INF 0.3499999999999999778 $(v_bwzmax - 0.35) units box
region         bwallm  block  INF INF INF INF 0.3499999999999999778 2.0311015779522998415 units box
region         bwallt  block  INF INF INF INF $(v_bwzmax - 0.7) $(v_bwzmax) units box
region         bwallt  block  INF INF INF INF 1.6811015779522999747 $(v_bwzmax) units box
region         bwallt  block  INF INF INF INF 1.6811015779522999747 2.3811015779522999303 units box
region         bmelt   block  INF INF INF INF $(v_bwzmax) $(v_twzmax / 2) units box
region         bmelt   block  INF INF INF INF 2.3811015779522999303 $(v_twzmax / 2) units box
region         bmelt   block  INF INF INF INF 2.3811015779522999303 35 units box
region         tmelt   block  INF INF INF INF $(v_twzmax / 2)  $(v_twzmin - 0.1) units box
region         tmelt   block  INF INF INF INF 35  $(v_twzmin - 0.1) units box
region         tmelt   block  INF INF INF INF 35  67.518898422047712415 units box
region         twallb  block  INF INF INF INF $(v_twzmin - 0.1) $(v_twzmin + 0.35) units box
region         twallb  block  INF INF INF INF 67.518898422047712415 $(v_twzmin + 0.35) units box
region         twallb  block  INF INF INF INF 67.518898422047712415 67.968898422047701047 units box
region         twallm  block  INF INF INF INF $(v_twzmin + 0.35) $(v_twzmax - 0.35) units box
region         twallm  block  INF INF INF INF 67.968898422047701047 $(v_twzmax - 0.35) units box
region         twallm  block  INF INF INF INF 67.968898422047701047 69.650000000000005684 units box
region         twallt  block  INF INF INF INF $(v_twzmax - 0.35) $(v_twzmax) units box
region         twallt  block  INF INF INF INF 69.650000000000005684 $(v_twzmax) units box
region         twallt  block  INF INF INF INF 69.650000000000005684 70 units box

group          bwsurf  region bwallt
5100 atoms in group bwsurf
group          bwbulk  region bwallm
10201 atoms in group bwbulk
group          bwout   region bwallb
5101 atoms in group bwout
group          bbeads  region bmelt
14400 atoms in group bbeads
group          tbeads  region tmelt
14400 atoms in group tbeads
group          abeads  union  bbeads tbeads
28800 atoms in group abeads
group          twsurf  region twallb
5100 atoms in group twsurf
group          twbulk  region twallm
10201 atoms in group twbulk
group          twout   region twallt
5101 atoms in group twout
group          rest4bot union abeads twall
49202 atoms in group rest4bot
group          rest4top union abeads bwall
49202 atoms in group rest4top
group          walls    union bwall twall
40804 atoms in group walls
group          alltop   union twall tbeads
34802 atoms in group alltop
# Other groups are: gbeads fbeads bwall twall

info system
info coeffs

#--- Exclude wall-wall interactions ---#

#neigh_modify exclude type 1 1
#neigh_modify exclude type 1 4
#neigh_modify exclude type 4 4


############
# Computes #
############

#compute         sysTemp   all    temp/deform                       # Calculate the temperature without translational velocities
#compute         sysPress  all    pressure sysTemp                  # Calculate the pressure of the entire system of atoms
compute         melTemp   abeads temp
compute         melPress  all    pressure melTemp
compute         wallTemp  walls  temp
compute         wallPress all    pressure wallTemp
variable        melDens   equal  $(mass(abeads))/(lx*ly*v_D)
variable        melDens   equal  28800/(lx*ly*v_D)

#--- Forces and Energies ---#

compute         fbwall  bwall group/group rest4bot
compute         ftwall  twall group/group rest4top
compute         fwalls  bwall group/group twall

#--- Like done in comp_shear.in ---#
group           rest_bot union abeads bwall
49202 atoms in group rest_bot
group           rest_bot2 subtract all bwsurf
64504 atoms in group rest_bot2
compute         ggbot bwsurf group/group rest_bot
compute         ggbot2 bwsurf group/group rest_bot

group           rest_top union abeads twall
49202 atoms in group rest_top
group           rest_top2 subtract all twsurf
64504 atoms in group rest_top2
compute         ggtop twsurf group/group rest_top
compute         ggtop2 twsurf group/group rest_top2


#--- Calculate the applied force on each atom for the pressure applied---#
variable Fcomp equal (${Pcomp}*lx*ly)
variable Fcomp equal (1*lx*ly)
variable Fcatom equal (-${Fcomp})/(count(twout))
variable Fcatom equal (-6400)/(count(twout))


#compute	        peratom   all   stress/atom NULL
#compute	        p_all     all   reduce sum c_peratom[1] c_peratom[2] c_peratom[3]
#variable	      press_all equal -(c_p_all[1]+c_p_all[2]+c_p_all[3])/(3*v_volume)



info groups variables                              # For diagnostics


#################
# Equilibration #
#################

#--- Number Density profiles (Equil) ---#
compute         eabeads abeads chunk/atom bin/1d z lower ${binres} units reduced # Check bound keyword to maybe only bin melt area
compute         eabeads abeads chunk/atom bin/1d z lower 0.001 units reduced 
fix             abeads_edz abeads ave/chunk ${Neverye} ${Nrepeate} ${Nfreqe} eabeads density/number file abeads_edz
fix             abeads_edz abeads ave/chunk 100 ${Nrepeate} ${Nfreqe} eabeads density/number file abeads_edz
fix             abeads_edz abeads ave/chunk 100 300 ${Nfreqe} eabeads density/number file abeads_edz
fix             abeads_edz abeads ave/chunk 100 300 30000 eabeads density/number file abeads_edz
compute         ebbeads bbeads chunk/atom bin/1d z lower ${binres} units reduced # Check bound keyword to maybe only bin melt area
compute         ebbeads bbeads chunk/atom bin/1d z lower 0.001 units reduced 
fix             bbeads_edz bbeads  ave/chunk ${Neverye} ${Nrepeate} ${Nfreqe} ebbeads density/number file bbeads_edz
fix             bbeads_edz bbeads  ave/chunk 100 ${Nrepeate} ${Nfreqe} ebbeads density/number file bbeads_edz
fix             bbeads_edz bbeads  ave/chunk 100 300 ${Nfreqe} ebbeads density/number file bbeads_edz
fix             bbeads_edz bbeads  ave/chunk 100 300 30000 ebbeads density/number file bbeads_edz
compute         etbeads tbeads chunk/atom bin/1d z lower ${binres} units reduced # Check bound keyword to maybe only bin melt area
compute         etbeads tbeads chunk/atom bin/1d z lower 0.001 units reduced 
fix             tbeads_edz tbeads  ave/chunk ${Neverye} ${Nrepeate} ${Nfreqe} etbeads density/number file tbeads_edz
fix             tbeads_edz tbeads  ave/chunk 100 ${Nrepeate} ${Nfreqe} etbeads density/number file tbeads_edz
fix             tbeads_edz tbeads  ave/chunk 100 300 ${Nfreqe} etbeads density/number file tbeads_edz
fix             tbeads_edz tbeads  ave/chunk 100 300 30000 etbeads density/number file tbeads_edz

#--- Radius of gyration of the bottom brush chains ---#
compute         chunk_bot bbeads chunk/atom molecule
compute         rgbbeads bbeads gyration/chunk chunk_bot
variable        aveRg    equal  (ave(c_rgbbeads))


#--- Fixes (Equil) ---#

#velocity       abeads create ${Temp} 290842 dist gaussian
#fix             nvt_melt    abeads nvt temp ${Temp} ${Temp} 100.0

# NVE for all and langevin thermostat for melt
fix             nve_melt abeads nve
fix             lang_melt abeads langevin ${Temp} ${Temp} 0.1 798753
fix             lang_melt abeads langevin 1 ${Temp} 0.1 798753
fix             lang_melt abeads langevin 1 1 0.1 798753
fix             nve_walls  walls nve

#--- Langevin thermostat the bulk of the walls in y ---#
# Only thermostat the bulk of the wall not the surface or the outer layer
compute         Tempyt     twbulk temp/partial 0 1 0
fix             lang_tbulk twbulk langevin ${Temp} ${Temp} 0.1 87239 zero yes
fix             lang_tbulk twbulk langevin 1 ${Temp} 0.1 87239 zero yes
fix             lang_tbulk twbulk langevin 1 1 0.1 87239 zero yes
fix_modify      lang_tbulk temp Tempyt
compute         Tempyb     bwbulk temp/partial 0 1 0
fix             lang_bbulk bwbulk langevin ${Temp} ${Temp} 0.1 87239 zero yes
fix             lang_bbulk bwbulk langevin 1 ${Temp} 0.1 87239 zero yes
fix             lang_bbulk bwbulk langevin 1 1 0.1 87239 zero yes
fix_modify      lang_bbulk temp Tempyb

#--- Freeze the outer layer of the walls ---#
fix             freeze_bout bwout setforce 0.0 0.0 0.0
fix             freeze_tout twout setforce 0.0 0.0 0.0

variable        sbot equal  f_freeze_bout[1]/(lx*ly)
variable        pbot equal -f_freeze_bout[3]/(lx*ly)
#--- Thermo output ---#

thermo_style  custom step etotal ke pe epair temp c_melTemp c_wallTemp v_Fcatom v_Pcomp2 press pxx pyy pzz pxy pxz pyz c_melPress c_wallPress v_melDens v_surfcov v_aveRg v_Wall_v2 v_srate v_D v_bwzmax zhi c_fbwall[1] c_fbwall[3] c_ftwall[1] c_ftwall[3] v_sbot v_pbot #c_ggbot[1] c_ggbot[3] c_ggtop[1] c_ggtop[3]
thermo        ${Nthermo}
thermo        1000
thermo_modify flush yes

#--- Dumps ---#
#dump           eq all image ${Ndump_e} stg1.*.jpg type type zoom 2 view 60 120 bond none none


#--- Run Equilibration ---#
timestep    ${Tstep}
timestep    0.005
run         ${Nequil}
run         300000
Neighbor list info ...
  update every 1 steps, delay 0 steps, check yes
  max neighbors/atom: 2000, page size: 100000
  master list distance cutoff = 1.42246
  ghost atom cutoff = 1.42246
  binsize = 0.711231, bins = 113 113 99
  8 neighbor lists, perpetual/occasional/extra = 1 7 0
  (1) pair lj/cut, perpetual
      attributes: half, newton on
      pair build: half/bin/newton
      stencil: half/bin/3d/newton
      bin: standard
  (2) compute group/group, occasional, copy from (1)
      attributes: half, newton on
      pair build: copy
      stencil: none
      bin: none
  (3) compute group/group, occasional, copy from (1)
      attributes: half, newton on
      pair build: copy
      stencil: none
      bin: none
  (4) compute group/group, occasional, copy from (1)
      attributes: half, newton on
      pair build: copy
      stencil: none
      bin: none
  (5) compute group/group, occasional, copy from (1)
      attributes: half, newton on
      pair build: copy
      stencil: none
      bin: none
  (6) compute group/group, occasional, copy from (1)
      attributes: half, newton on
      pair build: copy
      stencil: none
      bin: none
  (7) compute group/group, occasional, copy from (1)
      attributes: half, newton on
      pair build: copy
      stencil: none
      bin: none
  (8) compute group/group, occasional, copy from (1)
      attributes: half, newton on
      pair build: copy
      stencil: none
      bin: none
WARNING: Inconsistent image flags (src/domain.cpp:784)
Per MPI rank memory allocation (min/avg/max) = 45.13 | 45.13 | 45.13 Mbytes
Step TotEng KinEng PotEng E_pair Temp c_melTemp c_wallTemp v_Fcatom v_Pcomp2 Press Pxx Pyy Pzz Pxy Pxz Pyz c_melPress c_wallPress v_melDens v_surfcov v_aveRg v_Wall_v2 v_srate v_D v_bwzmax Zhi c_fbwall[1] c_fbwall[3] c_ftwall[1] c_ftwall[3] v_sbot v_pbot 
WARNING: One or more chunks do not contain all atoms in molecule (src/compute_chunk_atom.cpp:1161)
       0    7.4473054            0    7.4473054 -0.062452098            0            0            0   -1.2546559            1  -0.36497499   0.44975477   0.44975782   -1.9944376 -1.5211458e-06 -1.7491979e-06 1.6669546e-06  -0.36497499  -0.36497499  0.068978418        0.075    3.6470057          0.1 0.0015328537    65.237797    2.3811016         70.1 1.7668207e-06 -4.8981114e-05 -1.1964862e-05 4.8981114e-05 8.7396756e-15 -0.0026562197 
    1000    8.1694253    1.4195269    6.7498983 -0.031831397   0.94636488    1.0155576   0.89755144   -1.2546559            1  -0.29910142    0.5679013   0.59801224   -2.0632178  0.001733584 9.9834186e-05 -0.002247413   -0.3807321  -0.36429187  0.069775226        0.075    3.3484274          0.1 0.0015505606    64.492804      2.72231         70.1 8.7944715e-05 -0.00037610351 1.6865641e-05 5.7615633e-05  0.072970361   -2.4417313 
    2000    7.5417643    1.4048597    6.1369046 -0.038569171   0.93658662    1.0129382   0.88272016   -1.2546559            1  -0.18647629    0.5748246   0.59553577   -1.7297892 -0.006145183 -0.0034157191 0.00049378902   -0.2667581  -0.25149859  0.069536074        0.075    3.1324614          0.1 0.0015452461    64.714612    2.6060528         70.1 0.00024836256 -0.00041389819 1.6213866e-05 0.00011900901  -0.16556963   -5.6380369 
    3000    6.9972417    1.3733231    5.6239186 -0.045911848   0.91556189    1.0085976   0.84991918   -1.2546559            1  -0.08503697   0.60758543   0.62843039   -1.4911267 0.0039156308 -0.0016685958 0.0085576073  -0.16233559  -0.14978064  0.069688421        0.075    2.9645443          0.1 0.0015486316    64.573138    2.6799404         70.1 -0.00018575898 -0.0012672015 -2.6984753e-05 0.00097505724  0.020823869   -4.0723486 
    4000    6.5856046     1.359245    5.2263596 -0.055479605   0.90617633    1.0015344   0.83889424   -1.2546559            1  0.079215569   0.69242404   0.68904018   -1.1438175 0.0022411569 -0.011946776 0.0025775096 0.0029196494  0.014925293  0.069486747        0.075    2.8176124          0.1 0.0015441499    64.760551    2.6382943         70.1 0.00024284208 -0.0013309838 0.00010977263  0.001451104   0.24787945   -5.5416711 
    5000    6.2519048     1.336038    4.9158668  -0.06316369   0.89070482    1.0056974   0.80956424   -1.2546559            1   0.14965553   0.70062235   0.71017754   -0.9618333 -0.0091297414 0.0084121187 -0.00096129519  0.076027122  0.085098029  0.069613053        0.075     2.702095          0.1 0.0015469567    64.643049    2.6566271         70.1 0.0004180674 -0.0028007162 -0.00064463303 0.0035439823   -0.2125282    1.4399395 
    6000    5.9787955    1.3328354      4.64596 -0.075695751   0.88856973    1.0050559   0.80637489   -1.2546559            1   0.14243948    0.6733643   0.67067269  -0.91671853 0.0034629374  0.011449738 0.0066891322  0.069101141   0.07792316  0.069540259        0.075    2.6001079          0.1 0.0015453391    64.710717    2.6459091         70.1 0.00044461901 -0.0053341524 -0.00045779658 0.0055350995  -0.64105647   -3.8970816 
    7000    5.7515597    1.3365911    4.4149686 -0.089744514   0.89107352    1.0138907   0.80441027   -1.2546559            1   0.20041953    0.6827824   0.68606862  -0.76759242 -0.0069752072  0.011667475 -0.0047037832   0.12725987   0.13533609  0.069514304        0.075    2.5133882          0.1 0.0015447623    64.734878    2.6576824         70.1 -0.00013451463 -0.0084906193 0.00058411546 0.0094459326  -0.67229795   -2.0698848 
    8000    5.5637023      1.31898    4.2447223  -0.10288518   0.87933263    1.0067585   0.78941627   -1.2546559            1   0.23781399   0.68873836   0.69164312  -0.66693949 0.0012805718 0.0098514955 -0.0034781272   0.16601801   0.17318838   0.06947393        0.075    2.4339948          0.1 0.0015438651    64.772498    2.5886695         70.1 0.00056187805 -0.012661851 0.0023257777  0.015053624  -0.72241029   -2.3063155 
    9000    5.4043551    1.3103601     4.093995  -0.11650611   0.87358596    1.0046197   0.78112297   -1.2546559            1   0.30490156   0.71581348   0.72008874  -0.52119754 0.0042540031 0.0021866453 -0.00040227703   0.23385983   0.24041323  0.069464483        0.075    2.3677364          0.1 0.0015436552    64.781307    2.6165044         70.1 -7.206362e-05 -0.021236445 -0.0019615607  0.023693685  0.020891727   -0.6704453 
   10000    5.2781275    1.2953334    3.9827941  -0.13354143   0.86356802    1.0036118   0.76474542   -1.2546559            1   0.33156338    0.7135061   0.71984769  -0.43866365  0.001233216 -0.0040558201 -0.0039958093   0.26201116   0.26713975  0.069516447        0.075    2.3095059          0.1 0.0015448099    64.732882    2.6405468         70.1 -0.0016391626  -0.03350338 -0.0010540923  0.038565652   0.18330208  0.015332147 
   11000    5.1940677    1.2959002    3.8981675  -0.14047047   0.86394588    1.0005835   0.76752742   -1.2546559            1    0.3775423   0.72729394   0.73934339  -0.33401044 -0.0030956103 -0.0061280542 0.0018999391   0.30773706   0.31331307  0.069476018        0.075    2.2585168          0.1 0.0015439115    64.770552    2.5869661         70.1 0.0014059006 -0.049907902 -0.0013826596  0.046193697 -0.068293366   -1.1926376 
   12000     5.145631    1.2869733    3.8586578  -0.14543585   0.85799451   0.99276538   0.76289345   -1.2546559            1   0.38730002   0.72154001   0.73024811  -0.28988806  0.001467732 7.607858e-05 0.0049696588   0.31791624   0.32357264  0.069526927        0.075    2.2177164          0.1 0.0015450428    64.723125    2.6335949         70.1 0.0030618122 -0.057808397 0.0028126573  0.060200984 -0.021000684   -1.9296349 
   13000    5.1082216    1.2942015    3.8140201  -0.15383041    0.8628134    1.0028881   0.76396899   -1.2546559            1   0.43251202   0.75045089   0.75363738   -0.2065522 -0.00084542335 -0.0064298393 0.0041013124   0.36303042   0.36813485  0.069519705        0.075    2.1849133          0.1 0.0015448823    64.729849    2.6234046         70.1 -0.00021287381 -0.068184416 0.0021064581  0.063372846   0.45159422    -1.375154 
   14000    5.0973626     1.297927    3.7994355  -0.15409095   0.86529712    1.0077309   0.76478769   -1.2546559            1   0.43438021   0.74243028   0.74595344  -0.18524307 -0.00058335404 -0.00074062112 0.0036937118   0.36482415   0.36969217   0.06948655        0.075    2.1602257          0.1 0.0015441456    64.760734    2.6077785         70.1 0.0012290175 -0.072732395 0.0029799214  0.075060079 0.0085931003   0.17693663 
   15000    5.0737807    1.2957184    3.7780623  -0.15529033   0.86382468   0.99871828   0.76863715   -1.2546559            1   0.44601777   0.75059851   0.74864752  -0.16119271 -0.00070860487 -0.015813156 0.0074527036   0.37611161   0.38190827  0.069489795        0.075    2.1338829          0.1 0.0015442177     64.75771    2.6124697         70.1 0.0016360052 -0.083771976 -0.00061874563  0.082554098   0.85961727   -0.4630237 
   16000    5.0522928    1.2822379    3.7700549  -0.15541089   0.85483757   0.99706459   0.75447385   -1.2546559            1   0.45346658   0.75105127   0.75375904  -0.14441058 0.0019685846 0.0016391385 -2.4761113e-05   0.38484854   0.38946323  0.069436875        0.075    2.1072597          0.1 0.0015430417    64.807064    2.6232271         70.1 0.0021699358 -0.085626888 -0.0011783365  0.082907393   0.28023866  -0.82458452 
   17000    5.0511732    1.2946745    3.7564987   -0.1584426   0.86312871    1.0099442   0.75952661   -1.2546559            1   0.45425727   0.75037888   0.75206976  -0.13967682 -0.0038255197 0.0076048369 -0.0030613511    0.3851797   0.38942716   0.06945993        0.075    2.0856999          0.1  0.001543554    64.785553    2.5805807         70.1 -0.0045147224 -0.077432343 0.0025744114   0.08166099   0.28086189  -0.22797744 
   18000    5.0487576    1.2847987    3.7639589   -0.1559252   0.85654478   0.99151948   0.76129982   -1.2546559            1   0.48429779   0.76572444   0.76685648  -0.07968755 0.0030190693 -0.0022663058  0.003864086   0.41505894   0.42065039  0.069518686        0.075    2.0671914          0.1 0.0015448597    64.730798    2.6197517         70.1 0.0027414747  -0.08781416 0.0018217965  0.092102782  -0.78006858  -0.81146555 
   19000    5.0577315    1.2957312    3.7620003  -0.15612083   0.86383324    1.0073665    0.7625478   -1.2546559            1   0.47035361   0.75480083   0.75828313  -0.10202311 -0.0038298404 -0.0060969242 -0.0066010288   0.40100126   0.40568897  0.069491334        0.075    2.0547575          0.1 0.0015442519    64.756275    2.6040886         70.1 0.00035550265 -0.092134734 9.7913218e-05  0.091800412   -1.0306807  -0.17615225 
   20000    5.0396748    1.2843497    3.7553251  -0.15726234   0.85624547   0.99134326   0.76091363   -1.2546559            1   0.48554098   0.76704148   0.76298537 -0.073403898 -0.0019593965 -0.0048479413 0.0024119395   0.41633726    0.4219049  0.069528507        0.075     2.039044          0.1 0.0015450779    64.721654    2.6396528         70.1  0.000122684 -0.097441802 0.0025558298  0.093209573  -0.28329386  0.039913786 
   21000     5.039336    1.2812999    3.7580362  -0.15806147   0.85421219   0.99860084   0.75232275   -1.2546559            1   0.46942249    0.7546628   0.75063869 -0.097034009 0.0025505535  0.013799787 -0.00056521135   0.40100009   0.40532053  0.069479108        0.075    2.0263612          0.1 0.0015439802    64.767671    2.6615826         70.1 -1.9636165e-05    -0.098883 0.00011476343  0.089892954  -0.14726494   -1.0600287 
   22000    5.0381212    1.2832922     3.754829  -0.15646406   0.85554045    1.0013341   0.75265943   -1.2546559            1   0.48932101   0.76668396   0.76398368 -0.062704611 0.0090540526  0.022787983  0.011998855   0.42086799   0.42504359  0.069484318        0.075    2.0119651          0.1  0.001544096    64.762814    2.6022377         70.1 -0.0015449082 -0.094795024 -0.00059540817  0.087663672   0.13492889   0.51761269 
   23000    5.0386806    1.2844458    3.7542348  -0.15687169   0.85630951   0.99994743      0.75495   -1.2546559            1   0.50280832   0.77321906   0.77462726 -0.039421346 0.0042575798  0.014459144 0.0013689309   0.43414698   0.43861992  0.069478873        0.075    1.9978597          0.1  0.001543975     64.76789    2.6068317         70.1 2.9765488e-05 -0.091085333 0.0065290545  0.096201029    0.4274328  -0.14638335 
   24000    5.0363158    1.2885502    3.7477656  -0.15634921   0.85904579    1.0015606   0.75847903   -1.2546559            1   0.49110192    0.7670751   0.76333303 -0.057102366 0.0035835731   0.01924351  0.011353658   0.42211962   0.42680996  0.069492602        0.075    1.9860267          0.1   0.00154428    64.755094    2.5920217         70.1 0.0010244412 -0.093718666 0.0013977427  0.092260295  -0.21126628  -0.76393725 
   25000    5.0294827    1.2813736    3.7481092  -0.15804312   0.85426132   0.99650708   0.75388435   -1.2546559            1   0.48020582   0.75543575   0.75565587 -0.070474154 -0.004126063 0.0085185993 -0.004041992    0.4116414   0.41623826   0.06951572        0.075    1.9759864          0.1 0.0015447938    64.733559     2.608146         70.1 -0.0021829114 -0.092902996 0.0014978291  0.094436382  -0.46358629  -0.25414562 
   26000    5.0282052     1.286286    3.7419192  -0.15841997   0.85753635   0.99741027   0.75883352   -1.2546559            1   0.47880442   0.75453232   0.75511555 -0.073234616 0.0017802598 -0.011855492 0.0027313633   0.40978988   0.41477888  0.069565591        0.075    1.9707133          0.1  0.001545902    64.687152    2.6603332         70.1 0.0024705207 -0.099867259 -0.00010855271   0.09211675   0.23243866 -0.014008565 
   27000    5.0306122    1.2791977    3.7514145  -0.15845924   0.85281071   0.99498194   0.75248632   -1.2546559            1   0.48737745    0.7583436   0.76022077 -0.056432017 0.0020541634 -0.019230889 0.0066593304   0.41894018   0.42350779  0.069563869        0.075     1.957327          0.1 0.0015458637    64.688754    2.6859341         70.1 -0.0005611856 -0.095951932 -0.00043334366   0.10549247   0.33046613    0.8966327 
   28000     5.036038    1.2843872    3.7516507   -0.1565734   0.85627045    1.0019315   0.75348299   -1.2546559            1   0.50683675   0.77598589   0.77584133  -0.03131699 0.0071751042 -0.020734987 -0.00025573169   0.43830882   0.44252098  0.069534368        0.075    1.9458047          0.1 0.0015452082    64.716199    2.6235409         70.1 -0.00066249039  -0.11081944 0.0020969701   0.10163929    1.0519702   0.46635065 
   29000    5.0307801    1.2774886    3.7532915  -0.15621274   0.85167129     1.002212   0.74543967   -1.2546559            1   0.50032401   0.77063805   0.76668009 -0.036346113 -0.0030829292 -0.010047717 -0.0011728642   0.43252761   0.43599024  0.069528379        0.075    1.9433945          0.1 0.0015450751    64.721773    2.6130628         70.1 0.00081425677 -0.099489881 -0.0008904424  0.095666692   0.53048116   -1.0820472 
   30000    5.0152975    1.2748404    3.7404571   -0.1596951   0.84990579   0.99677565     0.746265   -1.2546559            1   0.48049747    0.7506778    0.7549586 -0.064144004 0.0041009341 -0.0019248518 0.0044842642   0.41262601   0.41651266  0.069519062        0.075    1.9381452          0.1  0.001544868    64.730448    2.6257718         70.1 -0.00076661763 -0.097899028 -0.011508726    0.1087206   0.91650261 -0.026930185 
   31000    5.0254083    1.2816848    3.7437235  -0.15614231   0.85446881   0.99734371    0.7536478   -1.2546559            1   0.48830164   0.75806697   0.76149162 -0.054653659 0.0014772978 0.00079362284 -0.0034431946   0.41975873   0.42428037  0.069457701        0.075    1.9269576          0.1 0.0015435045    64.787632    2.6288496         70.1 0.0045264015 -0.098488235 0.0010083561   0.10612366  -0.60308255   -1.1337624 
   32000    5.0268838    1.2822454    3.7446384  -0.15698749   0.85484254    1.0033714   0.75003094   -1.2546559            1   0.49995433   0.76763759   0.76934334 -0.037117939 -0.0025887152 0.0077464861  0.004523481   0.43174037   0.43554614  0.069488953        0.075    1.9211744          0.1 0.0015441989    64.758495    2.5995189         70.1 0.0021113497  -0.11278458  0.001851618   0.10103523  -0.70749663   0.22869552 
   33000    5.0302512    1.2860314    3.7442197  -0.15642737   0.85736662    1.0090058   0.75035976   -1.2546559            1   0.49694331   0.77009959   0.76535925   -0.0446289 -0.0053773956  0.027974298 0.0014775232   0.42869944   0.43217343  0.069536357        0.075    1.9083543          0.1 0.0015452524    64.714348    2.6314427         70.1 0.0023998325 -0.096728035 0.0049883714    0.1014731  -0.34473329   0.18984995 
   34000    5.0285923     1.275747    3.7528453   -0.1557667    0.8505102    1.0005584   0.74462613   -1.2546559            1   0.48546139   0.75328434   0.75499909 -0.051899245 -0.0073379308 0.0086409983 0.0013840186   0.41773899   0.42123377   0.06948615        0.075    1.9070916          0.1 0.0015441367    64.761107     2.599117         70.1 0.0013364745  -0.10165419 -0.0010468131   0.10869434   0.16724132  -0.39282259 
   35000    5.0427256    1.2869994    3.7557261  -0.15518103   0.85801194    1.0021534   0.75629711   -1.2546559            1   0.47168722   0.74811446   0.74467709 -0.077729895 0.0034893025  0.013226812 -0.010449364   0.40290336   0.40735721  0.069518395        0.075    1.9033319          0.1 0.0015448532    64.731068    2.6307171         70.1 0.0044621365 -0.098032269 -4.2364595e-05   0.10270929   0.42258966 -0.028479293 
   36000    5.0234567    1.2781406     3.745316  -0.15785985     0.852106    1.0003336   0.74750695   -1.2546559            1   0.48909238    0.7596906   0.75836397 -0.050777429 -0.00077589484  0.011390431 -0.0044379059   0.42110797   0.42487918  0.069565806        0.075    1.8960557          0.1 0.0015459068    64.686952    2.6287929         70.1 0.0032046973  -0.10133424 -0.0011997799  0.095787824 -0.021645708   0.64799292 
   37000    5.0282332    1.2732256    3.7550076  -0.15751655   0.84882924   0.99460871   0.74595802   -1.2546559            1   0.49648901   0.76185376   0.76523627 -0.037623011  0.001819066 -0.0017809544 -0.013588485   0.42864547    0.4326433  0.069525515        0.075    1.8873127          0.1 0.0015450114     64.72444    2.6773892         70.1 0.0012688249  -0.10631402 -9.1047547e-05  0.099589721   0.27712445   -1.0579494 
   38000    5.0311296    1.2855794    3.7455502  -0.15719239   0.85706524    1.0058622   0.75206448   -1.2546559            1   0.51271125   0.77609374   0.77698131 -0.014941309 0.0018338033 -0.016418879 -0.0061381409   0.44431234   0.44814317  0.069503087        0.075    1.8795892          0.1  0.001544513    64.745325    2.6144406         70.1 0.00045921243 -0.098335325 -0.00082432745  0.094172898   0.45858219  -0.13678566 
   39000    5.0225039    1.2739227    3.7485812  -0.15675631   0.84929402   0.99999202   0.74295129   -1.2546559            1    0.4912826   0.75902905   0.76020994 -0.045391191 0.0024679265 -0.0055426597 0.00044118596   0.42371252   0.42709133  0.069539241        0.075    1.8728893          0.1 0.0015453165    64.711664    2.6187286         70.1  0.003172698  -0.10342833 0.0040143488  0.096975765  -0.36030293   0.27286836 
   40000    5.0348701    1.2750193    3.7598509  -0.15504247   0.85002505   0.99234176    0.7495979   -1.2546559            1    0.4646339   0.74206013    0.7395095 -0.087667946 -0.003725276 -0.0011928147 -0.0023720102   0.39645932   0.40093371  0.069535704        0.075    1.8731657          0.1 0.0015452379    64.714956    2.6259255         70.1 -0.0023295337 -0.097169922 0.0026728715   0.10148809  -0.20423402   -1.1120591 
   41000    5.0227963    1.2771174    3.7456788  -0.15707181   0.85142387   0.99752011   0.74832913   -1.2546559            1   0.50332528   0.76744261    0.7718102 -0.029276966 -0.0076967659 0.0032263351 -0.0083039919   0.43526609   0.43929269  0.069519083        0.075    1.8653331          0.1 0.0015448685    64.730428    2.6225906         70.1 -0.0035463386  -0.11240203 -0.0020518428   0.10048887   0.86548364   0.30878673 
   42000    5.0279768     1.281996    3.7459808  -0.15653719   0.85467627   0.99874636   0.75301168   -1.2546559            1   0.50991189   0.77544913   0.77227734 -0.017990807 -0.00032018618 -0.0043582833 0.0099958238   0.44142683   0.44580058  0.069467152        0.075    1.8657015          0.1 0.0015437145    64.778818     2.608037         70.1 -0.0046001388 -0.098174675 0.0051708073   0.10075232   0.70693349   -1.0842261 
   43000    5.0320724    1.2821192    3.7499532  -0.15696475    0.8547584   0.99694592   0.75442255   -1.2546559            1   0.51601439   0.77964873   0.77610452 -0.0077100767 0.00091489281 0.0083765357 -0.0064048265   0.44740102   0.45201866  0.069484288        0.075    1.8612353          0.1 0.0015440953    64.762843    2.6118379         70.1 0.0024475487  -0.10611618 0.0018293286   0.10000287  -0.13409575   0.62849148 
   44000    5.0276122    1.2820654    3.7455467  -0.15856137   0.85472257    0.9973934    0.7540456   -1.2546559            1   0.49263329    0.7608938   0.76404334  -0.04703726 0.0020369559 -0.012287668 -0.00013722003    0.4240542   0.42860884  0.069521991        0.075    1.8525999          0.1 0.0015449331     64.72772    2.6097678         70.1 0.00096047942 -0.097227944 -0.0014794379   0.10012166  -0.12691773   0.18452196 
   45000     5.034833    1.2789758    3.7558572  -0.15489049   0.85266276   0.99503066   0.75219956   -1.2546559            1    0.4663475   0.73606268   0.74294661 -0.079966788 0.0030362094 -0.0027059684 0.0024707774   0.39793631   0.40247471   0.06953972        0.075    1.8457355          0.1 0.0015453271    64.711218     2.627167         70.1 -0.0019446637 -0.095287762 0.0018323298   0.10018851  -0.47018592   -1.0407966 
   46000    5.0290934    1.2843492    3.7447442  -0.15614777   0.85624513    1.0031899   0.75255162   -1.2546559            1   0.51122032    0.7751932   0.77533395 -0.016866188 -0.0033350838 -0.021691396 -0.0085944987   0.44277711   0.44682377   0.06951006        0.075    1.8413388          0.1  0.001544668    64.738831    2.6180505         70.1 -0.0017149643  -0.10293531 0.0042974056   0.10091934  -0.90317733   0.16165022 
   47000    5.0233482    1.2755031    3.7478451  -0.15643589   0.85034764   0.99863675   0.74570515   -1.2546559            1   0.53294701   0.78748993   0.79093122  0.020419894 -0.0015278411 -0.0092676333 -0.0049455553   0.46512647   0.46884274  0.069505389        0.075    1.8419886          0.1 0.0015445642    64.743181    2.6427568         70.1 0.0034358219 -0.097488956 0.0010962838  0.091227343  -0.97346474   0.77633193 
   48000    5.0207239    1.2770328    3.7436911  -0.15819252   0.85136742   0.99812963   0.74780264   -1.2546559            1   0.49765495   0.76377129   0.76037543 -0.031181864 -0.001569101 -0.0053995912 -0.0052778828   0.42964365   0.43358324  0.069598489        0.075    1.8392463          0.1 0.0015466331    64.656576    2.6683215         70.1 0.00090515048  -0.10394912 -0.00054889571   0.10884105   0.23435122  -0.15524476 
   49000    5.0221193    1.2812381    3.7408812  -0.15499433   0.85417102   0.99620045   0.75394674   -1.2546559            1   0.50277823   0.76594592   0.76876152 -0.026372753 0.0038779665 0.0058511744 -0.0013747775   0.43420813   0.43883035  0.069542468        0.075    1.8355913          0.1 0.0015453882    64.708662    2.6436985         70.1 0.0047928344  -0.10272659 0.0029648545  0.095956888   0.78121866   0.46964722 
   50000    5.0262589    1.2792586    3.7470004  -0.15561808    0.8528513   0.99166842   0.75489424   -1.2546559            1   0.50401742   0.76787444   0.76852556 -0.024347736 -0.00068659901 0.0029846882  0.010987178   0.43536115   0.44036046  0.069474672        0.075    1.8356526          0.1 0.0015438816    64.771806    2.6299574         70.1 0.00064359541  -0.10144503 0.0013984613  0.099056409   0.30286067  0.032872403 
   51000    5.0248601    1.2745173    3.7503428  -0.15725431   0.84969041   0.99707064    0.7456894   -1.2546559            1   0.49470734   0.75721392   0.76374336 -0.036835256 -0.0023160072 -0.0015241692 -0.0032882887   0.42688823    0.4307036  0.069465803        0.075    1.8311242          0.1 0.0015436845    64.780076     2.618439         70.1 -0.00095124951  -0.10502561 -0.00073822621  0.099532622  -0.28575648   0.41557873 
   52000    5.0269347    1.2805801    3.7463545  -0.15467014   0.85373234    1.0055116   0.74662656   -1.2546559            1    0.4973753    0.7637076   0.76225388 -0.033835584 0.0041255376 -0.0066758069 0.0019837508   0.42947096   0.43282972  0.069487115        0.075    1.8267288          0.1 0.0015441581    64.760208    2.5903433         70.1 0.0003235157  -0.10986805 0.00059538094   0.10784523  -0.16014182  -0.66350246 
   53000    5.0317453    1.2825923    3.7491529  -0.15912193   0.85507385    1.0010917   0.75203452   -1.2546559            1   0.51164162   0.77524918   0.77153113 -0.011855435 -0.0074701173 -0.023619291 -0.0023457685   0.44324544   0.44737976  0.069547226        0.075     1.824036          0.1 0.0015454939    64.704234    2.6545845         70.1 -0.0033807171  -0.10731561 0.0031315732   0.10051985   0.56427871  0.014077816 
   54000    5.0369443    1.2853345    3.7516098  -0.15658264   0.85690195    1.0025415   0.75412968   -1.2546559            1   0.52654909   0.78021137   0.79031512 0.0091207686 0.00063091139 -0.023291715 0.0027801344   0.45796235   0.46219416  0.069541273        0.075      1.82494          0.1 0.0015453616    64.709773    2.6453007         70.1 0.0012894653  -0.10307652 0.0011983344   0.11225955  -0.24763045    1.0097699 
   55000    5.0279654    1.2769273     3.751038  -0.15575369   0.85129712   0.99806444   0.74772873   -1.2546559            1   0.49609536   0.75868712   0.75917208 -0.029573115 -0.0038400508 -0.011324278 0.00076887637   0.42809078   0.43202783  0.069521173        0.075    1.8215275          0.1 0.0015449149    64.728482    2.6169104         70.1 0.00018164454  -0.10374998 -0.0011120263   0.11370834    0.2445285   0.15546158 
   56000    5.0221943    1.2805234    3.7416709  -0.15813491   0.85369453    1.0017535   0.74921456   -1.2546559            1   0.50023861   0.76251611   0.76296451  -0.02476479 0.0075459925 0.0047077893 0.00075957646    0.4320989   0.43593427  0.069432453        0.075    1.8141034          0.1 0.0015429434    64.811191    2.5541309         70.1 -5.1407262e-05 -0.099120392 0.0017155804   0.11013924   0.85175199  -0.92305535 
   57000    5.0223128     1.276415    3.7458978  -0.15545946   0.85095554   0.99692736   0.74794861   -1.2546559            1   0.51587831   0.77302037   0.77535857 -0.00074400827 -0.0019457653  0.019869939 0.0022027646   0.44785373   0.45188377  0.069462912        0.075    1.8092901          0.1 0.0015436203    64.782772    2.6265069         70.1 -0.00062732891  -0.10221806 6.8968146e-05    0.1199259    0.4382364   0.53536344 
   58000     5.021362    1.2790311    3.7423308  -0.15641147   0.85269968   0.99564489     0.751829   -1.2546559            1   0.52971111   0.78436728   0.78693236  0.017833705 -0.004741708  0.013111865  0.006811384   0.46133362    0.4657989  0.069586866        0.075     1.807259          0.1 0.0015463748    64.667376    2.6422373         70.1 -0.0021363981  -0.10513688 -0.0010233413   0.10850582  -0.18136065   0.53006243 
   59000    5.0172634    1.2758301    3.7414333  -0.15593302   0.85056561   0.99550726   0.74828578   -1.2546559            1   0.53173753   0.78833141   0.78841923  0.018461957 -0.00042467497  0.018091927 -0.00095767065   0.46368229   0.46783415  0.069564886        0.075    1.8127027          0.1 0.0015458863    64.687809    2.6544302         70.1 0.00067231018  -0.10768764 -0.00026420463    0.1123143  -0.34753693   0.70683507 
   60000    5.0271925    1.2777834    3.7494092  -0.15712709   0.85186781    1.0037321   0.74470196   -1.2546559            1   0.50870282   0.76825677   0.77047266 -0.012620979 -0.0031264578  0.023742514 -0.00058563382   0.44097352   0.44427147  0.069471835        0.075    1.8066267          0.1 0.0015438186    64.774451     2.640861         70.1 -0.00026751163  -0.10273078 0.00088555177   0.11018826   0.17105241   0.30904992 
   61000     5.038939    1.2790041    3.7599349   -0.1544213   0.85268166    1.0036077   0.74617807   -1.2546559            1   0.47003784   0.74359438   0.73847823 -0.071959092 0.0026825008 0.0057492215 0.0055321905   0.40217429   0.40561448  0.069456262        0.075    1.8013845          0.1 0.0015434725    64.788975    2.5859253         70.1 -0.0013766204  -0.10328251 -0.00044418549   0.10204938  -0.17003955   -1.5925162 
   62000    5.0438048    1.2866098    3.7571951  -0.15667169   0.85775216    1.0137758   0.74765077   -1.2546559            1   0.50620251   0.76626614   0.76764721 -0.015305806 -0.0038778817 0.0020100646 0.0049301389   0.43820502   0.44112644  0.069543918        0.075    1.7973133          0.1 0.0015454204    64.707312    2.6442673         70.1 -0.0024648346    -0.110487 -0.00072891219   0.10396945   0.30726722  -0.89250485 
   63000    5.0300858    1.2816728    3.7484129  -0.15379773   0.85446084    1.0037899   0.74908441   -1.2546559            1   0.51545359   0.77740948   0.77140406 -0.0024527729 0.0059665511 -0.019443198 0.0023342033   0.44732571   0.45101853  0.069466538        0.075    1.7920951          0.1 0.0015437008    64.779391    2.6358233         70.1 0.0025250176  -0.11176017 0.0011682861    0.1059189   0.69376647   0.67218707 
   64000    5.0319009    1.2799753    3.7519256  -0.15909542   0.85332912    0.9997394    0.7500128   -1.2546559            1   0.50737183   0.77053376   0.76722902 -0.015647291 -0.0090002966 -0.021946045  0.011279914   0.43915952   0.44319678  0.069470889        0.075    1.7911151          0.1 0.0015437975    64.775334    2.5805747         70.1 0.0033535318  -0.10779604 -0.0014487319   0.10907132   0.14558541   0.11620353 
   65000    5.0382145    1.2828648    3.7553498  -0.15602779   0.85525548   0.99404611   0.75731719   -1.2546559            1    0.5202752   0.77977721   0.78086442 0.00018396579 -0.0087594588 -0.0025208702   0.00641035   0.45139856   0.45646561  0.069486072        0.075    1.7840399          0.1 0.0015441349     64.76118    2.6232226         70.1 -0.003446836  -0.10471164 0.0011211109    0.1087158  -0.66264113  -0.81713617 
   66000    5.0453134    1.2823718    3.7629417  -0.15434927   0.85492681   0.99988638   0.75263443   -1.2546559            1   0.50629786    0.7700737   0.76932776 -0.020507868 -0.0034649508  0.021256077 0.0049044661   0.43784712   0.44211338  0.069447291        0.075    1.7845377          0.1 0.0015432731    64.797344     2.584751         70.1 -0.00056417584  -0.10541646 -0.00085617234   0.10993799  -0.70629268  -0.19553107 
   67000    5.0287001    1.2741006    3.7545994  -0.15431579   0.84941263   0.98832074   0.75139127   -1.2546559            1   0.49053179    0.7561335   0.76006846  -0.04460659 0.00046251877  0.017086736 0.0039089944   0.42219411   0.42708972  0.069461524        0.075    1.7832134          0.1 0.0015435894    64.784067    2.6266751         70.1 -0.0024012245  -0.10909514 0.0032781722   0.10109963  -0.26205577   -1.6605008 
   68000    5.0327212    1.2847844    3.7479367  -0.15515988   0.85653526    1.0035278   0.75280804   -1.2546559            1   0.51558022   0.77362294   0.77333784 -0.00022010423  0.003381306   0.02039929 0.0021089674   0.44711369   0.45116199   0.06953845        0.075    1.7834894          0.1 0.0015452989      64.7124    2.6360422         70.1 0.0021393506  -0.11399366 -0.002415716   0.10540775  -0.35005102   0.26161973 
   69000    5.0230702    1.2721917    3.7508785  -0.15620929   0.84813999   0.99286261   0.74601469   -1.2546559            1   0.52721303   0.78258884   0.78524076  0.013809483 -0.0019668733  0.013164022 -0.0017376366   0.45936434   0.46347941  0.069475576        0.075    1.7793413          0.1 0.0015439017    64.770964    2.6104909         70.1 0.0056576542  -0.10988956 -0.007014863    0.1020697  -0.13734663   0.44514277 
   70000    5.0267537    1.2764969    3.7502568  -0.15561172   0.85101016   0.99415874   0.74999589   -1.2546559            1   0.49812686   0.76009742   0.75812836 -0.023845195 0.0022152243 -0.0094559663 -0.0044307148   0.42991609   0.43431004  0.069495841        0.075    1.7714754          0.1  0.001544352    64.752077    2.6285621         70.1 0.00062989739  -0.11040584 0.0012652279   0.11408448  -0.39003785  -0.33549355 
   71000    5.0192086    1.2731055    3.7461031  -0.15482883   0.84874919   0.98973607   0.74926061   -1.2546559            1   0.50006879   0.76428378   0.76291638 -0.026993791 -0.0014265272 -0.017384875 0.0028473732   0.43192489   0.43653587  0.069459658        0.075    1.7670936          0.1 0.0015435479    64.785807    2.5998143         70.1 -9.5191243e-05   -0.1115153 0.0038993299   0.10568707  -0.07563237  0.039273097 
   72000    5.0203403    1.2758051    3.7445352  -0.15868772   0.85054897    0.9942976   0.74911117   -1.2546559            1   0.50158144   0.76298263   0.76466177 -0.022900072 0.0025390139 -0.015799266 0.0065334125   0.43345113   0.43775571   0.06949735        0.075    1.7669453          0.1 0.0015443856     64.75067    2.6500309         70.1  0.001966653 -0.099154351 -0.0012612151   0.10172719   0.48323849 -0.078548025 
   73000    5.0334226    1.2804394    3.7529831  -0.15706548   0.85363855   0.99738651    0.7522013   -1.2546559            1   0.49932919   0.76206364   0.76302632 -0.027102395 0.0039798551 -0.015830169 0.0065885748   0.43091784   0.43530518  0.069533313        0.075     1.764489          0.1 0.0015451847    64.717181    2.6468963         70.1 -0.0022814482  -0.11003957 -0.0012819862   0.10375957   0.58050274  -0.12522758 
   74000    5.0370814    1.2805343    3.7565471  -0.15658115   0.85370183   0.99651691   0.75292302   -1.2546559            1   0.52300521   0.78095802   0.78016198 0.0078956355 0.0038966462 0.0072236458 0.0041302788   0.45452822   0.45903702  0.069539673        0.075    1.7655232          0.1 0.0015453261    64.711262    2.5999103         70.1 0.00044940418  -0.10565388 0.0027680371  0.098880976   0.76219403    0.4579937 
   75000    5.0277539    1.2798673    3.7478866  -0.15532528   0.85325715    1.0021752   0.74817084   -1.2546559            1   0.52733519   0.78290642   0.78409578  0.015003377 -0.0078430809  0.026971128 0.0028578667    0.4592904   0.46300379   0.06952587        0.075    1.7651555          0.1 0.0015450193    64.724109     2.615452         70.1 -0.0040916359  -0.10582968 -0.001606563   0.11288817 -0.048272575   0.49239191 
   76000      5.02552    1.2824455    3.7430746  -0.15568115   0.85497592   0.99725424   0.75457599   -1.2546559            1   0.52845704   0.78439917   0.78619936  0.014772586 -0.00038608875 -0.0010012486 0.0089170083   0.45982971   0.46444152  0.069563432        0.075    1.7640983          0.1  0.001545854     64.68916    2.6695101         70.1 0.00029106067    -0.108449 0.0064762586   0.11495223   0.54094663 -0.0032101223 
   77000    5.0392201    1.2860819    3.7531382  -0.15771365   0.85740022    1.0019927   0.75536703   -1.2546559            1   0.50279336   0.76278521   0.76717032 -0.021575442 -0.0055773611  0.016983727 -0.0078781357   0.43409409   0.43847367  0.069546372        0.075    1.7643355          0.1 0.0015454749    64.705029    2.6587086         70.1 0.0041254715  -0.10729022 0.00074056573   0.10659722  -0.37709218   0.21429369 
   78000    5.0293261     1.279234    3.7500921  -0.15619749   0.85283492   0.99597716   0.75182518   -1.2546559            1   0.49581039   0.75622965   0.76366598 -0.032464463 0.0032165506 0.0056442559 0.0045585966   0.42743324   0.43187684  0.069500569        0.075    1.7627132          0.1 0.0015444571    64.747672    2.6263615         70.1 0.00050539281  -0.10203686 -0.0018024343   0.11163837  -0.33684258    0.7833474 
   79000    5.0251965     1.284215    3.7409815  -0.15861273   0.85615561    1.0000527   0.75461318   -1.2546559            1   0.50482489   0.76828035   0.76927351  -0.02307918 -0.0036615051 0.0052031508 -0.0046810872   0.43619418   0.44062973  0.069546461        0.075    1.7618058          0.1 0.0015454769    64.704946    2.6725572         70.1 -0.00034562229  -0.10564022 0.00036953983   0.11117398  -0.02402334  -0.60048202 
   80000    5.0252415    1.2739029    3.7513387  -0.15767688   0.84928077   0.99407115   0.74710767   -1.2546559            1   0.51075002   0.77438896    0.7688082 -0.010947108 0.0046263735 0.0098723398 -0.0028533443   0.44280192   0.44693882  0.069549217        0.075    1.7582778          0.1 0.0015455382    64.702382    2.6370052         70.1 -0.0024366567  -0.09511298  0.002011953   0.10109038  -0.45592353 -0.043434243 
   81000    5.0307655    1.2805555      3.75021  -0.15459078   0.85371592   0.99319265   0.75529333   -1.2546559            1   0.52544669   0.78701083   0.78047124 0.0088579971 -0.004492981 0.0083225559 -0.0010652309   0.45675412   0.46169189  0.069497687        0.075    1.7540046          0.1  0.001544393    64.750357    2.6588295         70.1 5.0012171e-05  -0.09640788 0.00025086607   0.10796962  0.097159155    0.6946478 
   82000    5.0297433    1.2825832    3.7471602  -0.15348824   0.85506773    1.0041849    0.7498409   -1.2546559            1   0.50973226    0.7687831   0.77298754 -0.012573853 -0.0048259808  0.014739504 0.0022176367   0.44153558   0.44527185  0.069512822        0.075     1.752217          0.1 0.0015447294    64.736258    2.6227927         70.1 -0.00022373174  -0.10329599 -0.00028291555   0.11591725  -0.25953857 -0.0067528089 
   83000    5.0379736    1.2828673    3.7551064  -0.15453668   0.85525713   0.99667405   0.75546519   -1.2546559            1   0.51123822   0.77395726   0.76733407 -0.0075766671 0.0024788216 0.00081528366 -0.0085322636   0.44253002   0.44725994  0.069472168        0.075    1.7471812          0.1  0.001543826    64.774141     2.633905         70.1 -0.0015008233  -0.10412776 0.0021759446   0.11659096  -0.36317886   -0.7020712 
   84000    5.0364824    1.2812199    3.7552625  -0.15497939   0.85415886   0.99978474   0.75139619   -1.2546559            1   0.51931778     0.778303   0.77485897  0.004791366 -0.0044696292  0.013094213 -0.0038975478   0.45097965   0.45513982  0.069575657        0.075    1.7447821          0.1 0.0015461257    64.677793    2.6705174         70.1 0.00059646616  -0.10632697 -0.002744987  0.099905272  -0.95178262   0.39566423 
   85000    5.0334331    1.2769092    3.7565238   -0.1579692   0.85128506    1.0016362   0.74518718   -1.2546559            1   0.49294588   0.75519899   0.75991263 -0.036273974 0.0014714972 -0.006595735 0.0035223693   0.42517245   0.42864907  0.069440158        0.075    1.7361778          0.1 0.0015431146       64.804    2.6174173         70.1 -0.0027526126   -0.0966106 0.0015344714   0.10571119 -0.042207223   -0.1398206 
   86000    5.0318974    1.2844056    3.7474918  -0.15676296    0.8562827    1.0021656   0.75333865   -1.2546559            1   0.49212041   0.76259852   0.75733629 -0.043573573 -0.00047151004 -0.020435587 0.0029678868   0.42360562   0.42778962   0.06949603        0.075    1.7357799          0.1 0.0015443562      64.7519    2.6393241         70.1 0.00079049141  -0.10280207  0.002358099   0.10480658   0.53034473   -1.0958383 
   87000    5.0293616    1.2748657     3.754496   -0.1559963   0.84992265    1.0018486    0.7427132   -1.2546559            1   0.49957673    0.7617073   0.76410436 -0.027081483 0.0017570672 -0.0039703381  0.013642307    0.4320283   0.43526628  0.069454175        0.075     1.736749          0.1 0.0015434261    64.790921    2.5897705         70.1 0.0043772673  -0.11266015 -0.0027423325   0.11594344   0.15352422  -0.32147924 
   88000    5.0426119    1.2847445    3.7578673  -0.15587493   0.85650867    1.0057868   0.75116828   -1.2546559            1   0.49550713    0.7576661   0.76375807 -0.034902789 0.00029842521 -0.021941444 -0.0093271409   0.42718973   0.43094388  0.069566486        0.075    1.7329863          0.1 0.0015459219     64.68632     2.666012         70.1 0.0024814055  -0.10425504 8.4412534e-05   0.10112078   0.17337428   0.27556921 
   89000    5.0301783    1.2766638    3.7535144  -0.15503129   0.85112143    1.0001058   0.74598826   -1.2546559            1   0.50756484   0.76802687   0.76955799 -0.014890337 0.0072465344 0.0023462545 0.00039845661   0.43971855   0.44336627   0.06950066        0.075    1.7306512          0.1 0.0015444591    64.747587    2.6216146         70.1 -0.0017583599  -0.10381305 -0.00058450372   0.10310054  -0.26308418   0.48287389 
   90000    5.0325401    1.2769019    3.7556382  -0.15470874   0.85128018   0.99637547   0.74889192   -1.2546559            1   0.52138371   0.77699659   0.77916576 0.0079887896 -0.0065291084  -0.01759898 -0.0045013517   0.45327334    0.4574246  0.069483063        0.075      1.72661          0.1 0.0015440681    64.763984    2.6086074         70.1 0.0016192172  -0.10804784 -3.799504e-05   0.10880887   0.53216634   0.30083404 
   91000     5.039575    1.2842857    3.7552893  -0.15660326   0.85620276     1.004585   0.75149466   -1.2546559            1   0.50820913   0.76748704   0.77076581 -0.013625477 0.0011447316 -0.011085836 0.0026558246   0.43986204   0.44372303  0.069512316        0.075    1.7243941          0.1 0.0015447181    64.736729    2.6336603         70.1 -0.00022984079   -0.1047181 -0.0019957613  0.099927919   0.44984023   -1.0750518 
   92000    5.0374083    1.2882586    3.7491497   -0.1585101   0.85885141    1.0106496   0.75173241   -1.2546559            1   0.51844128   0.77764816   0.77383451 0.0038411548  0.011840976 -0.011011062 -0.0019294019   0.45007257   0.45356588   0.06950291        0.075    1.7244893          0.1 0.0015445091     64.74549    2.6291214         70.1 -0.0027400192  -0.10475524 -0.0029888325    0.1062673   0.40160938   0.92003445 
   93000    5.0339302    1.2844251    3.7495051  -0.15663535   0.85629571    1.0006841    0.7544065   -1.2546559            1   0.49745676   0.76150082   0.76028816 -0.029418691 -0.00086535034 -0.0063407048 -0.0087210006   0.42884485   0.43322107  0.069422399        0.075    1.7208057          0.1   0.00154272    64.820577    2.5915306         70.1 -0.00018010769  -0.10468045 0.0010169869   0.10304002   0.25212068  -0.23456455 
   94000     5.031403     1.284336     3.747067  -0.15516883   0.85623628    1.0031247   0.75258255   -1.2546559            1   0.50727066   0.76719264   0.76924173 -0.014622381  0.010914235 -0.00095091372 0.0055725535   0.43882464   0.44287831   0.06948816        0.075    1.7237784          0.1 0.0015441813    64.759234    2.6301087         70.1 0.0020470483  -0.10432715 -0.00038902719   0.10755098   0.76625416  -0.49346575 
   95000    5.0231461     1.275626    3.7475201  -0.15510434   0.85042955    1.0016978   0.74368433   -1.2546559            1   0.52912984   0.78331799   0.78298624  0.021085279 -0.00017474383 0.0060959276 -0.001151168   0.46149309   0.46482907  0.069431732        0.075     1.722297          0.1 0.0015429274    64.811864    2.6068261         70.1 0.00093808641  -0.10901844 0.00095992865   0.10472584   0.10389906   0.65535651 
   96000    5.0354147    1.2805271    3.7548876  -0.15814219   0.85369697    1.0004267   0.75015518   -1.2546559            1   0.50501628   0.76993272   0.76486496  -0.01974884 0.00068764332 -0.019393683 -0.0017320597   0.43679101   0.44079711  0.069542556        0.075    1.7204726          0.1 0.0015453901    64.708579    2.6867209         70.1 0.0014156559 -0.099548681 0.0012750796   0.09866363   -0.1523718   0.20793446 
   97000    5.0387002    1.2791139    3.7595863  -0.15695361   0.85275484   0.99904219   0.74952525   -1.2546559            1    0.4999183   0.76023191   0.76148584  -0.02196283  0.004995937 0.00021754381 -0.00052845665   0.43175033   0.43578801  0.069494532        0.075      1.71915          0.1 0.0015443229    64.753296    2.6381976         70.1 -0.0018339155  -0.10726295 0.0017759027   0.10404083 -0.0003156547   0.47725936 
   98000    5.0329323    1.2745899    3.7583424  -0.15722887   0.84973879   0.99108015   0.75000004   -1.2546559            1   0.50065666   0.75957996   0.76516855 -0.022778528 -0.00033199693 0.0019904381 0.0048351509   0.43244551   0.43703746  0.069480849        0.075    1.7205527          0.1 0.0015440189    64.766048    2.6268226         70.1 0.0013740456  -0.10007349 0.0012382917   0.10961125   0.16243378  -0.17439237 
   99000    5.0434328    1.2825475    3.7608853  -0.15454493   0.85504392    1.0038159   0.75006074   -1.2546559            1    0.5232338   0.77420773   0.78188932  0.013604335 0.00064330992 0.0076729476 0.0065662366   0.45501712   0.45879707  0.069497974        0.075    1.7247201          0.1 0.0015443994    64.750089    2.6427618         70.1 -0.0038184656 -0.098133757 -0.0010023187   0.10225757   0.04981176   0.96004736 
  100000    5.0461052    1.2917857    3.7543194  -0.15466716   0.86120286    1.0118059   0.75492745   -1.2546559            1   0.50138723    0.7624005   0.76564217 -0.023880978  0.002694496  0.014769943 0.0036610687   0.43272794   0.43643761  0.069559953        0.075    1.7167467          0.1 0.0015457767    64.692396    2.6597324         70.1 -0.0032722247  -0.10893019 -0.00062921911   0.10878967  -0.50197798  -0.64313825 
  101000    5.0337359    1.2818923    3.7518436   -0.1569268   0.85460717   0.99839007   0.75314529   -1.2546559            1    0.5136807   0.77395701     0.772476 -0.0053909241 0.0040616575 0.00085622759 0.00072517335   0.44518349   0.44959226  0.069422197        0.075    1.7190982          0.1 0.0015427155    64.820766    2.5992918         70.1 0.0013916873  -0.10179939 -0.0051254827  0.095232161  0.043122074 -0.067108366 
  102000      5.02514    1.2771752    3.7479648  -0.15639138   0.85146235   0.99858572   0.74764268   -1.2546559            1   0.49114063   0.75620667   0.75813544 -0.040920212  0.006338503   0.02078686 -0.00068569598   0.42314388   0.42703964  0.069409305        0.075    1.7178739          0.1  0.001542429    64.832806    2.5936381         70.1 -0.00073974161  -0.10800604 0.0046395659   0.10611573   -0.1703941  -0.92377755 
  103000    5.0323717    1.2804071    3.7519646  -0.15613147     0.853617    1.0040043   0.74749366   -1.2546559            1   0.52305143   0.77906137   0.78165647 0.0084364391 0.0012279387 0.0013262294 -0.013881263   0.45506823    0.4586026  0.069510336        0.075    1.7135395          0.1 0.0015446741    64.738573    2.5700658         70.1  0.002815835  -0.10838842 0.0002710086   0.10602392  -0.36450218   0.69249193 
  104000    5.0352435     1.277875    3.7573685  -0.15681413   0.85192892   0.99756306   0.74916036   -1.2546559            1   0.50504867   0.76694414    0.7650881 -0.016886229 0.0015734391 0.0079746676 -0.00091363328   0.43691389   0.44101332   0.06946065        0.075    1.7062679          0.1   0.00154357    64.784882    2.6184309         70.1 -0.0014492208  -0.10440725 0.00081956637   0.10103688   -1.2464561  0.073124546 
  105000    5.0321776    1.2802132    3.7519644  -0.15808108   0.85348773   0.99263729   0.75529606   -1.2546559            1   0.50420152   0.76485211   0.76622891  -0.01847647 0.00043196188  0.007396458 -0.013219348    0.4355087   0.44048236  0.069451124        0.075    1.7066427          0.1 0.0015433583    64.793767    2.6136935         70.1 0.0024542907  -0.10143677 -0.0023262977   0.11179601  -0.35073202 -0.096769348 
  106000    5.0302592    1.2823769    3.7478823  -0.15726569   0.85493023    1.0013475   0.75160901   -1.2546559            1   0.51649461   0.77085177   0.77972237 -0.0010903142 -0.0058583413 -0.0069350452 -0.0023617099   0.44813712   0.45221633  0.069496218        0.075    1.7040941          0.1 0.0015443604    64.751725    2.6083741         70.1 -0.001801635   -0.1058847 -0.0035817868   0.10912156   0.36093812   0.25274962 
  107000     5.037866    1.2859745    3.7518915  -0.15815623   0.85732863    1.0021639   0.75512406   -1.2546559            1   0.50153629   0.76343974   0.76614159 -0.024972439 -0.0025828378 -0.0028225455 0.0044733886   0.43285912   0.43720561  0.069536426        0.075     1.701206          0.1 0.0015452539    64.714284    2.6399789         70.1 -0.0013903569  -0.10155307 0.00098574876  0.098578747   0.27016773  -0.23915237 
  108000    5.0181645    1.2679456     3.750219  -0.15755009   0.84530919   0.98928969   0.74370761   -1.2546559            1   0.49898127   0.75906909   0.76097947 -0.023104734 -0.0024213828  0.010052601 0.0013181816   0.43134241   0.43547701  0.069495523        0.075    1.6953364          0.1  0.001544345    64.752373    2.6231024         70.1 -0.0027252772   -0.1008525 -0.0012756027   0.11572982  -0.10180467  -0.72430403 
  109000     5.032122    1.2888888    3.7432332  -0.15511027   0.85927153    1.0026798   0.75807421   -1.2546559            1   0.54189649   0.79256799   0.78999967  0.043121819 0.0082621575 -0.0022634429 -0.0042103644   0.47295101    0.4775327  0.069511151        0.075    1.6928711          0.1 0.0015446922    64.737815    2.6425192         70.1 0.0014871212  -0.11935265 -0.0017416345   0.11404468   0.49465436    1.1799582 
  110000    5.0303538    1.2789422    3.7514116  -0.15789172    0.8526404    1.0010447   0.74791668   -1.2546559            1   0.51000627   0.76961514   0.77042035 -0.010016681 9.0004179e-05 0.0065275986 -0.016437169    0.4419846   0.44574743  0.069481661        0.075    1.6936204          0.1 0.0015440369    64.765291    2.6479197         70.1 0.00020149257  -0.10240176 0.00071992447   0.10686249  -0.15720622  -0.39160348 
  111000    5.0534201     1.289826    3.7635941  -0.15415943   0.85989638    1.0048009   0.75764298   -1.2546559            1   0.49996843   0.76173513   0.76021521 -0.022045049 -0.0093722626 0.0037522998  0.009282688   0.43106217   0.43546847  0.069536216        0.075    1.6951036          0.1 0.0015452492    64.714479    2.6561056         70.1 0.00029032598  -0.11016835 0.0019329466   0.11029792  -0.32420503  -0.93387327 
  112000    5.0285327    1.2792023    3.7493304  -0.15882556   0.85281379    1.0024748   0.74720303   -1.2546559            1   0.52231554   0.77867397   0.77930268 0.0089699729 0.0018735128 0.0028026554 -0.0012701195   0.45435877    0.4579649   0.06948646        0.075     1.692024          0.1 0.0015441436    64.760818    2.5758195         70.1 -0.00014545325  -0.10366957 -0.0043025733   0.10977458  -0.30154809    1.0961656 
  113000    5.0192084    1.2769745    3.7422339  -0.15931086   0.85132859    1.0032334   0.74413416   -1.2546559            1   0.49710765   0.76051252   0.76126568 -0.030455255    0.0016343 0.0047850928 0.0020913056   0.42942999   0.43270831  0.069519234        0.075    1.6925835          0.1 0.0015448719    64.730287    2.6257973         70.1 0.0013096704  -0.10138836 0.0024591489   0.10535223  -0.17292516   -0.1747169 
  114000      5.03241    1.2769929    3.7554171  -0.15685905    0.8513408   0.99758713   0.74814014   -1.2546559            1   0.50030234   0.76047752   0.76239048 -0.021960987 0.0058662623 0.00050174106 0.0069018055   0.43226034   0.43626545  0.069611977        0.075    1.6890103          0.1 0.0015469328    64.644048    2.6560752         70.1 0.0063979074  -0.10962957 -0.0068582009   0.10451262   0.14520879  -0.22300355 
  115000    5.0392803    1.2839883    3.7552919  -0.15663573   0.85600453   0.99680468   0.75664792   -1.2546559            1   0.51816796   0.77693943   0.77586212 0.0017023173 -0.010660689 0.0049117393 0.0051054493   0.44935219   0.45418129   0.06953158        0.075    1.6938675          0.1 0.0015451462    64.718794    2.7069008         70.1 0.0023391416  -0.10376291 -0.0011089346   0.11189469  -0.30891172 -0.091946027 
  116000    5.0371922     1.281856    3.7553362  -0.15561632   0.85458297    1.0013703   0.75100052   -1.2546559            1   0.52399754    0.7819363   0.78164564 0.0084106646 -0.00022179816  0.020956633 0.0016260184   0.45569539   0.45971779  0.069584182        0.075    1.6964381          0.1 0.0015463151     64.66987    2.6416067         70.1 -0.0008110384 -0.099666847 -0.0010562514   0.10789282   -1.0680853   0.11978127 
  117000    5.0364894     1.287683    3.7488063  -0.15547132    0.8584677    1.0012185    0.7577344   -1.2546559            1   0.50509016   0.76437974   0.76523133 -0.014340579 -0.0021649618 -0.0090558885 -0.0044853014   0.43617559   0.44082017  0.069480933        0.075     1.697715          0.1 0.0015440207     64.76597    2.6331543         70.1 0.00084029884   -0.1155574 0.0010869873   0.10136099  -0.17827742   0.69708192 
  118000    5.0395618    1.2902077    3.7493542  -0.15644817   0.86015081    1.0089688   0.75513526   -1.2546559            1   0.51080559   0.76816662   0.76808218 -0.0038320169 0.0043953456  0.014826745 0.0066037163    0.4421274   0.44603809  0.069531749        0.075    1.6962989          0.1   0.00154515    64.718637    2.6467639         70.1 -0.0033739786  -0.10596596 0.0017410908   0.10655845  0.060174961  -0.41899925 
  119000    5.0287506    1.2749089    3.7538417  -0.15676323   0.84995145    0.9921638   0.74959796   -1.2546559            1   0.50613375   0.76629038   0.76502692 -0.012916058 0.0016651368 -0.0042552188 -0.013487152   0.43795916   0.44244499  0.069521283        0.075    1.6962946          0.1 0.0015449174     64.72838    2.6669623         70.1 -0.0023538645   -0.1089478 0.0056513588   0.10603606  0.022312969  -0.35330048 
  120000    5.0286476    1.2759836    3.7526639  -0.15593668   0.85066797   0.99786768   0.74679439   -1.2546559            1   0.52365641   0.78135144   0.78028603 0.0093317542 0.0063117812  0.005113799 -0.00032763203    0.4557368    0.4596015  0.069453287        0.075    1.6903225          0.1 0.0015434064    64.791749     2.580759         70.1 -0.0030843332   -0.1075421 0.0029139282   0.10529706  -0.26924175   0.55085341 
  121000    5.0254854    1.2770862    3.7483992  -0.15462362   0.85140301   0.99904987   0.74721385   -1.2546559            1   0.52772165   0.78488341   0.78300267  0.015278863 -0.0097817467 0.00071097728  0.011255386   0.45976389   0.46359086    0.0694983        0.075    1.6893288          0.1 0.0015444067    64.749785    2.5794489         70.1 0.00077278557   -0.1139848 0.0015744071    0.1091932  -0.54513198    1.0372465 
  122000    5.0380679    1.2842127    3.7538552  -0.15326883   0.85615412    1.0032805   0.75233245   -1.2546559            1    0.5095589   0.76790022   0.76665611 -0.0058796382 0.0049646265  0.016922396 -0.001840344   0.44113561   0.44515654  0.069467151        0.075    1.6899861          0.1 0.0015437145    64.778819    2.6351294         70.1 -0.0019457801  -0.10093324 -0.00041128388   0.10898909  -0.25068582  -0.31476763 
  123000    5.0255554    1.2762304     3.749325  -0.15638947   0.85083249   0.99297519   0.75052818   -1.2546559            1   0.50111588   0.76099057   0.76341047 -0.021053386 -0.00013576003  0.010514073 -0.0017824179    0.4328567   0.43737504  0.069547685        0.075    1.6869119          0.1 0.0015455041    64.703807    2.6490455         70.1 -0.002492583  -0.10211052 0.0015905888   0.10948931  -0.47626107   -1.3912584 
  124000     5.021592    1.2687826    3.7528095  -0.15748662   0.84586719   0.99608804   0.73986115   -1.2546559            1   0.50782308   0.76630225   0.76614299 -0.0089760038 -0.0047916786 -0.020392139 0.0010972486   0.44053404   0.44388241  0.069453892        0.075    1.6903013          0.1 0.0015434198    64.791186    2.5938019         70.1 -0.002538441  -0.10899711 -0.0043248049    0.1054143   0.37014016   0.46574152 
  125000    5.0284184    1.2742299    3.7541885  -0.15687007    0.8494988   0.99614515   0.74601576   -1.2546559            1   0.50574312   0.76452453   0.76804906 -0.015344235 0.0031043145 0.0012147745 -0.0073784399   0.43789433   0.44179879  0.069533181        0.075    1.6928393          0.1 0.0015451818    64.717304    2.6477128         70.1 -0.0022197417  -0.10448477 0.0045951261   0.10673557   -0.3629092   0.39986566 
  126000    5.0306289    1.2779489      3.75268  -0.15418976   0.85197819   0.99701384   0.74963204   -1.2546559            1   0.50487967   0.76454611    0.7678766 -0.017783697 -0.0059054839 0.00061646447  0.001092521   0.43670199   0.44087958  0.069501781        0.075    1.6874996          0.1  0.001544484    64.746543     2.639165         70.1 -0.0011159986  -0.10776981 -0.00085699396   0.10942364   0.38192723  -0.20726586 
  127000    5.0343289    1.2862164    3.7481125  -0.15710289   0.85748991    1.0007555   0.75639318   -1.2546559            1   0.50166423   0.76283524   0.76239041 -0.020232979 0.0051605478 -0.0047823379 -0.00046936127   0.43287163   0.43742395  0.069458929        0.075    1.6863735          0.1 0.0015435318    64.786487    2.6281601         70.1 0.0019502718 -0.099759635 -0.0021033551   0.10807853   0.41201661  -0.20255387 
  128000    5.0332472    1.2853143    3.7479329  -0.15690429   0.85688854    1.0052794   0.75217435   -1.2546559            1   0.52804333   0.78315341   0.78309902  0.017877578 0.0029346367 -0.014445683 -0.0095645056   0.45963443   0.46351266  0.069460889        0.075    1.6832082          0.1 0.0015435753    64.784659     2.583606         70.1 -0.0051877071  -0.10044849 -0.0022813486   0.11071572   0.32562713  -0.47269281 
  129000    5.0294939    1.2812909     3.748203  -0.15736054    0.8542062   0.99511615   0.75477205   -1.2546559            1   0.51387702    0.7691023   0.77229775 0.0002310109 -0.0080884662 0.0095711162 0.0050486086   0.44523186   0.44999874   0.06960944        0.075    1.6828863          0.1 0.0015468764    64.646404    2.6463526         70.1 -0.00050448149  -0.10306989 0.0023858502   0.11592269   0.37237944  0.022515188 
  130000    5.0427212    1.2820152     3.760706  -0.15544918   0.85468909    1.0064069   0.74762672   -1.2546559            1   0.51143671   0.76777731   0.77386486 -0.0073320404 0.0089329166 -0.013307506 0.0021485307    0.4434414   0.44683366  0.069388886        0.075    1.6841077          0.1 0.0015419752    64.851884    2.5630947         70.1 -0.0014007587  -0.10081943 0.0042387884   0.10217644   0.39570345    1.1383198 
  131000    5.0257789    1.2795312    3.7462477  -0.15646017   0.85303306    0.9972889   0.75123734   -1.2546559            1   0.51738727   0.77389814   0.77317526 0.0050884146 -0.0022423568 -0.0080211884 0.0037657115   0.44906359   0.45336952  0.069604441        0.075    1.6815278          0.1 0.0015467654    64.651047    2.6682248         70.1 -0.00085301916  -0.11296926 0.0061654234   0.10985995  -0.32198478  0.086980046 
  132000    5.0329882    1.2849331    3.7480551  -0.15979951   0.85663439    1.0058097   0.75136657   -1.2546559            1   0.48945432   0.75841174   0.75038223 -0.040430992 -9.9430525e-05 -0.0020646854 0.0066892039   0.42111889   0.42488961  0.069530636        0.075    1.6826142          0.1 0.0015451252    64.719673    2.6779575         70.1 0.00070404848  -0.10094392 -0.00039385655  0.092163421   -1.0174408   0.08854175 
  133000    5.0256792    1.2740798    3.7515994  -0.15715021   0.84939875   0.99772505   0.74472998   -1.2546559            1   0.50793705   0.76844924   0.76672437 -0.011362466 0.0019056203  0.014163826 -0.0080571317    0.4402052    0.4438913  0.069485116        0.075    1.6816135          0.1 0.0015441137    64.762071    2.6499552         70.1 0.00078946221  -0.10152871 -0.00035396339   0.11109759  -0.86032367   0.82362489 
  134000    5.0282754    1.2759967    3.7522787  -0.15786441   0.85067668    1.0029201    0.7432432   -1.2546559            1   0.50798269   0.76350323   0.77176847 -0.011323629 -0.0048912718  0.013007715 -0.0053797029   0.44038606   0.44360346  0.069520058        0.075    1.6817978          0.1 0.0015448902     64.72952     2.628919         70.1 -0.00018892801  -0.10752114 -0.0030390384   0.10244754  -0.41473411  -0.93220952 
  135000    5.0235958    1.2766261    3.7469697  -0.15823055   0.85109631    1.0025112   0.74424767   -1.2546559            1   0.48927418   0.75691542   0.74692782   -0.0360207 0.0022027739  0.015661578 0.0062180222    0.4215862   0.42492121  0.069499417        0.075    1.6817065          0.1 0.0015444315    64.748745    2.6053824         70.1 0.0017699478  -0.11061327 -0.0025740474   0.10227581  -0.24754277    -0.580604 
  136000    5.0297262    1.2777462      3.75198  -0.15601779   0.85184303    1.0031103   0.74509857   -1.2546559            1   0.51299317   0.77134723   0.77387875 -0.0062464656 -0.0031387116 0.0023322911 -0.0032971582    0.4452278   0.44860174  0.069554921        0.075    1.6833488          0.1 0.0015456649    64.697075    2.6664592         70.1 0.0015571745  -0.10389584  0.003848082   0.10340096   0.47054941   0.93650876 
  137000    5.0380597    1.2798206    3.7582391  -0.15592584   0.85322601    1.0027285   0.74772718   -1.2546559            1   0.51206758   0.77314579   0.76754034 -0.0044833947 0.0058448174 -0.0024195589 -0.0023642477   0.44406314   0.44770065  0.069402797        0.075    1.6761727          0.1 0.0015422844    64.838885    2.5947925         70.1 -0.0014545376 -0.099644284 0.00074582133  0.098905931    1.3118255   0.35572088 
  138000    5.0241131    1.2723926    3.7517205  -0.15829631    0.8482739   0.99775385   0.74279085   -1.2546559            1   0.50066211   0.76423285     0.760226 -0.022472512 0.0010658027 -0.0033825848 0.0038598356   0.43310662   0.43661452  0.069563041        0.075    1.6785349          0.1 0.0015458454    64.689524    2.6261348         70.1 0.0013613489  -0.11250311  0.002349896    0.1018792   0.49186137   0.71289789 
  139000    5.0206487      1.27456    3.7460887  -0.15580516   0.84971886   0.99287968   0.74869593   -1.2546559            1   0.48935303   0.75437923    0.7564088 -0.042728945 0.0003420578 -0.00077450416 -0.0038846785   0.42126048   0.42561832  0.069511972        0.075    1.6766393          0.1 0.0015447105     64.73705    2.6553936         70.1  0.002793981   -0.1084041 -0.0035548255   0.11251806  -0.58464834   -1.5183576 
  140000    5.0437321    1.2875066    3.7562255  -0.15761904   0.85835004    1.0101813   0.75120766   -1.2546559            1    0.5041952   0.76644395   0.76254322 -0.016401563 -0.0072317965 -0.014578934 -0.0073054215   0.43587422   0.43934987  0.069518552        0.075    1.6779147          0.1 0.0015448567    64.730923    2.6536424         70.1 -0.002391318  -0.11171141 0.00081330945   0.10335187  -0.66206848  -0.70443623 
  141000    5.0375764    1.2842829    3.7532934  -0.15835501   0.85620093   0.99440527   0.75867647   -1.2546559            1   0.53817699   0.79206237   0.79066877  0.031799814 -0.0013641375 -0.0041202515 -0.00049059509   0.46917673   0.47434434  0.069455144        0.075     1.676726          0.1 0.0015434477    64.790017    2.6085306         70.1 0.0015543242  -0.10790022 0.0021119276   0.10004238  -0.63450507    1.7632314 
  142000    5.0346896    1.2752401    3.7594495  -0.16094899   0.85017225    1.0052095   0.74076689   -1.2546559            1   0.49524773   0.75504883    0.7584583  -0.02776393 0.0049977742 -0.0015881307 0.00039769582   0.42787632   0.43072155  0.069515367        0.075    1.6722774          0.1 0.0015447859    64.733888    2.6634347         70.1 0.0029244101  -0.10597544 0.0024408387   0.10317927   0.20258744  -0.25814931 
  143000     5.043099    1.2835055    3.7595935  -0.15577751   0.85568265    1.0066326   0.74916225   -1.2546559            1   0.48118988    0.7489161   0.74877845 -0.054124905 -0.0058441093 -0.0064706806 0.0068565752   0.41305492   0.41657234  0.069453215        0.075    1.6727617          0.1 0.0015434048    64.791817    2.5722641         70.1 0.0016441961  -0.11448269 -4.2338473e-05   0.10877898    1.0329493   -1.2016706 
  144000    5.0303495    1.2773892    3.7529603   -0.1547791   0.85160501   0.99725621    0.7488244   -1.2546559            1   0.50862728   0.76718061    0.7707637 -0.012062488 -0.0020414756 -0.0032107442 0.0078744686   0.44052304   0.44461162  0.069454891        0.075    1.6657754          0.1  0.001543442    64.790254    2.6074482         70.1 -0.0036247036  -0.10744464 0.0017036674   0.10606581  -0.47647885  -0.19889548 
  145000    5.0401109    1.2828452    3.7572657  -0.15693998   0.85524241    1.0071376   0.74805487   -1.2546559            1     0.502562   0.76568845   0.76294225 -0.020944699 -0.0077765726 4.9375164e-05 -0.0078706868   0.43452776   0.43791205  0.069482335        0.075    1.6669636          0.1 0.0015440519    64.764663    2.6263028         70.1 -0.0025254821  -0.11039203 -0.00063821458   0.09865195 -0.046536246  -0.43674185 
  146000    5.0395528    1.2850392    3.7545135  -0.15850907   0.85670513    1.0012609   0.75469781   -1.2546559            1   0.51164587   0.76781851    0.7722836 -0.0051644934 0.0096985779  0.013601679 -0.012180744   0.44300747   0.44737315  0.069512236        0.075    1.6658011          0.1 0.0015447164    64.736804    2.6208313         70.1 0.0033731547  -0.10637369 0.0018466508   0.10584227   0.40787248  0.059343459 
  147000    5.0308267    1.2726899    3.7581368  -0.15666234   0.84847212   0.99295692   0.74651469   -1.2546559            1   0.51428997   0.77348649   0.77456815 -0.0051847155 -0.0039835956 0.0074938972 -0.0019785081   0.44639581    0.4505503  0.069497181        0.075    1.6613942          0.1 0.0015443818    64.750828    2.6316189         70.1 -0.0010107732  -0.11376329 0.00090089398   0.10335341  -0.13276135   0.61267383 
  148000    5.0267681    1.2755607    3.7512075  -0.15891247   0.85038601   0.99763071   0.74648066   -1.2546559            1   0.50754442   0.76377467   0.76759323 -0.0087346394 -0.0039348101 -0.0082739924 0.0065126576   0.43965335   0.44350473  0.069523032        0.075    1.6617464          0.1 0.0015449563    64.726751     2.619206         70.1 0.0008634762  -0.11353031 -0.00095761643   0.10797051  -0.01106943   0.35198995 
  149000    5.0365323    1.2883757    3.7481566  -0.16017477   0.85892947     1.007115   0.75436032   -1.2546559            1   0.53131589   0.78422502   0.78737253  0.022350112 0.0014439136  -0.02661837 0.0058874142   0.46270817   0.46666738  0.069465695        0.075    1.6596149          0.1 0.0015436821    64.780176    2.6174275         70.1 0.0015647816  -0.10320141 0.0012903111   0.11895969   0.59425533   0.70913368 
  150000    5.0306745    1.2830867    3.7475879  -0.15704126   0.85540339    1.0054499   0.74952061   -1.2546559            1   0.52848841   0.78239159   0.78499031  0.018083348 0.0040796904 -0.0096622727 -0.010372059   0.46032087   0.46394679  0.069481972        0.075    1.6574194          0.1 0.0015440438    64.765001    2.5994534         70.1 -0.0017776759  -0.10536619 0.0031226643   0.11096443   0.40890303   0.58701106 
  151000    5.0360021     1.284275     3.751727  -0.15648651   0.85619566    1.0042706   0.75170445   -1.2546559            1   0.50944099     0.766606   0.77102125 -0.0093042675  -0.00635822 0.0047482665 0.0025608044   0.44107483   0.44497507  0.069522742        0.075    1.6513199          0.1 0.0015449498    64.727022    2.6183392         70.1 -0.0015112213   -0.1114459  0.004406878   0.10418932   -1.1265004  -0.87018816 
  152000    5.0158939    1.2768748    3.7390191  -0.15788507   0.85126208      0.99935   0.74676162   -1.2546559            1   0.50443239   0.76710211   0.76522248 -0.019027435 0.00023666706  0.012539034 -0.005637572   0.43651576   0.44028233  0.069561852        0.075    1.6514206          0.1 0.0015458189     64.69063    2.6616075         70.1 0.0007133242  -0.10845563 -0.00090917688    0.1006873    -1.197916  -0.19093205 
  153000    5.0330456     1.280113    3.7529326  -0.15921265    0.8534209    1.0014865   0.74893625   -1.2546559            1    0.5077603   0.77182165   0.76388994 -0.012430689 -0.0021359178 0.0086832706 0.0048299722    0.4396459    0.4434731  0.069516548        0.075    1.6529898          0.1 0.0015448122    64.732788    2.6334067         70.1 -0.0038188612  -0.10443315 0.0028019272  0.099998644  -0.36970111   0.22707336 
  154000    5.0285159    1.2837147    3.7448012  -0.15951935   0.85582212    1.0060167   0.74983488   -1.2546559            1   0.52759517   0.77880278   0.78262212  0.021360599 0.0010459965 -0.0050390742 0.0064130781   0.45939903   0.46301716  0.069537876        0.075    1.6496061          0.1 0.0015452861    64.712934    2.6409729         70.1 0.0086093445  -0.10795844 -0.0027499357   0.10128049   0.16369306   0.57017239 
  155000    5.0386728    1.2803725    3.7583003  -0.15687944   0.85359394    1.0034861   0.74782009   -1.2546559            1   0.52736617   0.78190757   0.77969993  0.020491023 -0.005431721 -0.011673074 0.0050745727   0.45935328   0.46295062  0.069528446        0.075    1.6520529          0.1 0.0015450766    64.721711    2.6392609         70.1 -0.00070617962  -0.11134375 0.0069020093   0.11535944   0.72666896  -0.79098502 
  156000    5.0288742    1.2779443    3.7509299  -0.15532001   0.85197514   0.99751782   0.74927113   -1.2546559            1   0.49815598   0.76042044   0.75949963 -0.025452132 -0.0010864905 0.0037452509 0.0004655863   0.43001112   0.43412353  0.069542941        0.075    1.6535638          0.1 0.0015453987    64.708221    2.6512368         70.1 -0.00066584797  -0.12052024 -0.0018470736    0.1049123   0.86486264  -0.20317652 
  157000    5.0430181     1.286527     3.756491  -0.15840651   0.85769702    1.0030284    0.7551423   -1.2546559            1   0.49373309   0.75947827   0.75633081  -0.03460981 -0.0030166509  0.016109259 -0.0017878521   0.42505426   0.42934691  0.069614723        0.075    1.6491885          0.1 0.0015469938    64.641499    2.6681081         70.1 -0.00015729179  -0.10378852 -0.003496387   0.10656016  -0.17207475  0.075672429 
  158000    5.0401586    1.2880189    3.7521397  -0.15711071   0.85869162   0.99812704   0.76029831   -1.2546559            1   0.50118332    0.7656918   0.76328514 -0.025426979  0.001483506 -0.0093116175 0.0044293582   0.43203556   0.43711177  0.069489462        0.075    1.6485327          0.1 0.0015442103    64.758021    2.6751427         70.1 0.0022844946  -0.10674392 -0.0013878257    0.1050525  0.039805946  0.057507906 
  159000    5.0303659    1.2815219     3.748844  -0.15834883   0.85436022    1.0016379   0.75043169   -1.2546559            1   0.53713337   0.79239531     0.785085  0.033919805 -0.00074083653 -0.0058384806 -0.0014474966   0.46888296   0.47283645  0.069604103        0.075    1.6485189          0.1 0.0015467579    64.651361    2.6774488         70.1  0.003608528  -0.10736878 0.0016643876   0.10646477  -0.29386951    1.1805633 
  160000    5.0365549    1.2784039     3.758151  -0.15685252   0.85228148   0.99831394   0.74923179   -1.2546559            1   0.50384904    0.7653047   0.76312777 -0.016885346 -0.00074699485 -0.0028188461 -0.0017715196   0.43570776   0.43976549   0.06951109        0.075    1.6485537          0.1 0.0015446909    64.737871    2.6499376         70.1 0.0061881924  -0.11748316 0.00010577102   0.11053591  -0.37097982    -1.329947 
  161000    5.0416678    1.2805505    3.7611174  -0.15673723   0.85371258   0.99907091   0.75113874   -1.2546559            1   0.51966438   0.77834417   0.77437797  0.006271001 -4.9888891e-05 0.0026447448 -0.0049897282   0.45134967   0.45553224  0.069576155        0.075     1.646776          0.1 0.0015461368    64.677331    2.6587376         70.1 -0.0035192691 -0.098915412 0.0023893065   0.11123781   0.42006734  -0.25982101 
  162000    5.0327138    1.2767825    3.7559313   -0.1565494   0.85120053    1.0015906   0.74507521   -1.2546559            1   0.50803272   0.76929538   0.76448364 -0.0096808401 -0.0052033031 0.0062411836 0.0012573719   0.44026948   0.44373884  0.069562362        0.075    1.6435347          0.1 0.0015458303    64.690155    2.6602266         70.1 0.0018416842  -0.10040577 -0.0013563037   0.11089579  -0.45379474   -0.4064523 
  163000      5.02153    1.2761899    3.7453401   -0.1583955   0.85080551   0.99909071   0.74616579   -1.2546559            1   0.50267506   0.76129324   0.76323626 -0.016504323 0.0097587205  0.012721377 -0.0071367861   0.43481263   0.43854165  0.069432977        0.075    1.6452384          0.1  0.001542955    64.810703    2.5556129         70.1 0.0079178288  -0.10858568 0.00021875341   0.11472317  0.086983891  0.074078809 
  164000    5.0311794    1.2775639    3.7536154  -0.15537082   0.85172153   0.99452818   0.75094862   -1.2546559            1   0.52970857   0.78187915   0.78746962  0.019776946 0.0018371247  0.033442939 -0.0087458589   0.46141115   0.46586804  0.069491006        0.075    1.6459145          0.1 0.0015442446    64.756582    2.5950023         70.1 -0.00013752825  -0.10455004 -0.0022448983   0.10800147 -0.094982153  0.018576447 
  165000    5.0312075    1.2741428    3.7570647  -0.15715871   0.84944076   0.99915772   0.74379045   -1.2546559            1   0.50946403   0.76830646   0.76966067 -0.0095750496 -0.00028540742 -0.0002805968 -0.0086400729   0.44181763   0.44532632   0.06956132        0.075    1.6467477          0.1 0.0015458071    64.691124    2.6362603         70.1 0.0051400422  -0.10654983 -0.0042590826   0.10534311    0.4151745   0.73961191 
  166000    5.0296519    1.2778456    3.7518064  -0.15684717   0.85190929    1.0033525   0.74504068   -1.2546559            1   0.52685052   0.78432369   0.78089638  0.015331504 0.0041970368 0.0063826883 -0.0092100917   0.45909041   0.46244354  0.069474402        0.075     1.648466          0.1 0.0015438756    64.772058    2.6272553         70.1 0.0056092195   -0.1070924 0.0013355344   0.10794837  0.016958337 -0.047938441 
  167000    5.0246663       1.2762    3.7484664   -0.1578815    0.8508122   0.99639534    0.7480796   -1.2546559            1   0.50467608   0.76191354   0.76601122 -0.013896543 -0.0050585918 -0.0029333826 0.0037057744   0.43663958   0.44071569  0.069564201        0.075    1.6478764          0.1 0.0015458711    64.688445    2.6781576         70.1 -0.0048327506  -0.10045585 -0.0046553881   0.11160998   0.53449203  -0.33097215 
  168000    5.0362937     1.285601    3.7506927  -0.15615596   0.85707963     1.004813   0.75282951   -1.2546559            1   0.49760987   0.75699984   0.76211483 -0.026285074 0.0062345758 -0.012190691 -0.0015795711   0.42914138   0.43310913  0.069501966        0.075    1.6470781          0.1 0.0015444881     64.74637    2.6279645         70.1 0.0022550872  -0.10799919 -0.0021267581   0.11234979   0.39246159   0.64933713 
  169000    5.0271441    1.2823759    3.7447682  -0.15394324   0.85492957   0.99877573   0.75342304   -1.2546559            1   0.53947707   0.79091496   0.79292681  0.034589423 -0.001628415 -0.017640955 0.00062339638    0.4709546   0.47536388  0.069443704        0.075    1.6491949          0.1 0.0015431934    64.800691    2.6356156         70.1 -0.0045542002  -0.10572643 0.0036995246   0.11034521  0.017019094    1.5122908 
  170000    5.0342039    1.2804476    3.7537563  -0.15606068   0.85364399    1.0050599   0.74679467   -1.2546559            1    0.5189622   0.77495342   0.77544735 0.0064858415  0.010682955 -0.027887323 0.0023371035   0.45104257   0.45444562  0.069538548        0.075    1.6478706          0.1 0.0015453011    64.712309    2.6679352         70.1 0.0029804711   -0.1022392 -0.003162316    0.1111946   0.39733711   -1.3103983 
  171000    5.0234494    1.2740666    3.7493828  -0.15656223   0.84938993   0.99781474   0.74465163   -1.2546559            1   0.51243849   0.77118005   0.77172639 -0.0055909574 -0.0020916928 -0.020722568 0.0040311301   0.44471377   0.44838699  0.069511919        0.075    1.6471071          0.1 0.0015447093      64.7371    2.6746651         70.1 0.0016804725  -0.10869697 0.00029983279   0.10108053   0.62201932  -0.52502369 
  172000    5.0376829    1.2814262    3.7562567  -0.15620371   0.85429644   0.99196192   0.75715226   -1.2546559            1   0.49556707   0.75717495   0.75957163 -0.030045376 0.0021177728 -0.0021390705 -0.0011414899   0.42670543   0.43189127  0.069499937        0.075    1.6480947          0.1  0.001544443     64.74826    2.6198248         70.1 -5.4338113e-05  -0.11182178 -4.892362e-05   0.10582873  -0.16605225  -0.21011079 
  173000    5.0369296    1.2826984    3.7542311  -0.15302339   0.85514458    1.0026897   0.75102734   -1.2546559            1   0.51512518   0.77357398   0.77281156 -0.0010099904 -0.0042976594 -0.0051246519 0.0047900054    0.4468206   0.45076075  0.069492121        0.075    1.6464005          0.1 0.0015442694    64.755542    2.6276602         70.1 -0.00090025557  -0.10811274 0.00080083068   0.10320891  0.021205076   0.95941375 
  174000    5.0365234    1.2854627    3.7510607  -0.15560977   0.85698744    1.0024975   0.75430658   -1.2546559            1   0.51679185   0.77742813   0.77382413 -0.00087670608 0.0048868384  0.011241219 -0.0031956541   0.44818903   0.45243975  0.069594152        0.075    1.6444032          0.1 0.0015465367    64.660605    2.6696236         70.1 -0.004072197  -0.10603053 0.00080601449   0.10396976  -0.22542355    1.0935639 
  175000    5.0188368     1.274322    3.7445148  -0.15883267   0.84956018   0.99493165   0.74697695   -1.2546559            1   0.50237118   0.76302545   0.75984374 -0.015755639 0.0031988965 0.0051409116 -0.0019701261   0.43443497   0.43850475  0.069593847        0.075    1.6377915          0.1 0.0015465299    64.660889    2.6734727         70.1 0.0024197151  -0.11293458 -0.00089582216   0.10383912   0.48297326   -1.0724246 
  176000    5.0298035    1.2766142    3.7531893  -0.15846093   0.85108838    1.0019832   0.74460678   -1.2546559            1   0.52013097   0.77113952   0.77790479   0.01134861 0.0020910915 -0.0020454933 -0.00078353839   0.45241033   0.45581189  0.069532807        0.075    1.6347562          0.1 0.0015451735    64.717652    2.6460815         70.1 -0.00011223552  -0.10374727 -0.00052341879   0.10646193  0.052067185  0.062877111 
  177000    5.0358287    1.2804567     3.755372  -0.15704183   0.85365003    1.0009429   0.74971075   -1.2546559            1   0.52292541   0.77946412   0.77906091  0.010251205 -0.0046758349  0.012091164 -0.0040809034   0.45474057    0.4586731  0.069488045        0.075    1.6386127          0.1 0.0015441788    64.759341    2.6222979         70.1 -0.0015605611  -0.09768121 -0.0011937053    0.1143555 0.0013389483    1.5397501 
  178000    5.0310325    1.2753869    3.7556456  -0.15602651   0.85027013   0.99430868   0.74862771   -1.2546559            1    0.4948993   0.75362755   0.76178332 -0.030712962 0.0005214787 0.0074525521 -0.0092589264   0.42681296   0.43107286  0.069471392        0.075    1.6371104          0.1 0.0015438087    64.774864    2.6426637         70.1 0.0018505521  -0.11223515 0.0010431788   0.10859603  -0.46122228   -1.1640077 
  179000    5.0280583    1.2792101    3.7488482  -0.15957586   0.85281899   0.99600785   0.75177635   -1.2546559            1   0.49574959   0.75381817    0.7607968 -0.027366218 0.0056596051 -0.010709369  -0.01040136   0.42737688   0.43181407  0.069495771        0.075    1.6379402          0.1 0.0015443505    64.752142    2.6177061         70.1  0.001356789  -0.10506323 -0.0035257193   0.10417381   -0.0980943  -0.97675503 
  180000     5.037807    1.2826416    3.7551654  -0.15681235    0.8551067   0.99476785   0.75655399   -1.2546559            1    0.5331486   0.78629506   0.79025714  0.022893611 0.0026210778 -0.010758273 0.0056189798   0.46434138   0.46929268  0.069451612        0.075    1.6388039          0.1 0.0015433691    64.793313    2.6243677         70.1 0.0058190361  -0.11373437 -0.00078648367   0.10174915  -0.65477714   0.71894508 
  181000    5.0463566    1.2905072    3.7558494  -0.15840973   0.86035052    1.0065099   0.75721142   -1.2546559            1   0.52331367   0.77717024    0.7789696  0.013801187 0.0013230905 0.0031717519 -0.0010509224   0.45444666   0.45870401  0.069548648        0.075    1.6353372          0.1 0.0015455255    64.702911     2.637355         70.1 -0.00020831634  -0.10912438   0.00285546   0.10245949  0.030191425    1.3784955 
  182000    5.0294311    1.2766971     3.752734  -0.15611448   0.85114364   0.99746216   0.74789203   -1.2546559            1     0.520372   0.77544262   0.77899834 0.0066750455 -0.0043394652 0.0020997529 0.00054044497   0.45235257   0.45634313  0.069538714        0.075    1.6377791          0.1 0.0015453048    64.712155    2.6062072         70.1 0.00076931483 -0.099579062 -0.0040241405   0.10871887  -0.28329181   0.59132436 
  183000    5.0250482    1.2712011    3.7538471   -0.1573522   0.84747957    1.0007853   0.73929622   -1.2546559            1   0.50202593   0.76104254   0.76402713 -0.018991891 -0.0032187984 -0.0067364185 -0.0081242309   0.43478827   0.43778374  0.069527483        0.075    1.6353899          0.1 0.0015450552    64.722608    2.6126155         70.1 0.00087728912  -0.10673158 -0.001714596   0.10560196  -0.15169889   -1.2494906 
  184000     5.038027    1.2815046    3.7565224  -0.15638322   0.85434869    1.0028252   0.74957403   -1.2546559            1   0.51151631   0.77127266   0.76720107 -0.0039247986 -0.0055567364 0.0047394379 -0.00097968507    0.4433439   0.44714318  0.069560373        0.075     1.637094          0.1 0.0015457861    64.692005     2.616495         70.1 -0.0019339629  -0.10654021 0.0013324474   0.10818329  0.062779276  -0.98165202 
  185000    5.0346434    1.2824098    3.7522336  -0.15693841   0.85495217   0.99807197   0.75395832   -1.2546559            1   0.53213794   0.78674598     0.785561   0.02410685 0.0033638043 0.0010351191 -0.0078697002   0.46356679   0.46806993   0.06958471        0.075    1.6375457          0.1 0.0015463269    64.669379    2.6654063         70.1  0.003790095  -0.10224884 -0.00030459668   0.10965578   0.16745372    1.2865822 
  186000    5.0413457    1.2889397     3.752406  -0.15657324   0.85930545    1.0107519   0.75243469   -1.2546559            1   0.51786043   0.77804859    0.7721848 0.0033479174 -0.0048072548 -0.0050224793 0.0016551426   0.44942785   0.45297847  0.069546935        0.075    1.6351424          0.1 0.0015454875    64.704505    2.6329902         70.1 -0.0026107184  -0.11487735 0.0028718003   0.10037107   0.16715241   0.59860568 
  187000     5.050549    1.2840665    3.7664826  -0.15442008   0.85605662    1.0003836   0.75421073   -1.2546559            1   0.49727034   0.75531622   0.76194677  -0.02545198 -0.0027938147 -0.010091285 -0.013141785   0.42867623   0.43305393  0.069560858        0.075    1.6347538          0.1 0.0015457969    64.691554    2.6506783         70.1 0.0013003176  -0.10853473 0.00053090002   0.10972031   0.37773671   -1.0452101 
  188000    5.0376943    1.2816949    3.7559994  -0.15844865   0.85447555    1.0009103   0.75114198   -1.2546559            1   0.49486704   0.75851447   0.75834462 -0.032257968 0.0076994108  0.012919227 0.0055126922   0.42655203   0.43061683  0.069522904        0.075    1.6330787          0.1 0.0015449534     64.72687    2.6381796         70.1 -0.0029526198  -0.10209952 0.00031347021   0.10042829   -0.2514442  -0.47649556 
  189000    5.0359661    1.2866442    3.7493219   -0.1601668   0.85777513    1.0028028   0.75543479   -1.2546559            1   0.52675596   0.77956919   0.78239377   0.01830493 0.00067267291  0.012699882 0.00033060527   0.45805053   0.46238427  0.069531316        0.075    1.6383684          0.1 0.0015451403     64.71904    2.6522884         70.1 -0.0026025071  -0.10543976 -0.0014415004   0.10190244   0.20840322  -0.24719585 
  190000     5.022933    1.2741062    3.7488268  -0.15816027   0.84941631    1.0029328   0.74108431   -1.2546559            1   0.51256016   0.76937777   0.77345984 -0.005157122 -0.0022255153 0.0022307226 -0.0023380131   0.44515988   0.44818012  0.069469476        0.075    1.6374535          0.1 0.0015437661    64.776651    2.5958881         70.1 -0.002804075   -0.1056415 0.0040686403   0.10382365  -0.43380369    1.0373488 
  191000    5.0284355     1.275222    3.7532134  -0.15941973   0.85016024   0.99644505   0.74693239   -1.2546559            1   0.50247677   0.76586209   0.75935502 -0.017786791 0.00027189367  0.017406345 0.0057104429   0.43454462   0.43851319  0.069483446        0.075     1.634927          0.1 0.0015440766    64.763627     2.639189         70.1 -0.00017542663  -0.11568398 -0.0026182116   0.10408065  -0.36871386   0.45254412 
  192000    5.0327363    1.2765895    3.7561468  -0.15716366   0.85107191    1.0009221   0.74532761   -1.2546559            1   0.50952909   0.76884271   0.76383803 -0.0040934635 -0.0045015597 0.0055459504 0.0012878137   0.44174289   0.44527812  0.069538884        0.075    1.6370596          0.1 0.0015453085    64.711996    2.6427581         70.1 0.0017995351   -0.1091738 -0.001238492   0.10755303   0.04504296  -0.37366896 
  193000    5.0403784    1.2858429    3.7545355  -0.15622092   0.85724089    1.0036083   0.75395489   -1.2546559            1    0.5061407   0.76330194   0.76643026   -0.0113101 0.0037884025 -0.0083872356 -0.0076242483   0.43756986    0.4417173    0.0694551        0.075    1.6318268          0.1 0.0015434467    64.790059     2.598496         70.1 0.00068495266  -0.10560698 -0.0016898822   0.11290624 -0.092213355  -0.30237006 
  194000    5.0320074     1.278206    3.7538014  -0.15668076   0.85214956   0.99302238   0.75274157   -1.2546559            1   0.52420016   0.78041242   0.77837204  0.013816033 -0.0032490845 -0.0076081427 0.0062269814   0.45573967   0.46045629  0.069582833        0.075    1.6313474          0.1 0.0015462852    64.671123    2.6498444         70.1 0.00075391984  -0.10920828 0.00066871184   0.10745651  -0.67279627  -0.89436961 
  195000    5.0334795    1.2801754    3.7533041  -0.15695354    0.8534625    1.0011491   0.74924534   -1.2546559            1   0.50058084   0.76401944   0.76224695 -0.024523866 0.0079225886 -0.020397527 -0.0018678662   0.43243833    0.4363153  0.069452907        0.075     1.628189          0.1 0.0015433979    64.792105    2.6006629         70.1 0.00033104503   -0.1131361 -0.0022708891   0.10465578  -0.29732499   -1.1180704 
  196000    5.0436824    1.2876169    3.7560655  -0.15824044    0.8584236    1.0076574   0.75311451   -1.2546559            1   0.51552661   0.77673098   0.77124574 -0.0013968892 -0.00069715074 -0.014865088 0.0003758886    0.4470322   0.45084329  0.069473594        0.075    1.6278701          0.1 0.0015438576    64.772811     2.642105         70.1 -0.00047088395  -0.10434634 0.0004130163   0.11635946   0.11325557   0.41846966 
  197000     5.032114    1.2770308    3.7550832  -0.15802152   0.85136612   0.99588655   0.74938361   -1.2546559            1    0.5044388   0.76644361   0.76494337 -0.018070594 -0.0067350204 -0.026896315 -0.0035846173   0.43628371   0.44051107  0.069454912        0.075    1.6253885          0.1 0.0015434425    64.790234     2.600803         70.1 -0.0010445378  -0.10871256 -0.0021544573   0.10378735   0.42442555   0.37253989 
  198000    5.0374726    1.2866543    3.7508183  -0.15473697   0.85778187    1.0041872    0.7544691   -1.2546559            1   0.52369112   0.77974752   0.77791786  0.013407995 -0.0012191223 -0.00011275271 -0.0032242936   0.45507352   0.45923056  0.069449079        0.075    1.6271144          0.1 0.0015433129    64.795676    2.6232345         70.1 -4.4914973e-05  -0.11022025 -0.0021105752   0.10661196   0.03863702  -0.92961863 
  199000    5.0392941    1.2829122    3.7563819  -0.15707165    0.8552871   0.99432837   0.75717192   -1.2546559            1   0.49891258   0.75919054   0.76337897 -0.025831776 -0.0020007895 0.0081466358 -0.004604531   0.43004916   0.43508487  0.069529847        0.075    1.6275055          0.1 0.0015451077    64.720407    2.6277274         70.1 -0.0028117455  -0.10661129 -0.0031523957   0.10272434  0.035538736  -0.53013928 
  200000    5.0300274    1.2802835    3.7497439  -0.15806039   0.85353463     1.001689   0.74898729   -1.2546559            1   0.50550058   0.76520839   0.76748535    -0.016192 -0.0093140022 0.0048968029 -0.0093752337   0.43738153   0.44120038  0.069492745        0.075    1.6350924          0.1 0.0015442832    64.754961    2.5997017         70.1 0.00044536763  -0.10214714  0.001117826   0.10867795   0.55747373  -0.35845109 
  201000    5.0443938    1.2847097    3.7596842  -0.15452872   0.85648541    1.0045344   0.75201255   -1.2546559            1   0.51891901    0.7759108   0.77521254 0.0056337058 -0.0040226855  0.015323628 -0.0052654824   0.45052483   0.45443616   0.06945003        0.075    1.6347878          0.1  0.001543334    64.794789    2.5755971         70.1 -0.0025486174  -0.11190126 0.00040925381   0.11276315   0.18693956   0.36341436 
  202000    5.0404595    1.2875596    3.7528999  -0.15789662   0.85838541    1.0036511   0.75587709   -1.2546559            1   0.50469779   0.76218278   0.76868126 -0.016770685 0.00041920612 -0.0091452242 -0.011220083   0.43595213   0.44027164  0.069612395        0.075    1.6343671          0.1 0.0015469421    64.643661    2.6685999         70.1 -0.00059878339  -0.10472447 0.0029590068   0.10723871   0.55396976  -0.27361377 
  203000    5.0345403    1.2788188    3.7557215  -0.15690273   0.85255812   0.99519355   0.75190608   -1.2546559            1   0.49519252   0.75867318   0.75991495 -0.033010582 -0.0021985591 0.0037284469  0.010225316   0.42680801   0.43130927  0.069445374        0.075    1.6300161          0.1 0.0015432305    64.799133    2.5851214         70.1 -0.0014418465  -0.11301269 0.00088537356   0.10681147   0.27203063  -0.60554514 
  204000    5.0373969    1.2819399     3.755457   -0.1585618   0.85463887    1.0031505    0.7498394   -1.2546559            1   0.50186318   0.76190227   0.76142594 -0.017738663 0.0045208542 -0.0052474766 0.00093198194   0.43366664   0.43746916  0.069545323        0.075    1.6316227          0.1 0.0015454516    64.706004    2.6686347         70.1 0.00080345389  -0.11643752 0.00029997631   0.10673989   0.18953858   0.70453458 
  205000    5.0387626    1.2848927    3.7538698  -0.15858595   0.85660745   0.99922498   0.75596814   -1.2546559            1   0.50011951   0.76034859   0.76192054 -0.021910598 -0.0028619005 0.0085698121 -0.0043564214   0.43136557   0.43597748  0.069438215        0.075     1.631283          0.1 0.0015430714    64.805814    2.5577177         70.1 0.0033245967   -0.1002211 0.0006187085   0.11416309  0.068538202   0.24126475 
  206000    5.0366939    1.2762046    3.7604893  -0.15827059   0.85081528   0.99699731   0.74765998   -1.2546559            1   0.49037268   0.75366553   0.75657023 -0.039117734 -0.0054406664 -0.0063901799 -0.0019691204   0.42237435   0.42637365  0.069521989        0.075    1.6260699          0.1 0.0015449331    64.727723    2.6068761         70.1 0.00065621985   -0.1146622 0.0038158377  0.097838869  -0.23263428   -1.6394218 
  207000    5.0181072    1.2679422    3.7501651  -0.15823134   0.84530694   0.99441146    0.7400888   -1.2546559            1   0.50276444    0.7609503   0.76211466 -0.014771651 -0.0061434509 -0.012661255 0.0019476865   0.43545469   0.43893139  0.069519758        0.075    1.6260744          0.1 0.0015448835      64.7298    2.6257496         70.1 -0.0022755164  -0.10949906 0.00055603749   0.11195346 -0.024855083   -1.0936646 
  208000    5.0335751    1.2817611     3.751814  -0.15575505   0.85451965     1.008103   0.74614053   -1.2546559            1    0.5308975   0.78411625    0.7834628  0.025113446  -0.01001707 -0.0093039759 -0.0081095372   0.46303736   0.46618557  0.069399918        0.075     1.622793          0.1 0.0015422204    64.841575     2.578984         70.1 0.0028346577  -0.10903481 -8.0168933e-05   0.11749498   0.24573213    1.0883649 
  209000    5.0282817    1.2798578    3.7484239  -0.15749009   0.85325076   0.99914843   0.75029624   -1.2546559            1    0.5257123   0.78210601   0.78354857  0.011482308 -0.00015526828  0.008954603 0.0028564756    0.4574742   0.46157518  0.069440043        0.075     1.622092          0.1 0.0015431121    64.804107    2.6099952         70.1 0.0014252783  -0.10829623 0.0010441388   0.10911365  -0.53205391   0.51929207 
  210000    5.0272314     1.286205    3.7410264  -0.16079697   0.85748232   0.99871856   0.75781796   -1.2546559            1   0.51350639   0.77533767   0.77383447 -0.0086529762 0.0028274827 -0.0016986015 -0.0034905112   0.44458421   0.44939686   0.06961948        0.075    1.6226643          0.1 0.0015470996    64.637082    2.6959903         70.1 0.00026835289  -0.10908479 -0.0010766859   0.10507576  0.032728424  -0.17425463 
  211000    5.0331366    1.2811804    3.7519562  -0.15779981   0.85413254    1.0001108   0.75112116   -1.2546559            1   0.51792981   0.77354696    0.7771873 0.0030551771 -0.0069293918 -0.008535054 -0.0035257571    0.4496167   0.45373092  0.069429851        0.075    1.6176731          0.1 0.0015428856    64.813621    2.5661319         70.1 -0.00056532944  -0.10336683 0.0012317202   0.11406397   0.97650707    1.2995967 
  212000    5.0335524    1.2772896    3.7562629  -0.15633452   0.85153862    1.0018717   0.74545348   -1.2546559            1   0.48695695   0.75286789   0.74882553 -0.040822577 0.0040449145 -0.005841494 -0.0070710636   0.41915929   0.42264502  0.069471058        0.075    1.6171512          0.1 0.0015438013    64.775176    2.5695779         70.1 -0.00075281696  -0.10539763 -0.0011220005    0.1076405   0.54402736   -1.6111625 
  213000    5.0301545    1.2787584     3.751396  -0.15976636   0.85251787    1.0004124   0.74815391   -1.2546559            1   0.50490554   0.76033815   0.76749233 -0.013113867 0.0063586716 0.0073903962 0.0071030425   0.43686229   0.44068728  0.069512936        0.075    1.6206652          0.1 0.0015447319    64.736152     2.643736         70.1 0.00072767768  -0.10641998 -0.00021590558   0.11727049   0.37544488  -0.20385285 
  214000    5.0293598    1.2754548     3.753905  -0.15645273    0.8503154   0.99470961   0.74842195   -1.2546559            1   0.52069945   0.77340508   0.77740275  0.011290533 -0.0029483437 -0.018340827  0.010893797   0.45263183   0.45684727  0.069500209        0.075    1.6221143          0.1 0.0015444491    64.748006    2.6205302         70.1 0.0024451874  -0.10250839 0.0027098275   0.10497417   0.11531628   0.90907729 
  215000    5.0429969    1.2850347    3.7579622  -0.15475258   0.85670214    1.0045092   0.75240002   -1.2546559            1   0.52270989   0.77663876   0.77678397   0.01470695 0.0054355456 -8.9803777e-05 -0.0054786547   0.45428047   0.45822866  0.069511262        0.075    1.6219745          0.1 0.0015446947    64.737711    2.6480116         70.1 -0.0013567817  -0.11533872 -0.0044438932    0.1056678  -0.61041147   0.11278997 
  216000    5.0382799    1.2861856    3.7520942  -0.15520259    0.8574694    1.0080212   0.75123004   -1.2546559            1   0.51952921   0.77382294   0.77689054  0.007874156 -0.0032188299 0.0077226735 0.00063125186   0.45120619   0.45482254  0.069517499        0.075    1.6223679          0.1 0.0015448333    64.731903    2.6242062         70.1 0.0043035559  -0.10601785 -0.0020156202   0.11426601   -1.1513279   0.30482694 
  217000    5.0410778     1.286859    3.7542188  -0.16019357   0.85791833   0.99869337   0.75857949   -1.2546559            1   0.49694461   0.75707895   0.75981067 -0.026055781 0.0007723923 0.0051865316 -0.0010399786   0.42795318   0.43283671  0.069538902        0.075    1.6220333          0.1 0.0015453089    64.711979    2.6656796         70.1 -0.0042400581  -0.11218296 0.0008064638   0.10464568  -0.76066552  -0.67174724 
  218000    5.0299789    1.2792112    3.7507677  -0.16214527   0.85281972   0.99045857   0.75569429   -1.2546559            1    0.5123297   0.77310204   0.76971031 -0.0058232521 -0.0047680427   0.02608163 -0.0015677863   0.44360066    0.4487504  0.069542496        0.075    1.6170776          0.1 0.0015453888    64.708636    2.6580257         70.1 -9.1595742e-05  -0.11271893 0.0022649294   0.10696485  0.020465233  -0.30558507 
  219000    5.0432569    1.2826957    3.7605612  -0.15515608   0.85514275   0.99802797   0.75431446   -1.2546559            1    0.5225353   0.77926913   0.77526858  0.013068178 -0.0020277188 0.0032853722 0.0053763536   0.45393176   0.45847011  0.069573738        0.075    1.6168607          0.1 0.0015460831    64.679578    2.6350213         70.1 0.0007314627   -0.1068891 -0.0049143369   0.11858477    0.7772628   0.89491712 
  220000    5.0328288    1.2790965    3.7537323   -0.1567382   0.85274322   0.99757212   0.75054302   -1.2546559            1   0.50322878   0.76282972   0.76197971 -0.015123091   0.01038462 -0.0049503519  0.013337595   0.43496824   0.43919285  0.069536393        0.075    1.6161814          0.1 0.0015452532    64.714314    2.6297653         70.1 -0.0028583182  -0.10707088 0.00030183357   0.10098233   0.76593872   0.60408725 
  221000    5.0418756    1.2828509    3.7590248  -0.15743303    0.8552462   0.99304839   0.75800556   -1.2546559            1   0.48732866   0.75331343   0.74826196 -0.039589421 -0.0062735066 -0.027221174 0.0030844687   0.41838942   0.42358311  0.069481317        0.075     1.615581          0.1 0.0015440293    64.765612    2.6098712         70.1 -0.0015576104  -0.10913814 0.00088919156   0.10090703    0.4040104  -0.81683232 
  222000    5.0478768    1.2848649    3.7630119  -0.15384603   0.85658893   0.99934549   0.75585149   -1.2546559            1   0.52915732   0.77926659   0.78308083  0.025124557 0.00070139721 -0.0013002324 0.0069732625   0.46041399   0.46500756  0.069452462        0.075    1.6192448          0.1  0.001543388     64.79252    2.5856449         70.1 -0.00098857759  -0.11755176  0.001596769   0.10545382  -0.15965283  0.029298882 
  223000    5.0252556    1.2736267    3.7516289  -0.15660889   0.84909665    0.9980827   0.74396223   -1.2546559            1   0.50965442   0.76642432   0.76772453 -0.0051855841 -0.00026279206 0.00060397396  0.006802723    0.4419924   0.44558572  0.069557232        0.075    1.6185931          0.1 0.0015457163    64.694927    2.6513721         70.1 -0.0039497862  -0.11110195 0.0015722381   0.10499324   0.23055258  -0.20342035 
  224000    5.0274844    1.2758774     3.751607  -0.15682424   0.85059715   0.99477902   0.74885358   -1.2546559            1   0.52355598   0.78056368   0.77657062  0.013533651 -0.0097441554 0.0024007458 -0.0053289628    0.4554491   0.45969935  0.069590954        0.075    1.6219945          0.1 0.0015464656    64.663577    2.6598434         70.1 0.0043915966  -0.11007448 0.00072991585   0.10527595    0.2555427  -0.58495789 
  225000    5.0429758    1.2833697    3.7596061  -0.15773904   0.85559209   0.99610137   0.75644077   -1.2546559            1   0.49199741   0.75340873   0.75451818 -0.031934689 0.0042710251 -0.0077778222 0.0072170042   0.42320048   0.42805589  0.069490845        0.075    1.6221365          0.1  0.001544241    64.756731    2.6476985         70.1 0.0040868311  -0.11384994 0.0037858268   0.10969859    0.3839239   0.22331731 
  226000    5.0319601    1.2766391     3.755321   -0.1564943   0.85110498    1.0042944   0.74300386   -1.2546559            1   0.50251485   0.75970939   0.76208523 -0.014250071 -0.0013552246 -0.015406394 -0.0031825783   0.43493999   0.43804741  0.069522761        0.075    1.6190483          0.1 0.0015449503    64.727003    2.6114022         70.1 -0.001242607   -0.1075557  0.002791324    0.1071092   0.32257031   0.41936745 
  227000    5.0155135    1.2700976    3.7454159  -0.15701011   0.84674391   0.99595345   0.74145168   -1.2546559            1    0.5272212   0.78249723   0.78210277  0.017063613 -0.0034267019 -0.0097518487 -0.0045277539   0.45978751   0.46328918  0.069529485        0.075    1.6187412          0.1 0.0015450997    64.720744    2.6540679         70.1 -0.00039530471  -0.11214236 -0.0018111089   0.12175091   -0.4403634   0.28860367 
  228000    5.0289983    1.2835373     3.745461  -0.15704932   0.85570381    1.0028036   0.75190088   -1.2546559            1    0.5169791   0.77568151   0.77774701 -0.0024912033 -0.0066546223  0.022204494 0.0030128496   0.44859507   0.45260736  0.069497245        0.075    1.6190994          0.1 0.0015443832    64.750768    2.6218218         70.1 -0.0029069055  -0.11463587 -0.0014641664   0.10282906  -0.67602541  0.051077568 
  229000    5.0271537    1.2752394    3.7519143  -0.15762881   0.85017178   0.99801822   0.74584172   -1.2546559            1   0.50077193   0.76154689   0.76093292 -0.020164032 0.0013250415 0.0026257089 0.0089620701   0.43293896   0.43670736  0.069485722        0.075    1.6199362          0.1 0.0015441272    64.761506    2.6418761         70.1 0.0012111832  -0.11476809 -0.00042388486   0.11412593  -0.56227586   -1.0229656 
  230000    5.0344911    1.2807554    3.7537357  -0.15877331    0.8538492     1.003678   0.74812009   -1.2546559            1    0.5101706   0.76963505   0.77001588 -0.0091391428 -0.0033882337 -0.010433686 0.0033031278   0.44213042   0.44574272  0.069618313        0.075    1.6194558          0.1 0.0015470736    64.638165    2.6606506         70.1 -0.0001103979  -0.10429819 -0.002192079   0.10508862   0.16727979   0.13610329 
  231000    5.0461692    1.2944016    3.7517676  -0.15711731   0.86294681    1.0026888   0.76433727   -1.2546559            1   0.51909851    0.7737832   0.77697159 0.0065407459 -0.002077977 -0.0098895309 0.00010832821   0.44958341   0.45473414   0.06951201        0.075    1.6171822          0.1 0.0015447113    64.737015    2.6549914         70.1 -0.0021454632  -0.10651026 -0.003169109   0.10336979   0.30141481   0.56722473 
  232000    5.0278637    1.2721848    3.7556789  -0.15883684   0.84813538   0.98969127   0.74824519   -1.2546559            1   0.53933654   0.78887722   0.78948985  0.039642546 -0.0080404986   0.00423701 -0.0066039656   0.47128499    0.4758065  0.069517141        0.075    1.6171636          0.1 0.0015448254    64.732236    2.6053592         70.1 -0.0022186989  -0.10475074 0.00028107491   0.10595881   0.17150812    1.6283994 
  233000     5.041395    1.2829381     3.758457  -0.15933787   0.85530433   0.99856467   0.75421129   -1.2546559            1   0.51058331   0.76848775   0.76878275  -0.00552057 0.0023093796  0.030025453 0.0033751062   0.44198915   0.44648367  0.069453978        0.075    1.6169364          0.1 0.0015434217    64.791105    2.5933737         70.1 -0.0022465627  -0.11450741 0.0026942063    0.1041275 -0.010156647   0.41934884 
  234000     5.034425      1.27862     3.755805  -0.15938694    0.8524256   0.99970062   0.74849892   -1.2546559            1   0.50319409   0.76625836     0.761259 -0.017935083 0.0063864655 0.0020001724 0.0026663096   0.43511946   0.43902153  0.069486277        0.075    1.6188603          0.1 0.0015441395    64.760988    2.6284976         70.1 0.0030599759  -0.10938218  0.005284401   0.10468057   0.64945601   0.10868453 
  235000    5.0394581     1.276674    3.7627841  -0.15645622   0.85112823   0.99609323   0.74883193   -1.2546559            1   0.52976226   0.78340846   0.78197808  0.023900228 0.0024385793  0.017398328  -0.00615933   0.46165734   0.46582126  0.069643565        0.075    1.6170541          0.1 0.0015476348    64.614728     2.693925         70.1 0.0036200601   -0.1117678  0.010223736   0.10725518    0.2352087   0.10980754 
  236000    5.0352857    1.2806649    3.7546207  -0.15589577   0.85378889    1.0110156    0.7428383   -1.2546559            1   0.48120232   0.74351608   0.74912444 -0.049033575 0.0043652366  0.020350876 -0.0064121845   0.41364251   0.41630343  0.069555253        0.075    1.6128496          0.1 0.0015456723    64.696767    2.6498971         70.1 -0.0037289439  -0.10924178 0.0008499105   0.10641041  -0.37290609   -1.2175125 
  237000    5.0343135    1.2804569    3.7538566  -0.15746892   0.85365021    1.0019611    0.7489924   -1.2546559            1   0.49453383    0.7590145   0.75919693 -0.034609939 -0.0074889283  0.013088139 -0.0036474083   0.42641432   0.43021616  0.069456921        0.075    1.6136183          0.1 0.0015434871     64.78836    2.6315977         70.1 -0.001505792  -0.11055301 -0.00072463751   0.10290079 -0.067248832  -0.12665567 
  238000    5.0318694     1.278525    3.7533444  -0.15898265   0.85236223   0.99827398   0.74939774   -1.2546559            1   0.50117048   0.75806278    0.7619326 -0.016483939 -0.0010843608 -0.004481869 0.0036642741   0.43301411    0.4370895  0.069542369        0.075    1.6123919          0.1  0.001545386    64.708754    2.6468907         70.1 0.00089212913  -0.11302401 -0.0041062434   0.10652893   -1.0381401   0.83314394 
  239000    5.0347724    1.2803277    3.7544446  -0.15565899   0.85356409    1.0034807   0.74777295   -1.2546559            1   0.53830244   0.79102626   0.79225736  0.031623684 0.0043674778 -0.00031371731 -0.0043359156   0.47029383   0.47388722  0.069454676        0.075    1.6098527          0.1 0.0015434373    64.790454    2.6036267         70.1 -0.0016339542  -0.10723551 0.00086195629   0.10940226  -0.96572545   0.14273555 
  240000    5.0276043     1.273002    3.7546023  -0.15894532   0.84868017   0.99904932   0.74256953   -1.2546559            1   0.50495413   0.76265181   0.76547184 -0.013261247 0.0036444568 0.0053424345  0.004839414   0.43741877   0.44082338  0.069529207        0.075    1.6144518          0.1 0.0015450935    64.721002    2.6424458         70.1 -0.0047863244  -0.10370412 -0.0015613578   0.11061972  0.012566861  -0.68533774 
  241000    5.0145628    1.2733274    3.7412353  -0.15819546   0.84889716   0.99305389   0.74717128   -1.2546559            1   0.50061278   0.75756568   0.75952178 -0.015249126 -0.0035855631  0.021054615 -0.00062708045    0.4326589   0.43686688  0.069601463        0.075     1.613808          0.1 0.0015466992    64.653814    2.6847317         70.1 0.0044840483  -0.11155809 0.0027621315   0.11499612  -0.15293909  -0.26919754 
  242000    5.0238291    1.2709387    3.7528904  -0.15576941   0.84730466   0.99397929    0.7438016   -1.2546559            1   0.53205615   0.78591518   0.78498387  0.025269395 0.0018461742 0.00021437446 0.00068274518   0.46440873   0.46825085  0.069473198        0.075    1.6081154          0.1 0.0015438488    64.773181    2.6023781         70.1 -0.0019209286  -0.10924977 0.0045007791   0.10742657   0.92776594    1.2512548 
  243000    5.0274328    1.2806241    3.7468087  -0.16027987    0.8537617   0.99866985   0.75150559   -1.2546559            1   0.51275916   0.76997245   0.77362528 -0.0053202605 -0.003205867 0.0069897202  0.013691853   0.44441108   0.44865276  0.069449991        0.075    1.6062876          0.1 0.0015433331    64.794824    2.6099205         70.1 -0.0015230249  -0.10787159 0.0010553549   0.10638636   0.79229291  -0.11782252 
  244000    5.0328136    1.2846738    3.7481398  -0.15921198   0.85646153   0.99586644   0.75808971   -1.2546559            1     0.509774   0.77019964   0.77068792 -0.011565565 0.0025500267  0.021553926 -0.00046992447   0.44082711   0.44584756  0.069487995        0.075    1.6088413          0.1 0.0015441777    64.759387    2.5977542         70.1 0.0029827945  -0.11711648 0.0021240589   0.09800234 -0.021545536   0.10420054 
  245000    5.0375429    1.2853686    3.7521743  -0.15566244   0.85692473    1.0013276    0.7550253   -1.2546559            1   0.50717932   0.76307111   0.76581734 -0.0073504882 -0.0032281722 0.0090416158 -0.0028675234   0.43851113   0.44290232  0.069557225        0.075    1.6065467          0.1 0.0015457161    64.694933     2.662012         70.1 -0.0027315094  -0.11043863 -0.00037005437   0.11085944  -0.69895228  -0.48281562 
  246000    5.0289216    1.2795895    3.7493321  -0.15732826   0.85307189   0.99507389   0.75286694   -1.2546559            1   0.53223022   0.78537656   0.78828876  0.023025347 0.0055284353   0.02506997  0.007394987   0.46375833   0.46835466   0.06951382        0.075    1.6054304          0.1 0.0015447516    64.735328    2.6261211         70.1 0.00011454978 -0.097371493 0.0012134011   0.10665259   -0.9429473   0.55264291 
  247000    5.0373175    1.2809474    3.7563701  -0.15692188   0.85397718    1.0002535   0.75075545   -1.2546559            1    0.5306416   0.78356473   0.78240522  0.025954844 -0.0064979775 0.0044245859 -0.0067856234   0.46236174   0.46643355  0.069578275        0.075    1.6095029          0.1 0.0015461839    64.675361     2.657173         70.1 -0.0010100247  -0.10511939 -0.0016543808   0.10847137  -0.12832037    1.1000869 
  248000    5.0335139    1.2778846    3.7556293  -0.15673911    0.8519353   0.99864562   0.74840717   -1.2546559            1   0.49805487   0.75962913   0.75978201 -0.025246528 0.0024261471 -2.6691944e-05 -0.0071290096   0.42998859   0.43395003  0.069511815        0.075    1.6095938          0.1  0.001544707    64.737196    2.6656736         70.1 0.00093479103  -0.10789066  0.001484452   0.10963967  -0.59580791  -0.57371434 
  249000    5.0347608    1.2807804    3.7539803  -0.15824608   0.85386589    1.0004721   0.75041127   -1.2546559            1   0.49928824   0.76281497   0.76163743 -0.026587677 -0.0024187275  0.025296213 0.0091530842   0.43103969   0.43506616  0.069488474        0.075     1.607143          0.1 0.0015441883    64.758941    2.6552724         70.1 0.00039541382   -0.1078135 -0.0011735855   0.10172761  -0.64865663   0.17027102 
  250000    5.0178282    1.2685822    3.7492461  -0.16012328    0.8457336   0.98763458   0.74559976   -1.2546559            1   0.50913968   0.76603151   0.76931785 -0.0079303214 -0.0031104291 0.0058761163  0.011405396   0.44132873   0.44574166  0.069543787        0.075    1.6044982          0.1 0.0015454175    64.707434    2.6243269         70.1 -0.003011379  -0.10310292 0.00052809949   0.10602088 -0.099382272   0.43934201 
  251000    5.0189252    1.2709394    3.7479858  -0.15939166   0.84730513   0.99280968   0.74462792   -1.2546559            1   0.50432176   0.76350453   0.76523811 -0.015777351  0.015582961 -0.012635991 -0.0066783057   0.43659919   0.44059154  0.069525166        0.075    1.6075701          0.1 0.0015450037    64.724764    2.6590204         70.1 0.00031818271  -0.11076721 -0.00078200917   0.10434426    0.8324119  0.034762893 
  252000    5.0248187    1.2729015    3.7519171  -0.15874001    0.8486132   0.99988381   0.74186631   -1.2546559            1   0.49809193   0.76141443   0.75804087 -0.025179515 -0.0035693356 -0.007469755  -0.01060799   0.43062052   0.43390761  0.069566023        0.075    1.6043564          0.1 0.0015459116    64.686751    2.6686066         70.1 0.0009439496  -0.10620596 0.0018568053   0.10559591  -0.21990867  0.044815576 
  253000    5.0267636     1.274501    3.7522626  -0.15816019   0.84967955   0.99918585   0.74417794   -1.2546559            1   0.50192042   0.76211098   0.76527335 -0.021623078 0.0014755068 -0.0019299344 0.0081209858   0.43423877    0.4377809  0.069537431        0.075    1.6030448          0.1 0.0015452762    64.713349    2.6297396         70.1 -0.0044062556  -0.10495207 0.0015070569   0.10530203 -0.093108243  -0.85039467 
  254000    5.0307393    1.2819678    3.7487715   -0.1600686   0.85465748   0.99295448   0.75706758   -1.2546559            1   0.50107456    0.7646943   0.76283772 -0.024308328 -0.0044581149 -0.0095572345 0.0095382524   0.43222063   0.43733505  0.069453242        0.075    1.6080994          0.1 0.0015434054    64.791792    2.6147202         70.1 0.0023878447  -0.11129071 0.0028093806   0.11074661   0.44299735  -0.68473397 
  255000    5.0310215    1.2763355     3.754686  -0.16002852   0.85090258    1.0003725   0.74542669   -1.2546559            1   0.50144761   0.76110123   0.76503826 -0.021796671 -0.0010007302 -0.0014025917 -0.016107179   0.43365239   0.43723192  0.069526199        0.075     1.607209          0.1 0.0015450266    64.723803     2.645628         70.1 -3.8628755e-05  -0.10600238 -0.0015976411   0.10462072  -0.18851468   0.59933929 
  256000    5.0273475    1.2789238    3.7484237  -0.15427457   0.85262808   0.99867282   0.74956974   -1.2546559            1    0.5064581   0.76720754   0.76860249 -0.016435753 0.00055731991 -0.0014636852 0.00080057985   0.43828608   0.44235151  0.069496171        0.075    1.6111758          0.1 0.0015443594    64.751769    2.6289483         70.1 -0.0011587882  -0.10736976  0.003818412   0.11706881   0.31914654   -0.3705519 
  257000    5.0253473    1.2837339    3.7416134  -0.15901467   0.85583487     1.001897   0.75276433   -1.2546559            1   0.52210245   0.77987708    0.7788383  0.007591965 0.0056224925 -0.0025231905  0.010895404   0.45363989   0.45778889  0.069590273        0.075    1.6122793          0.1 0.0015464505     64.66421    2.6621553         70.1 -0.0025018766 -0.098647912 -0.0013885211   0.11068212 -0.076159615 -0.039056944 
  258000    5.0288517    1.2765557     3.752296  -0.15463484   0.85104936    1.0012734   0.74504117   -1.2546559            1   0.52566126   0.78303346    0.7789893  0.014961013 -0.0015209921 -0.0067566436 0.0052240672    0.4579011   0.46138773  0.069417009        0.075    1.6128731          0.1 0.0015426002    64.825611    2.6280507         70.1 0.0012809928  -0.10386055 -0.0051742019   0.10555814  -0.01834003  -0.30291188 
  259000    5.0358739    1.2799909     3.755883  -0.15701164   0.85333951    1.0043742   0.74675922   -1.2546559            1    0.4978342   0.76140637   0.75735611 -0.025259883 -0.000523496 0.0036336001 -0.0010568988    0.4299178   0.43336163  0.069533185        0.075    1.6130724          0.1 0.0015451819      64.7173    2.6408558         70.1 0.0022300523  -0.10521534 0.0023200567   0.10319577 -0.052491121   -0.5870884 
  260000    5.0246823    1.2768871    3.7477953  -0.15510595   0.85127026   0.99724825   0.74825899   -1.2546559            1   0.50224699   0.76011047   0.76798126 -0.021350748 0.0037687508 -0.011639917 0.0016685171   0.43419418   0.43823185  0.069543634        0.075    1.6146529          0.1 0.0015454141    64.707576    2.6231984         70.1 0.0032029764  -0.11380065 -0.001705693   0.11269433   0.29604332  -0.52017033 
  261000    5.0391678    1.2807481    3.7584198  -0.15877786    0.8538443   0.99918583   0.75128231   -1.2546559            1   0.51977471   0.77386499    0.7754341  0.010025041 0.00022207377  0.017342848 0.00031667969   0.45144694   0.45563519   0.06952195        0.075    1.6174213          0.1 0.0015449322    64.727758    2.6517637         70.1 -0.00059249233  -0.10171195 -0.0021300509   0.10386144   0.24358836    1.3923569 
  262000    5.0279731    1.2804198    3.7475534  -0.15839488   0.85362543    0.9975961   0.75203099   -1.2546559            1   0.52373764   0.77934778   0.77803757  0.013827553 0.0045345312 0.0074821526 -0.011085885   0.45534177   0.45970017  0.069565475        0.075    1.6153324          0.1 0.0015458995     64.68726    2.6287947         70.1 0.0021192319  -0.10037557 0.00030340944   0.10669275   0.17060984  -0.38159537 
  263000    5.0322257    1.2827323    3.7494934  -0.15872462   0.85516714    1.0008887   0.75233697   -1.2546559            1   0.49927521   0.75791768   0.76127801 -0.021370062 0.0064783071   0.01970026  -0.00256669   0.43085152   0.43502638  0.069529662        0.075     1.614431          0.1 0.0015451036    64.720579    2.6596326         70.1 -0.00052657583  -0.11191231 -0.0018446884   0.11245365  -0.34570537   -1.1680645 
  264000    5.0317257    1.2694235    3.7623023  -0.15556145   0.84629448   0.99655596   0.74025977   -1.2546559            1   0.51267124   0.76834742   0.77033385 -0.00066755428 0.0033899805 0.0092760995 -0.0081544335   0.44534595   0.44870054  0.069533422        0.075    1.6162982          0.1 0.0015451871     64.71708    2.6296629         70.1 0.00088221346  -0.11169123 -8.8657356e-05   0.10511466  -0.15777677     1.062411 
  265000    5.0391182    1.2799051    3.7592131  -0.15485051   0.85328234   0.99980803   0.74988454   -1.2546559            1    0.5076057   0.76641852   0.76925177 -0.012853191 -0.00058663531 0.0031749376 0.0062677606   0.43940505   0.44342624  0.069494014        0.075    1.6160292          0.1 0.0015443114    64.753779     2.627502         70.1 0.00026574041   -0.1039755 0.0069465178   0.10496943  -0.84877932   0.69660862 
  266000    5.0349638    1.2816938      3.75327  -0.15764394   0.85447483   0.99715278   0.75379282   -1.2546559            1   0.51945149   0.77487729   0.77496072 0.0085164679 -0.0067747405 -0.0030951476 -0.0058001407   0.45089539   0.45544248  0.069538528        0.075    1.6139312          0.1 0.0015453006    64.712328    2.6175917         70.1 -0.0018757755  -0.10636036 -0.0017494922   0.10880151  -0.10948577   0.48579629 
  267000    5.0347835    1.2849077    3.7498758  -0.15498209   0.85661741    1.0029104   0.75338396   -1.2546559            1   0.50490697   0.76348122    0.7628806 -0.011640905 0.0040497103 -0.00036689255 0.0016051829   0.43638806   0.44052837   0.06953317        0.075    1.6112485          0.1 0.0015451816    64.717314    2.6452408         70.1 0.0032835731  -0.10061069 -0.004269264   0.11225827   0.65206483  -0.89412409 
  268000    5.0292494    1.2750192    3.7542302   -0.1591148   0.85002503   0.99120952     0.750397   -1.2546559            1   0.51290123   0.77212331   0.77194503 -0.0053646575 -0.0070079715   0.01840164 -0.0021816072   0.44465397   0.44927372  0.069496958        0.075    1.6136282          0.1 0.0015443768    64.751036    2.6465057         70.1 -0.00050913232   -0.1036801 -0.0041926008   0.10960239  -0.34824525  -0.24336084 
  269000    5.0413978    1.2792176    3.7621802  -0.15492689   0.85282398    1.0020108   0.74754794   -1.2546559            1   0.51273289   0.76851783   0.77406686 -0.0043860291 -0.0061747146 0.0041481357 -0.005243089   0.44474475   0.44841203  0.069554552        0.075    1.6086361          0.1 0.0015456567    64.697419    2.6537545         70.1 -0.0051576746  -0.10725763 -0.0037145622   0.10664188  0.027603371   0.27965782 
  270000    5.0428766    1.2832602    3.7596164  -0.15674172   0.85551909    1.0053781   0.74976868   -1.2546559            1   0.50679079   0.76409909   0.76743049 -0.011157204 0.00042050338  -0.01028818 0.0034932193   0.43860068   0.44225378  0.069470579        0.075    1.6098143          0.1 0.0015437906    64.775623     2.580054         70.1 0.00054743241  -0.10651275 -0.0046822227   0.10670506   0.48645811   0.15060822 
  271000    5.0316566    1.2745185    3.7571382  -0.15648716   0.84969117    1.0053089   0.73987608   -1.2546559            1    0.5207177   0.77082859   0.77995552  0.011368983 0.0017585422 0.0019092896 0.0078718294    0.4534273   0.45618513  0.069496654        0.075    1.6080499          0.1 0.0015443701    64.751319    2.6335877         70.1 0.0043552027   -0.1153329 0.0010336864    0.1114136   0.28950785  0.089371339 
  272000    5.0237795    1.2773841    3.7463955  -0.15796453   0.85160161   0.99733715   0.74876147   -1.2546559            1   0.49616388   0.75816091   0.75900237 -0.028671649 0.0053933399 -0.011624265 0.0037913967   0.42806537   0.43214303  0.069500433        0.075    1.6105962          0.1 0.0015444541    64.747798    2.6385431         70.1 -0.0043434865 -0.098476638  0.004178828   0.11578524  -0.18842133    0.2167592 
  273000    5.0375703    1.2819727    3.7555976  -0.15893443   0.85466073   0.99540264    0.7553452   -1.2546559            1   0.50365498   0.76454161   0.76458488 -0.018161533 -0.00053850623 -0.016337209 -0.007106361    0.4349577   0.43975832  0.069557515        0.075    1.6131877          0.1 0.0015457226    64.694663    2.6403637         70.1 0.00054293493  -0.10804434 0.0037502192   0.10965239  0.084319657  -0.77164046 
  274000    5.0270922    1.2771317    3.7499605  -0.15744435   0.85143333    1.0040099   0.74376477   -1.2546559            1   0.51422678   0.77350675   0.77263492 -0.0034613473 -0.00030705833 -0.003769472 0.0087962353   0.44658271   0.44977759  0.069559846        0.075    1.6109237          0.1 0.0015457744    64.692495    2.6509263         70.1 0.00079610268  -0.11393361 0.00043022751   0.10822873   0.40601631  -0.38852956 
  275000    5.0311898    1.2744264    3.7567635  -0.15310678   0.84962977   0.99914032   0.74412516   -1.2546559            1   0.48628895   0.75088698   0.74969243 -0.041712554 -0.0031262073 -0.0057669501 0.0018950794   0.41861211   0.42215236  0.069447602        0.075    1.6136011          0.1   0.00154328    64.797054    2.6475323         70.1 -0.0016739262  -0.10868359 0.00077475481   0.11950243   0.31140029   0.12933862 
  276000    5.0313816    1.2787374    3.7526442  -0.16135219   0.85250384   0.99876611   0.74929196   -1.2546559            1   0.49722805   0.76133045   0.76080959 -0.030455901 0.0059110174  0.002538805 -0.0056912372   0.42908129   0.43311547  0.069460079        0.075    1.6147665          0.1 0.0015435573    64.785414    2.5686069         70.1 0.00085279188  -0.10053807 -0.0033468776   0.10549549  -0.13244412  -0.58628849 
  277000    5.0390375    1.2814196    3.7576179  -0.15493985   0.85429202    1.0048001   0.74808347   -1.2546559            1   0.52005459   0.77622772   0.77733703 0.0065990131 -0.00067737355 0.0035436514 0.00015482554   0.45201774   0.45555468  0.069544495        0.075    1.6153205          0.1 0.0015454332    64.706775    2.6566863         70.1 -5.7355904e-05  -0.10874227 -0.00069282207   0.11037763   -1.1791817  -0.17685348 
  278000    5.0374706    1.2762277    3.7612429    -0.157522   0.85083071      1.00014   0.74546816   -1.2546559            1    0.5059343   0.76108046   0.76720676  -0.01048434 -0.00054612312 -0.0061781435 -0.0014665333   0.43813531   0.44173353   0.06945763        0.075    1.6133212          0.1 0.0015435029    64.787699    2.6472176         70.1 0.0017709737 -0.096709268 -0.0016181128   0.11087528 0.0097194333  0.040833687 
  279000    5.0350843    1.2771974    3.7578869  -0.15853518   0.85147719   0.99740556   0.74850095   -1.2546559            1   0.50191421   0.76279277   0.76054693 -0.017597073 -0.0019559108 -0.002738319 -0.0037624486    0.4338394   0.43788897  0.069584075        0.075    1.6159565          0.1 0.0015463128    64.669969    2.6561975         70.1 0.0019262243  -0.10624669 0.0027421667   0.10649319   0.25590937  -0.71789674 
  280000    5.0328559    1.2782353    3.7546206  -0.16072115   0.85216908   0.99358648   0.75237673   -1.2546559            1   0.52462769   0.77822988    0.7782946  0.017358588 -0.0008708723 -0.010774112 -2.3309172e-05   0.45620038   0.46084761  0.069479125        0.075    1.6202787          0.1 0.0015439806    64.767655    2.6340713         70.1 -0.0019402838  -0.10808997 -0.00086065113   0.11184089  0.093661271   0.35220658 
  281000    5.0374268    1.2786444    3.7587824  -0.15729978   0.85244184    1.0028889   0.74627631   -1.2546559            1    0.5088845   0.76618823   0.76965673 -0.0091914527 0.00069574144 -0.015158673  -0.00133989   0.44101202   0.44450728  0.069521399        0.075    1.6229908          0.1   0.00154492    64.728272    2.6286379         70.1 -0.0011434306 -0.099199866 -0.0023821947   0.10435852   0.56557948  -0.16716141 
  282000     5.032931    1.2830103    3.7499207  -0.16010493   0.85535248    0.9988685   0.75407897   -1.2546559            1   0.50099975   0.76436543   0.75799898 -0.019365156 0.0013099344 -0.0012550665 0.0038718905   0.43241763    0.4368806   0.06953501        0.075    1.6236723          0.1 0.0015452224    64.715602    2.6510039         70.1 -0.0022821796   -0.1077245 0.0046403498   0.11246629   0.66728088  -0.51645044 
  283000    5.0310503    1.2775496    3.7535007   -0.1540623   0.85171197    0.9987836   0.74792882   -1.2546559            1   0.51174158   0.77296453   0.77101358 -0.0087533549 -0.0032337257  0.021228987 -0.003880705   0.44371881   0.44762789  0.069481248        0.075    1.6198907          0.1 0.0015440277    64.765676     2.647185         70.1 0.0060692843  -0.10075949 0.0054719146   0.10269846  -0.30097684  -0.82283597 
  284000    5.0417959    1.2777936    3.7640023  -0.15558034   0.85187466   0.99971801   0.74754682   -1.2546559            1   0.50784053   0.76601587   0.76756928 -0.010063562 0.0024209991 0.0097647834 -0.012944397   0.43985249   0.44366685  0.069523749        0.075    1.6231982          0.1 0.0015449722    64.726084      2.64474         70.1 -0.0014840654  -0.10799748 0.0018455192   0.11488627  -0.86123571  -0.02431128 
  285000    5.0364425    1.2776305     3.758812  -0.15815387    0.8517659    1.0015426   0.74607349   -1.2546559            1   0.50568418   0.76364712   0.76524692 -0.011841499 2.4128687e-05 0.0022974194 -0.0029297849   0.43783014   0.44139338  0.069469045        0.075    1.6179544          0.1 0.0015437565    64.777053      2.59072         70.1 -0.0027713314  -0.10728761 -0.0051955733   0.11060818  -0.80163407   0.57740754 
  286000    5.0298429    1.2718596    3.7579832  -0.15493282   0.84791861    0.9970031   0.74271467   -1.2546559            1   0.53448604   0.78812006   0.78683391  0.028504147 0.0044566697 -0.0010069765 -0.0075580055   0.46693748   0.47048663  0.069466253        0.075    1.6206662          0.1 0.0015436945    64.779656    2.6355907         70.1 -0.0041145032  -0.11182819 -0.0022296178    0.1146341   0.38911004   0.33873091 
  287000    5.0415461    1.2895744    3.7519717  -0.15797435   0.85972865    1.0052006   0.75707476   -1.2546559            1   0.51939398   0.77543319   0.77434561   0.00840316 -0.0037847771 -0.0092323458 0.00093204704    0.4505394   0.45486837  0.069554227        0.075    1.6190026          0.1 0.0015456495    64.697721    2.6453634         70.1 0.0073071843  -0.10688932 -0.0029348305   0.10919367   0.65429358  -0.62461126 
  288000    5.0251775    1.2783585    3.7468189  -0.15849071   0.85225127   0.99589627   0.75088667   -1.2546559            1    0.5008525    0.7602242   0.76145657  -0.01912327 -0.0058295848 -0.010517806 0.0020917601   0.43256071   0.43692415  0.069483137        0.075    1.6148125          0.1 0.0015440697    64.763916    2.6451842         70.1 -0.00080645149  -0.10944604 0.0050623391   0.11008222   0.23383264  -0.51858139 
  289000    5.0304909    1.2769922    3.7534987  -0.15789272   0.85134034   0.99617818    0.7491338   -1.2546559            1   0.49623274   0.75785037   0.75780957 -0.026961718 0.0051355015 -0.015710527   0.01055144   0.42810037   0.43228629  0.069450337        0.075      1.61132          0.1 0.0015433408    64.794502    2.5994964         70.1 -0.0012158955  -0.11394573 -0.0022320703    0.1142628 -0.0028723961  -0.18328632 
  290000    5.0232684    1.2694976    3.7537709  -0.15774575   0.84634388   0.99014758   0.74486712   -1.2546559            1   0.51955105   0.77362261   0.77817664 0.0068538848 0.0051648875 -0.036069142  0.011291408   0.45180672   0.45599171  0.069533968        0.075     1.610345          0.1 0.0015451993    64.716572    2.5976304         70.1 0.0032759179  -0.10826704 -0.0055462947   0.11662514   0.24157874  0.087668766 
  291000    5.0340479    1.2819657    3.7520822  -0.15599785   0.85465605    1.0049692    0.7485851   -1.2546559            1   0.53833198   0.79111582   0.78928103  0.034599099 -0.0020340315  0.010408028 -0.00032439437   0.47024952   0.47382122  0.069565614        0.075     1.608626          0.1 0.0015459025    64.687131    2.6909864         70.1 0.0029786856  -0.10387304 -0.00024682751   0.10466025  -0.53417258  -0.31842598 
  292000    5.0299377    1.2733261    3.7566116   -0.1585792   0.84889626   0.99564571   0.74534044   -1.2546559            1   0.51788974   0.77365889   0.77203139 0.0079789386 0.0060990476 -0.002735835 -0.007116287   0.45010237   0.45397747  0.069505805        0.075    1.6087052          0.1 0.0015445734    64.742794    2.6039944         70.1 -0.0014469877  -0.10739933 -0.002418584   0.11085472   -0.5298336  -0.21184189 
  293000    5.0369305    1.2827375     3.754193   -0.1586599   0.85517062    1.0078458    0.7474325   -1.2546559            1   0.49288292   0.75474775   0.75650402 -0.032603003 -0.0013250346 0.0036996138 -0.0068623706   0.42490528   0.42818751  0.069466176        0.075    1.6084819          0.1 0.0015436928    64.779728    2.6229583         70.1 0.0021035049  -0.10736131  0.002627508   0.11114016 -0.032329591   0.17550302 
  294000    5.0275822    1.2714742     3.756108  -0.15629026   0.84766166   0.98930742   0.74770802   -1.2546559            1    0.4981298   0.75985227   0.75874349 -0.024206376  0.001562639  0.018136901 -0.0021207453    0.4301271   0.43462439   0.06949088        0.075    1.6070615          0.1 0.0015442418    64.756699    2.6145777         70.1 0.0031882067  -0.10136495 0.0034576234   0.10621439   0.38541133    0.1331768 
  295000    5.0261478    1.2865535    3.7395943  -0.15779276   0.85771465    1.0044401   0.75417597   -1.2546559            1   0.51098331   0.76733245   0.77077248 -0.0051550042 0.0040682064 -0.016095143 0.00010025675   0.44239236   0.44650651  0.069536833        0.075    1.6121289          0.1 0.0015452629    64.713905    2.6829303         70.1 0.00094563795  -0.11340501 -0.0017637598   0.10967826    0.5034593   0.23581803 
  296000    5.0262999    1.2716813    3.7546186  -0.15686478    0.8477997   0.99656843   0.74281863   -1.2546559            1   0.49795438    0.7624586   0.75797839 -0.026573863 -0.0018135671  0.016969597 0.0021909001   0.43039636   0.43398287  0.069452229        0.075     1.611001          0.1 0.0015433829    64.792737    2.6296709         70.1 0.0014382315  -0.10383992  0.003097465  0.099344553  -0.58207382 -0.078554176 
  297000    5.0278834    1.2780969    3.7497865  -0.16117882   0.85207683    1.0013415    0.7467458   -1.2546559            1   0.52403953   0.77829349   0.77732712  0.016497985 0.0012647506 -0.0022295166 -0.0084886402   0.45612435   0.45976164   0.06951248        0.075    1.6103076          0.1 0.0015447218    64.736577    2.6226373         70.1 -0.0032032869  -0.11355153 0.00091108583   0.11023747  -0.17711043 -0.058697851 
  298000    5.0363466    1.2879205    3.7484261  -0.15892691   0.85862602    1.0086584   0.75275331   -1.2546559            1   0.53204527   0.78853817   0.78692731  0.020670329 0.0001836425 0.0052951334 -0.0042275807   0.46358371   0.46729769  0.069532631        0.075    1.6088555          0.1 0.0015451696    64.717816    2.6187036         70.1 -0.0029435573   -0.1063837 -0.0024363753   0.10526656  -0.13969794 -0.038476532 
  299000    5.0231322    1.2726183    3.7505139  -0.15593075   0.84842439   0.99517407   0.74486838   -1.2546559            1   0.50500764    0.7637822    0.7662834 -0.015042668 -0.003626886 0.00053313533 -0.010311537    0.4372632   0.44112565   0.06943051        0.075     1.610934          0.1 0.0015429002    64.813005    2.5820395         70.1 -0.0042260772  -0.10780421 2.748365e-05   0.11949993  -0.22071544  -0.16022775 
  300000    5.0388642    1.2858055    3.7530587  -0.15827666   0.85721601    1.0060121   0.75221583   -1.2546559            1   0.52492584   0.78300222   0.77867666  0.013098644 -7.7133682e-05 -0.0032129841 0.0061856148   0.45651316   0.46034813  0.069503647        0.075    1.6133169          0.1 0.0015445255    64.744804    2.6129904         70.1 -0.0049322148  -0.11798426 -0.0010717359   0.10831532   0.14492599  -0.18393567 
Loop time of 4619.12 on 1 procs for 300000 steps with 69604 atoms

Performance: 28057.299 tau/day, 64.947 timesteps/s
98.6% CPU use with 1 MPI tasks x 1 OpenMP threads

MPI task timing breakdown:
Section |  min time  |  avg time  |  max time  |%varavg| %total
---------------------------------------------------------------
Pair    | 476.8      | 476.8      | 476.8      |   0.0 | 10.32
Bond    | 1190.5     | 1190.5     | 1190.5     |   0.0 | 25.77
Neigh   | 1281.9     | 1281.9     | 1281.9     |   0.0 | 27.75
Comm    | 100.15     | 100.15     | 100.15     |   0.0 |  2.17
Output  | 1.5387     | 1.5387     | 1.5387     |   0.0 |  0.03
Modify  | 1370.8     | 1370.8     | 1370.8     |   0.0 | 29.68
Other   |            | 197.4      |            |       |  4.27

Nlocal:    69604 ave 69604 max 69604 min
Histogram: 1 0 0 0 0 0 0 0 0 0
Nghost:    4395 ave 4395 max 4395 min
Histogram: 1 0 0 0 0 0 0 0 0 0
Neighs:    45448 ave 45448 max 45448 min
Histogram: 1 0 0 0 0 0 0 0 0 0

Total # of neighbors = 45448
Ave neighs/atom = 0.652951
Ave special neighs/atom = 6.63226
Neighbor list builds = 43105
Dangerous builds = 0
#undump      eq

#--- Unfix Equil ---#

unfix abeads_edz
unfix bbeads_edz
unfix tbeads_edz

unfix freeze_tout


###############
# Compression #
###############


#--- Bring the brushes closer together fit the sim box ---#

variable       bbzmax  equal bound(bbeads,zmax)
variable       tbzmin  equal bound(tbeads,zmin)
displace_atoms  alltop move 0.0 0.0 -$(v_tbzmin - v_bbzmax) units box
displace_atoms  alltop move 0.0 0.0 -36.663879397410795491 units box
variable z_f equal bound(all,zmin)
variable z_c equal bound(all,zmax)
change_box all z final ${z_f} $(v_z_c + 0.1) units box
change_box all z final 0 $(v_z_c + 0.1) units box
change_box all z final 0 33.436120602589198825 units box
  orthogonal box = (0 0 0) to (80 80 33.4361)

print         "D = $D"
D = 28.0809244074875
print         "D = $(v_twzmin - v_bwzmax)"
D = 28.080924407487540151
info variables

#--- Computes ---#

# Number density profiles

compute         cabeads abeads chunk/atom bin/1d z lower ${binres} units reduced # Check bound keyword to maybe only bin melt area
compute         cabeads abeads chunk/atom bin/1d z lower 0.001 units reduced 
fix             abeads_cdz abeads  ave/chunk ${Neveryc} ${Nrepeatc} ${Nfreqc} cabeads density/number file abeads_cdz
fix             abeads_cdz abeads  ave/chunk 100 ${Nrepeatc} ${Nfreqc} cabeads density/number file abeads_cdz
fix             abeads_cdz abeads  ave/chunk 100 700 ${Nfreqc} cabeads density/number file abeads_cdz
fix             abeads_cdz abeads  ave/chunk 100 700 70000 cabeads density/number file abeads_cdz
compute         cbbeads bbeads chunk/atom bin/1d z lower ${binres} units reduced # Check bound keyword to maybe only bin melt area
compute         cbbeads bbeads chunk/atom bin/1d z lower 0.001 units reduced 
fix             bbeads_cdz bbeads  ave/chunk ${Neveryc} ${Nrepeatc} ${Nfreqc} cbbeads density/number file bbeads_cdz
fix             bbeads_cdz bbeads  ave/chunk 100 ${Nrepeatc} ${Nfreqc} cbbeads density/number file bbeads_cdz
fix             bbeads_cdz bbeads  ave/chunk 100 700 ${Nfreqc} cbbeads density/number file bbeads_cdz
fix             bbeads_cdz bbeads  ave/chunk 100 700 70000 cbbeads density/number file bbeads_cdz
compute         ctbeads tbeads chunk/atom bin/1d z lower ${binres} units reduced # Check bound keyword to maybe only bin melt area
compute         ctbeads tbeads chunk/atom bin/1d z lower 0.001 units reduced 
fix             tbeads_cdz tbeads  ave/chunk ${Neveryc} ${Nrepeatc} ${Nfreqc} ctbeads density/number file tbeads_cdz
fix             tbeads_cdz tbeads  ave/chunk 100 ${Nrepeatc} ${Nfreqc} ctbeads density/number file tbeads_cdz
fix             tbeads_cdz tbeads  ave/chunk 100 700 ${Nfreqc} ctbeads density/number file tbeads_cdz
fix             tbeads_cdz tbeads  ave/chunk 100 700 70000 ctbeads density/number file tbeads_cdz



#--- Fixes ---#
fix             freeze_tout twout setforce 0.0 0.0 NULL
fix             comp_tout twout aveforce 0.0 0.0 ${Fcatom}
fix             comp_tout twout aveforce 0.0 0.0 -1.25465594981376
fix             rwalls all wall/reflect zlo EDGE zhi EDGE




#--- Dumps ---#
#dump           comp all image ${Ndump_c} stg2.*.jpg type type zoom 2 view 60 120 bond none none


#--- Run Compression ---#
timestep    ${Tstep}
timestep    0.005
run         ${Ncomp}
run         700000
WARNING: Inconsistent image flags (src/domain.cpp:784)
Per MPI rank memory allocation (min/avg/max) = 47.87 | 47.87 | 47.87 Mbytes
Step TotEng KinEng PotEng E_pair Temp c_melTemp c_wallTemp v_Fcatom v_Pcomp2 Press Pxx Pyy Pzz Pxy Pxz Pyz c_melPress c_wallPress v_melDens v_surfcov v_aveRg v_Wall_v2 v_srate v_D v_bwzmax Zhi c_fbwall[1] c_fbwall[3] c_ftwall[1] c_ftwall[3] v_sbot v_pbot 
  300000    5.0388642    1.2858055    3.7530587  -0.15827666   0.85721601    1.0060121   0.75221583   -1.2546559            1    1.1005254    1.6415916    1.6325229  0.027461768 -0.00016171347 -0.006736134  0.012968358   0.95709587   0.96513601   0.16025113        0.075    1.6133169          0.1 0.0035611363    28.080924    2.6129904    33.436121 -0.0049322148  -0.11798426 -0.0010717359   0.10831532   0.14492599  -0.18393567 
  301000    5.0356443    1.2907017    3.7449426  -0.15900262   0.86048016   0.99646616   0.76452152   -1.2546559            1    1.1846519    1.6876411    1.7001083   0.16620644 -0.0091059855  0.025287231 -0.016083004     1.038876    1.0505472   0.16580855        0.075    1.6095462          0.1 0.0036846345    27.139734    2.6459413    33.436121 0.0005124819  -0.11078139 0.0031868931   0.19020527 -0.019400708   0.86453934 
  302000    5.0341257     1.291318    3.7428078  -0.16825164     0.860891    1.0069754   0.75780488   -1.2546559            1    1.1317359    1.6462943    1.6584923  0.090420979 -0.0089162325  0.014266523 -0.0014845245   0.98724058   0.99621679   0.17162765        0.075    1.6090481          0.1 0.0038139477    26.219552    2.6888799    33.436121 -0.0027136627    -0.102631 -0.0010484052   0.19197212    0.9708173    -1.112212 
  303000    5.0408419    1.2887038    3.7521381   -0.1638453   0.85914819    1.0098507   0.75280249   -1.2546559            1    1.1582612    1.6747215    1.6707416   0.12932031 -0.024307735  0.013664908  0.010839899    1.0147197    1.0223551   0.17480636        0.075     1.608906          0.1 0.0038845858    25.742771    2.6009775    33.436121  0.001896506  -0.10599529 -0.0016224348   0.19456928  0.087520709   0.24859971 
  304000    5.0208357    1.2749403    3.7458953  -0.17010773   0.84997244   0.99529623   0.74742287   -1.2546559            1    1.1500063    1.6631057    1.6640438   0.12286947  0.006507774 -0.023658424 0.0017308507    1.0074907    1.0160591   0.17785791        0.075    1.6080493          0.1  0.003952398    25.301095     2.642549    33.436121 1.903216e-05  -0.10150385 -0.0059721978   0.19291595   0.32277287   0.17733612 
  305000    5.0318579    1.2865311    3.7453268  -0.16982602    0.8576997    1.0037213   0.75465779   -1.2546559            1    1.1703249    1.6742077    1.6820838   0.15468325 -0.0010991533  0.017655861 -0.008066351    1.0264297    1.0352438   0.18066619        0.075    1.6080637          0.1 0.0040148043    24.907814    2.6409883    33.436121  -0.00346247  -0.11150886 0.0014792596   0.19820896  -0.16932917  -0.28476921 
  306000     5.024352    1.2783163    3.7460356  -0.16966245   0.85222313   0.99846002   0.74902914   -1.2546559            1    1.1540686    1.6688962    1.6746446     0.118665  -0.00189751 -0.0010492814 -0.007084637    1.0112466    1.0196955   0.18385328        0.075    1.6050169          0.1 0.0040856283    24.476039    2.6747888    33.436121 -0.0016039821  -0.11838435 0.00017785432   0.19360267   0.90415808  -0.21335385 
  307000    5.0168725    1.2765415     3.740331  -0.17007627   0.85103989   0.99008072   0.75292489   -1.2546559            1    1.1541476    1.6655431    1.6765625   0.12033721  0.003288664 -0.012389151 0.0031072432    1.0105828    1.0209022   0.18603218        0.075    1.6110172          0.1 0.0041340485    24.189363    2.6347591    33.436121 -0.0021418325  -0.10547497 0.0030745315    0.1940175 -0.069378143  -0.35960545 
  308000    5.0282781    1.2857602    3.7425179  -0.17117196   0.85718581    1.0085699   0.75035901   -1.2546559            1    1.1701432      1.69231    1.6783224    0.1397971 -0.001255044  0.022319774 -0.015646996    1.0270677    1.0344095   0.18920973        0.075    1.6151644          0.1 0.0042046607    23.783132    2.6670293    33.436121 0.0033146047  -0.10512665 -0.0068148932   0.19241454  -0.14405822    1.2288672 
  309000    5.0234714    1.2793873    3.7440841  -0.17322068   0.85293711   0.99861519   0.75013755   -1.2546559            1    1.1970616     1.712813    1.6996589   0.17871284  0.012586373 0.0033182636 -0.013516771    1.0540283    1.0626676   0.19142676        0.075    1.6110076          0.1 0.0042539279    23.507686    2.6655607    33.436121 0.0025025027  -0.10938518 0.00083464713   0.19468226   0.22422888  -0.66616865 
  310000    5.0324822    1.2925675    3.7399147  -0.17317508   0.86172403      1.00638   0.75964608   -1.2546559            1    1.1539772    1.6756077    1.6754848   0.11083894  0.012426167 -0.016087921 -0.0086916993    1.0091308    1.0185382   0.19344821        0.075    1.6128092          0.1 0.0042988491     23.26204    2.6394278    33.436121 0.0038902185  -0.10448337 -0.00072774585    0.1903833  -0.28276326   -0.9265688 
  311000    5.0274117    1.2827932    3.7446185  -0.17402077   0.85520773    1.0008718   0.75241813   -1.2546559            1    1.1187612    1.6525711    1.6413191  0.062393408 -0.003637461  0.017757957 -0.018075014   0.97529306   0.98406356   0.19623157        0.075      1.61346          0.1 0.0043607015     22.93209    2.6324957    33.436121 0.0065102306  -0.10250505 -0.0040586884    0.1826461  -0.14649376 -0.023259056 
  312000    5.0097417    1.2774556    3.7322861  -0.17521917    0.8516493   0.98819903   0.75529256   -1.2546559            1    1.1899328    1.7043983    1.6979573   0.16744276 0.0094257714 -0.024140199  0.011962043    1.0459166    1.0569407   0.19895856        0.075    1.6126877          0.1 0.0044213013    22.617776    2.6657037    33.436121 -0.0024063619  -0.10493367 0.0031636578   0.19328591    1.1847741   0.62043177 
  313000    5.0191995    1.2859705    3.7332291  -0.17736582   0.85732596    1.0028503   0.75463501   -1.2546559            1    1.1959142    1.7082933     1.700478   0.17897132 -0.0018334821 -0.0087254251 -0.010292642    1.0520233    1.0609503   0.20053692        0.075    1.6141402          0.1 0.0044563759    22.439759    2.6220348    33.436121 0.0018595652  -0.10163577  0.002725397   0.18636819   0.49358119   0.54668107 
  314000    5.0221535    1.2836613    3.7384922  -0.17347082   0.85578651    1.0030431   0.75187294   -1.2546559            1    1.1372551    1.6629456    1.6613891  0.087430502 -0.013291408 -0.024216759 0.00015744493   0.99389089    1.0022652   0.20279888        0.075    1.6110509          0.1 0.0045066419    22.189471    2.6311078    33.436121 0.0050486781   -0.1066245 -0.0018504008   0.19747092 -0.0043260057  -0.47441255 
  315000    5.0135358     1.281186    3.7323498  -0.17400736    0.8541363    1.0016946   0.75000968   -1.2546559            1    1.1027064    1.6334585     1.637775  0.036885778 -0.001057672  0.022105349  0.022637065   0.95969753   0.96789806   0.20485036        0.075    1.6093016          0.1 0.0045522302    21.967255    2.6342111    33.436121 -0.0039346294  -0.11286084 0.0016126676   0.20676766  -0.85001375 -0.013988687 
  316000    5.0123134    1.2755933    3.7367201  -0.17199102   0.85040778   0.99558948   0.74795851   -1.2546559            1    1.2249338    1.7280157    1.7290241   0.21776149 -0.0053718201 -0.026736022 -0.003466527     1.082316     1.090947   0.20835561        0.075    1.6052468          0.1 0.0046301247    21.597691    2.6707669    33.436121 0.0018967606   -0.1126052 -0.0021370048   0.19191167   -0.2952568   0.37369041 
  317000    5.0143604    1.2801563    3.7342041  -0.17551938   0.85344978    1.0013099   0.74911011   -1.2546559            1    1.1681616    1.6835041     1.686267   0.13471361 -0.002746206  0.012779622 -0.018644558    1.0253242     1.033405   0.21018711        0.075    1.6053682          0.1 0.0046708247    21.409495    2.6210401    33.436121 -0.004700909  -0.11046108 -1.0576616e-05   0.19801592   0.87136691  -0.45288893 
  318000    5.0185289    1.2877212    3.7308078  -0.17271179    0.8584931    1.0026195   0.75678885   -1.2546559            1    1.1978145    1.7088699    1.7114364   0.17313709 0.0048475746  0.029063369 -0.019324894    1.0535129    1.0628816   0.21300098        0.075    1.6009955          0.1 0.0047333551    21.126663    2.6534265    33.436121 -0.0042439546 -0.092998156 0.0014136823    0.1966724 -0.011099367    1.3142898 
  319000    5.0125418    1.2823993    3.7301426  -0.17559378   0.85494513   0.99840721    0.7537097   -1.2546559            1    1.1728644    1.6876457    1.6868163   0.14413135 -0.0073502018  0.028157562 0.0082714464      1.02915    1.0384985   0.21493554        0.075    1.6017432          0.1 0.0047763454    20.936509    2.6419379    33.436121 -0.0035834525  -0.11300249 -2.6011325e-05    0.1892472  -0.66292278   0.22650006 
  320000    5.0137973    1.2791417    3.7346556  -0.17356781   0.85277335    0.9948903   0.75248727   -1.2546559            1    1.1515167    1.6764652    1.6718303   0.10625473 -0.0063073634  0.034359065 0.0049959548    1.0080354    1.0176241   0.21646183        0.075    1.6051718          0.1 0.0048102629    20.788884    2.5988952    33.436121 -0.00013226749    -0.112652 -0.0010324457   0.19759514  -0.65791746 -0.048454177 
  321000    5.0030132    1.2766869    3.7263263  -0.17765699    0.8511368   0.99775971   0.74767034   -1.2546559            1    1.1590194    1.6806791    1.6755925   0.12078656 -0.00070458561 -0.057003991   -0.0180963    1.0164565    1.0247406   0.21921338        0.075    1.6075958          0.1 0.0048714084    20.527944     2.611581    33.436121 -0.001727628  -0.10501709 0.0024629543   0.20209579   0.28025321  -0.45470863 
  322000    5.0108953    1.2764403     3.734455  -0.17519292   0.85097243   0.99301999   0.75073528   -1.2546559            1    1.1612069    1.6828045    1.6675017   0.13331447 -0.003408462 -0.033349361 -0.0094495344    1.0180597     1.027566   0.22265693        0.075    1.6046515          0.1 0.0049479317    20.210465    2.6486739    33.436121 -0.00051576354   -0.1099785 0.00097172284   0.18697991   0.40761394  -0.74629488 
  323000    5.0156087    1.2818211    3.7337876   -0.1759569   0.85455966    1.0034785   0.74947281   -1.2546559            1    1.1640167     1.675692    1.6878173   0.12854082 -0.0043406117 -0.021992799 0.0086142115    1.0211101    1.0289682   0.22414995        0.075    1.6025373          0.1   0.00498111    20.075847    2.6175363    33.436121 0.0012473213 -0.098584458 0.0029786827   0.18939253   0.22527606    1.7996896 
  324000    5.0092076    1.2812583    3.7279493   -0.1813063   0.85418446    1.0040286    0.7484445   -1.2546559            1     1.189804    1.6939718    1.7016201   0.17382021 0.0080388765 -0.011749323 -0.022111811    1.0470936    1.0546816   0.22770046        0.075    1.6065435          0.1 0.0050600101    19.762806    2.6765025    33.436121 0.00017938691 -0.097503086 -0.0027961467   0.19142472   0.45837445   0.53832412 
  325000     5.001198    1.2826254    3.7185726  -0.17845563   0.85509587   0.99997235   0.75286215   -1.2546559            1    1.1455952    1.6617828    1.6712202   0.10378252 -0.0071143249 0.0068452606  0.004769899    1.0020424    1.0110186    0.2297521        0.075    1.6072681          0.1 0.0051056021    19.586328    2.6289734    33.436121 0.00022598882   -0.1023384 -0.00020977324   0.19242072   0.24793854  -0.60833947 
  326000    5.0030586    1.2691302    3.7339284  -0.17536402   0.84609894   0.98914074   0.74515993   -1.2546559            1    1.1418522    1.6650402    1.6659229   0.09459348 -0.013059875  0.024970979 -0.0077863375   0.99976804    1.0087333   0.23314921        0.075    1.6048157          0.1 0.0051810935    19.300945    2.6578101    33.436121 0.0028336261  -0.11090459 0.0046501932   0.19779838   -0.3984954 -0.078035261 
  327000    4.9970483    1.2778694    3.7191789  -0.17982818    0.8519252   0.99927172   0.74794802   -1.2546559            1    1.1480957    1.6754388     1.670136  0.098712426   0.02415184 -0.0084860222 0.0044845724    1.0054799    1.0136134   0.23546443        0.075    1.6049997          0.1  0.005232543    19.111166    2.6372433    33.436121 0.0029401961  -0.10977389 -0.00021523009   0.18776021  -0.47226289  -0.57440218 
  328000    5.0195814    1.2806407    3.7389408  -0.17466128   0.85377272   0.99822798   0.75183626   -1.2546559            1    1.1163947    1.6423475    1.6420268   0.06480993 -0.00083717297 0.00050647857  0.014040451   0.97303754    0.9820529   0.23773854        0.075     1.610784          0.1 0.0052830786    18.928358    2.6210818    33.436121 -0.0022762034  -0.11363221 -0.0012065237   0.17713521   0.15739322   0.17829173 
  329000    5.0164505     1.280321    3.7361295  -0.17505761   0.85355959   0.99763097   0.75189408   -1.2546559            1    1.1814055    1.6923946    1.6963984   0.15542359 0.0059630152  0.026207739 -0.030458175    1.0380373     1.047144   0.24079956        0.075    1.6095104          0.1 0.0053511013    18.687742    2.6324092    33.436121 -0.00097596203  -0.11019923 0.0031857887   0.18419155  -0.10931482  0.015229531 
  330000    5.0077009    1.2772247    3.7304762  -0.17472631   0.85149534   0.99601928   0.74951035   -1.2546559            1    1.1904043    1.7010099    1.7080882     0.162115 -0.011970166 0.0060465817 -0.010492096    1.0474906    1.0563597   0.24434049        0.075    1.6030635          0.1 0.0054297887    18.416923    2.6791766    33.436121 0.0012195517  -0.10607138  0.002635281   0.17665276 -0.016412398   0.63040457 
  331000    4.9984259    1.2729803    3.7254456  -0.17769816   0.84866573   0.99534327   0.74516065   -1.2546559            1    1.1226567     1.657379    1.6432483  0.067342952 0.0065843138 0.0004673871 -0.017935771   0.98057242   0.98870313   0.24622134        0.075    1.6040772          0.1 0.0054715853    18.276239    2.6156195    33.436121 0.0016222307  -0.10793778 0.0046482444   0.19511805  0.094018338  -0.23341859 
  332000    5.0063067    1.2776265    3.7286802  -0.17581008   0.85176325   0.99965405   0.74740191   -1.2546559            1    1.1429292     1.668554    1.6708696  0.089363944 0.0066960705 -0.033429214 -0.010053184    1.0004175    1.0083954   0.25014542        0.075    1.6064857          0.1 0.0055587871    17.989536    2.6420407    33.436121 -0.0010498007    -0.100342 -0.0014773755   0.20470477   0.68020026  -0.92754679 
  333000    5.0192334    1.2835603    3.7356731  -0.17820265   0.85571916    1.0073365   0.74872769   -1.2546559            1    1.2121383    1.7219727    1.7180035   0.19643881 -0.0079683953 -0.036792121 -0.00056637301    1.0693738    1.0765706   0.25184914        0.075    1.6072296          0.1 0.0055966474     17.86784    2.6195761    33.436121 -0.0033602151  -0.11188712 6.6018114e-05   0.19546793   0.15787843    0.6123493 
  334000    5.0262996    1.2844639    3.7418358  -0.17518353   0.85632154    1.0016142   0.75379412   -1.2546559            1    1.1857389    1.7021657    1.6967864   0.15826462 0.0043936662  -0.05346572 -0.0051340066    1.0420084    1.0509414   0.25649766        0.075    1.6075459          0.1 0.0056999479     17.54402     2.645526    33.436121 -0.0017470569  -0.11009782 0.0075166169   0.20063398   0.15770243    1.3429451 
  335000    5.0117231    1.2881966    3.7235265  -0.17791039   0.85881008    1.0021115   0.75768814   -1.2546559            1    1.1751403    1.6968295    1.6902017   0.13838953 -0.007422258 -0.030117093 -0.020625928    1.0306673    1.0402758   0.25861522        0.075    1.6065194          0.1 0.0057470048    17.400368    2.6596786    33.436121 0.00052451884  -0.11387947 -0.002138108   0.19895219  -0.15015103  -0.15179392 
  336000    5.0038942    1.2785502    3.7253439  -0.17611015   0.85237908   0.99202115   0.75383976   -1.2546559            1    1.1531657    1.6759285    1.6745382   0.10903045 0.00092103697  0.014148002 0.0056460714    1.0094265    1.0196592   0.26206858        0.075    1.6047163          0.1 0.0058237462    17.171078    2.6323333    33.436121 0.0056019546   -0.1069228 -0.0020227369    0.1846262  0.057175483  -0.38601761 
  337000    5.0086468    1.2794607     3.729186  -0.17496978   0.85298608   0.99812736   0.75056541   -1.2546559            1    1.1816645    1.6918849    1.6950857   0.15802293 0.0058114591 0.0042955625 0.00061150933    1.0385496    1.0473362   0.26570413        0.075    1.6072382          0.1 0.0059045362    16.936131    2.6649625    33.436121  0.003494301  -0.11137563 -0.0013964809   0.19744681   0.19220752 -0.023485917 
  338000    5.0180578    1.2803416    3.7377163  -0.17483533    0.8535733    1.0063431   0.74576838   -1.2546559            1     1.164006    1.6857701    1.6786565   0.12759137 -0.011186457  0.039407628 0.0062073933    1.0218058     1.028572   0.26936985        0.075    1.6060039          0.1 0.0059859966    16.705656    2.6267416    33.436121  0.003962204  -0.11175468 0.0035447783   0.19408543   0.34287893  -0.39175148 
  339000    4.9986375    1.2746747    3.7239628  -0.17856144   0.84979535   0.98578246   0.75383567   -1.2546559            1    1.1873005    1.6988056     1.703032     0.160064  0.012162235  0.019107983 -0.0039772582    1.0435621    1.0546336     0.271972        0.075    1.6065787          0.1 0.0060438223    16.545821    2.6280753    33.436121 -0.0032944887  -0.10123521 -0.0028853323   0.19180153  -0.32967799 -0.049512211 
  340000    5.0194839    1.2852064    3.7342775  -0.17372496   0.85681655    1.0023564   0.75411467   -1.2546559            1    1.1453996    1.6738025    1.6614617   0.10093458 -0.0035926199  0.014301698   0.01525339     1.001608    1.0105022   0.27700657        0.075    1.6096769          0.1 0.0061557014    16.245102    2.6743215    33.436121 -0.0029443157  -0.10853085 -0.0034448393    0.2087567   0.10316706   0.38836164 
  341000    5.0070638    1.2785486    3.7285152  -0.17929357   0.85237795   0.99589656   0.75110255   -1.2546559            1    1.1281444    1.6567631    1.6563173   0.07135261   0.00100201  0.010067025 -0.00012332709   0.98492706   0.99411628   0.28072238        0.075    1.6046523          0.1 0.0062382752    16.030072    2.6402326    33.436121 -0.0024896615  -0.10288344 -0.0048023587   0.19222552  -0.49379842   -1.1311327 
  342000    5.0055568    1.2764225    3.7291343  -0.17977749   0.85096059   0.99394813   0.75005998   -1.2546559            1    1.1453236     1.659822    1.6771892  0.098959614 -0.0029721705 -0.017539432 0.0024438374    1.0023051    1.0115577   0.28477969        0.075    1.6082311          0.1 0.0063284375    15.801689    2.6327672    33.436121 0.00097538544  -0.09341215 -0.0044224716   0.19693513   0.13211409  -0.32446285 
  343000    5.0059285    1.2814039    3.7245246  -0.17675815   0.85428156    1.0038817   0.74871386   -1.2546559            1    1.1945661    1.7066155    1.6981068   0.17897608 -0.0004871362   0.01915968 -0.023192562    1.0518043    1.0594634   0.28960916        0.075    1.6041839          0.1 0.0064357591    15.538183    2.6457639    33.436121 -0.0028505655  -0.11486065 0.0050265122   0.20055838  0.033044506  0.074610488 
  344000    5.0192711     1.279207    3.7400642  -0.17418134    0.8528169   0.99768816   0.75058681   -1.2546559            1    1.1542573    1.6802585     1.670357   0.11215651 -0.0030667838  0.012961745 -0.017874053    1.0111384    1.0199881   0.29427459        0.075    1.6023999          0.1 0.0065394354     15.29184    2.6570828    33.436121 -0.00055893154  -0.11346179 0.00021481966   0.19207255   0.98685598  -0.22600601 
  345000    5.0132324     1.280575    3.7326574  -0.17983502   0.85372894    1.0044636   0.74736045   -1.2546559            1    1.1652336    1.6814932    1.6832822    0.1309255 -0.0049427205 -0.00010868169 0.0099004784    1.0227299    1.0300526   0.29744091        0.075    1.5990178          0.1  0.006609798    15.129055    2.6540227    33.436121 1.7867365e-05 -0.098978744 0.0049839746   0.18785776   0.34731434   0.52364039 
  346000    5.0049237    1.2718686    3.7330551  -0.17534305   0.84792459   0.99685096   0.74283225   -1.2546559            1    1.1513722    1.6707501    1.6663062   0.11706023 0.0065089647 0.0032308945 0.0029405758    1.0097318    1.0172157   0.30255835        0.075    1.5971271          0.1 0.0067235189    14.873164    2.6848044    33.436121 0.0044802439  -0.11059471 -0.0031407306     0.195318  -0.22713686  0.042737694 
  347000    4.9975437    1.2825124    3.7150313  -0.17620439   0.85502056   0.99771771   0.75432501   -1.2546559            1    1.1668963    1.6886948    1.6836881   0.12830601 -0.0046550223 -0.027043859  0.021999234    1.0230646    1.0326232   0.30574937        0.075      1.59636          0.1 0.0067944304    14.717937    2.6549752    33.436121 -0.005234102   -0.1026753  0.002023964   0.19488287    0.2373516  -0.30545839 
  348000    5.0067159    1.2826914    3.7240245  -0.17790228   0.85513986    1.0069874   0.74798592   -1.2546559            1    1.2050818    1.7122413    1.7148767   0.18812725 0.0052609341  0.047587375 -0.0095372348    1.0624587    1.0695611   0.31028287        0.075    1.5894775          0.1  0.006895175    14.502895    2.6101198    33.436121 0.00071098462  -0.10798509 -0.0019875292   0.18611724  -0.60177713   0.81828074 
  349000    5.0075425    1.2730043    3.7345382  -0.17622706    0.8486817   0.99454965   0.74574803   -1.2546559            1    1.1959074    1.6941492     1.712472   0.18110085 -0.0061345145  0.036325941 -0.00048197148     1.053711    1.0620606     0.313798        0.075    1.5859219          0.1 0.0069732888    14.340436    2.6173297    33.436121 0.0030804151  -0.11490238 0.0016907279   0.19128688  -0.27860067    1.1464863 
  350000    5.0079221    1.2833727    3.7245494  -0.17882803   0.85559411    0.9936992   0.75813969   -1.2546559            1    1.2023789    1.7131653    1.7128573   0.18111399 0.0054538331  0.039290907  0.017476063    1.0578197    1.0686465   0.31971513        0.075     1.581381          0.1 0.0071047806     14.07503    2.6295582    33.436121 0.00099008235  -0.11183671 -0.0051666799    0.1917043  -0.80484436   -0.2425032 
  351000    5.0002665    1.2820916    3.7181749  -0.17740625   0.85474001    1.0001703   0.75211537   -1.2546559            1    1.1367772     1.660383    1.6717649  0.078183628  0.015042613 -0.0025774654 -0.0036322147   0.99336677    1.0021739    0.3256854        0.075     1.573778          0.1 0.0072374534    13.817015    2.6652893    33.436121 -0.0038100701  -0.11123176 0.0045924335   0.19567419  -0.29102096   0.73193956 
  352000    5.0065394    1.2803043    3.7262352  -0.17840253   0.85354846    0.9986236   0.75117447   -1.2546559            1    1.1546648    1.6804591    1.6740202   0.10951495 0.0081618634 -0.048199244 0.0089734866    1.0114337    1.0202697   0.32959726        0.075    1.5740324          0.1 0.0073243835    13.653026    2.6119323    33.436121 0.0016147818  -0.10999719 -0.0045518115   0.18686645   0.42483511   0.18506144 
  353000     4.994191    1.2735591    3.7206318  -0.18191675   0.84905162   0.99849265   0.74359607   -1.2546559            1    1.1803865    1.6878056    1.6981532    0.1552008 -0.0062267451 -0.047748631 0.0050431622    1.0386005    1.0460091   0.33370095        0.075    1.5657728          0.1 0.0074155768    13.485128    2.5939874    33.436121 -0.0013323251   -0.1014208 -0.0041447409   0.18799059   0.84665786  -0.43865848 
  354000    5.0017133    1.2814579    3.7202554  -0.18035133   0.85431753    0.9948928    0.7551196   -1.2546559            1      1.15854    1.6846894     1.672178   0.11875271 -0.0015735713  0.013131073  0.018106368    1.0145568     1.024647   0.34091823        0.075    1.5605038          0.1 0.0075759607    13.199646    2.6401142    33.436121 0.00017097846  -0.11745358 -0.00052942165   0.19140868  -0.21732089  -0.32767728 
  355000    5.0163251    1.2857056    3.7306195  -0.18050917    0.8571494     1.004034   0.75349838   -1.2546559            1    1.1803371    1.6924868    1.6895398   0.15898461 -0.0052015354  0.030269705 -0.0010862138    1.0366629    1.0452138   0.34749638        0.075    1.5554895          0.1 0.0077221418    12.949775     2.675144    33.436121 0.0054973939  -0.10718707  0.010032141   0.20356689  -0.59274761  -0.20270592 
  356000     5.000962    1.2829217    3.7180403  -0.18126277   0.85529342   0.99805876   0.75454976   -1.2546559            1    1.1976571    1.7111051    1.6966032   0.18526289 0.0075825518  0.032773531 -0.033412638    1.0537825     1.063338   0.35109222        0.075    1.5447195          0.1 0.0078020493    12.817145    2.6481967    33.436121 0.0023420245  -0.11239206 0.0029844977   0.17714598  0.051610901   0.84433754 
  357000    5.0096873    1.2810314    3.7286559     -0.18032   0.85403321   0.99805973   0.75239937   -1.2546559            1     1.164961    1.6886378    1.6802917   0.12595355 -0.0032973426  0.011037071  -0.00657913    1.0214964    1.0306418   0.35602952        0.075     1.539038          0.1 0.0079117671    12.639401    2.6126052    33.436121 -0.00078802739  -0.10560404 0.0033873604   0.18698111   -0.2424429  -0.48245745 
  358000    5.0078813    1.2825612    3.7253201  -0.17809958   0.85505309    1.0022447    0.7511853   -1.2546559            1    1.1770347    1.6882885    1.6986705   0.14414524 0.0082168299 0.0040346728  -0.02122612    1.0338016    1.0421523   0.36111729        0.075    1.5299012          0.1 0.0080248287    12.461325    2.6213382    33.436121 0.0024759454  -0.11045021 -0.0019513209   0.18764399  -0.37097135 -0.032281656 
  359000    5.0110496    1.2900694    3.7209802  -0.18155457   0.86005862    1.0069181   0.75642541   -1.2546559            1    1.2034245    1.7165089    1.7062135   0.18755124 -0.0017127186 -0.0031132655 0.0043372374    1.0591923    1.0679132   0.36901631        0.075    1.5196267          0.1 0.0082003624    12.194583    2.6584375    33.436121 -0.0024369806  -0.11362346 -0.004177064   0.20158368  -0.27851041 -0.012279688 
  360000    5.0128181    1.2807985    3.7320197  -0.18173519   0.85387792    1.0034265   0.74834657   -1.2546559            1    1.1342488    1.6503058    1.6612249  0.091215607 0.0061707574 -0.0099727132   0.01942548   0.99155697   0.99920731   0.37632772        0.075    1.5118915          0.1 0.0083628381    11.957663    2.6761488    33.436121 -0.0040556446  -0.10411599 -0.0054554982   0.20184351   0.51561505  0.014322352 
  361000    4.9971227    1.2842612    3.7128615  -0.18251986   0.85618642    1.0005282   0.75433014   -1.2546559            1    1.1946962    1.7155212    1.7078057   0.16076172  0.003706856   0.01014883 0.00033731221    1.0508635    1.0600448   0.37816367        0.075    1.5053697          0.1 0.0084036371     11.89961    2.6085964    33.436121 -0.0023009396  -0.11247623 0.0065734041   0.21031157   0.82410875  -0.65684072 
  362000    5.0042918    1.2789154    3.7253763  -0.18038812   0.85262253    1.0007254   0.74811152   -1.2546559            1    1.1802229    1.6957839    1.6912215   0.15366335 0.0031304561  0.030889688  0.023642854     1.037576     1.045545    0.3853032        0.075    1.4987927          0.1 0.0085622934    11.679114    2.6358853    33.436121 -0.0023095534  -0.11115063 -0.0062065793   0.19396237  -0.40314152   0.12424897 
  363000    5.0041834    1.2782785     3.725905  -0.18408759    0.8521979    0.9898883   0.75503608   -1.2546559            1    1.1971708    1.7024484    1.7089295    0.1801345  0.011330705  0.028953068 -0.017255479    1.0532035    1.0639513   0.39096523        0.075    1.4887675          0.1 0.0086881163    11.509975    2.6531487    33.436121 -0.0026307619  -0.11211651 -0.0025542008   0.18812361  -0.17862939   0.76900627 
  364000    4.9938129    1.2793912    3.7144217  -0.18539433   0.85293974    1.0015954   0.74803861   -1.2546559            1    1.1716488    1.6825295    1.6940263   0.13839063 -0.00038464523 -0.016631362 -0.024762535    1.0290157    1.0368538   0.39657356        0.075    1.4722458          0.1 0.0088127457    11.347201    2.6547937    33.436121 0.00079099298  -0.11134267 -0.0062538836   0.19574694   0.33046885  -0.11225265 
  365000    5.0015827    1.2817268    3.7198559  -0.18006523   0.85449681    1.0011582   0.75100331   -1.2546559            1    1.1649772    1.6822575    1.6919841   0.12069007 -0.0071196493 -0.032471411 0.0095800437    1.0217788     1.030241   0.40169112        0.075    1.4611595          0.1 0.0089264693    11.202638    2.5902579    33.436121 -0.0011808739  -0.10128843 0.0039231336   0.21495917 -0.015663656  -0.16201375 
  366000    4.9989528    1.2839967    3.7149561   -0.1854756    0.8560101    1.0065206    0.7497999   -1.2546559            1    1.1728306    1.6849784     1.694723   0.13879055  0.017616834 -0.040277387 0.0050555115    1.0298617    1.0373728   0.40650605        0.075    1.4549117          0.1 0.0090334678    11.069946    2.5935284    33.436121 -0.0020251278  -0.11059936 0.0016334584   0.19328137   0.82922166  -0.96984512 
  367000    4.9937304    1.2828931    3.7108373   -0.1867728   0.85527437    1.0016605   0.75197514   -1.2546559            1     1.186854    1.7004567    1.7031311   0.15697415 0.0029204944 -0.013141683 0.0071101433    1.0434703    1.0520502   0.41751827        0.075    1.4482409          0.1 0.0092781838    10.777971     2.639177    33.436121 0.00029312801  -0.11129747  0.001008437   0.20103081   0.41616757   0.20371379 
  368000    4.9957379    1.2815466    3.7141913  -0.18743515   0.85437666   0.99405392   0.75581255   -1.2546559            1    1.1563728    1.6797617    1.6742142   0.11514235  0.012522565  0.050809299 0.0026544072    1.0122574    1.0225927   0.41956755        0.075    1.4367926          0.1 0.0093237233    10.725329    2.6090694    33.436121 -0.00010531807  -0.11056504 -0.0017311265   0.20679885  -0.43440652   0.17445262 
  369000    4.9869429    1.2793348    3.7076081  -0.18528136   0.85290215    1.0025692   0.74728714   -1.2546559            1     1.214824    1.7223771    1.7252912    0.1968038 -0.021810752 0.0094780373 -0.0081541539    1.0723343     1.079898   0.42734154        0.075    1.4240374          0.1 0.0094964787    10.530219    2.6481044    33.436121 0.0036026295  -0.11465054   0.00174862   0.19075243  0.020541001  -0.33433681 
  370000    4.9896017    1.2806728     3.708929  -0.18786171   0.85379411    1.0048896   0.74717095   -1.2546559            1    1.2142877    1.7174903    1.7278112   0.19756154 -0.011887818   0.03439699  0.014792906      1.07182    1.0790493   0.43331061        0.075    1.4166245          0.1 0.0096291247     10.38516    2.6650647    33.436121 -0.00097241685  -0.10733892 -0.00029278897   0.19400379  -0.10388069   0.77385512 
  371000    4.9994952    1.2822842     3.717211  -0.18931417    0.8548684     1.001226    0.7515893   -1.2546559            1    1.1817933    1.6939487      1.69931   0.15212115 -0.0016673367  0.059496584  -0.02964499    1.0384832     1.047048   0.43938112        0.075    1.4059099          0.1  0.009764025    10.241678    2.6148653    33.436121 0.00019454245  -0.11379396  0.002863915   0.19448979  -0.09970054   0.16190732 
  372000    4.9960048    1.2771211    3.7188837  -0.18753536   0.85142629   0.99709263   0.74863498   -1.2546559            1    1.2178445    1.7305191    1.7137964   0.20921791 0.0086679251 0.0083792906  0.021862649    1.0750977    1.0836554   0.44551502        0.075    1.3923916          0.1 0.0099003337     10.10067    2.6287767    33.436121 -0.00058518501  -0.10273637 -0.0018216574   0.19154643   0.39651615   0.91694509 
  373000    4.9846654    1.2790471    3.7056183  -0.18729104    0.8527103    1.0032031   0.74651247   -1.2546559            1    1.1785163     1.693624    1.7045977   0.13732714 -0.00064722659 0.0012229932 0.0016640936    1.0361742    1.0435049   0.45333092        0.075    1.3880156          0.1   0.01007402    9.9265235    2.6275032    33.436121 -0.0013114715  -0.10339735 0.0011215726   0.19037267   0.89186027   0.26615844 
  374000    4.9963621    1.2852086    3.7111535  -0.19167832   0.85681802    1.0062063    0.7513999   -1.2546559            1    1.2071023    1.7142158    1.7186725   0.18841863  0.010102313  -0.03383926  0.020951051    1.0638283    1.0716867    0.4614306        0.075    1.3773185          0.1  0.010254013    9.7522792    2.6359686    33.436121 0.0018837253  -0.12195751 -0.0056103189   0.19069906   -0.2672578   -1.0791215 
  375000    4.9849884    1.2758489    3.7091395  -0.18977111   0.85057819     1.000153   0.74502823   -1.2546559            1    1.2202626    1.7295985    1.7266248   0.20456452 -0.0082017718 -0.090719643 -0.004335593    1.0782036    1.0856617   0.46441784        0.075    1.3674248          0.1  0.010320396    9.6895502    2.6189073    33.436121 -0.003037979  -0.11311044 0.0057391116   0.19602179    0.1658148   0.87117639 
  376000    4.9826749    1.2747156    3.7079593  -0.18920382   0.84982263   0.99455002     0.747694   -1.2546559            1    1.1626379    1.6900808    1.6817804   0.11605264 0.0040399092 -0.051753897 -0.0086259802    1.0200706    1.0287911   0.47542328        0.075    1.3606848          0.1  0.010564962    9.4652496    2.6528526    33.436121 -0.00038010097  -0.11579647 -0.0059361157    0.1916118  -0.28129085  -0.53379684 
  377000    4.9956307    1.2875092    3.7081215  -0.19213849    0.8583518    1.0125515   0.74953781   -1.2546559            1    1.2252066    1.7358068    1.7262587   0.21355442 0.0023794307 -0.0058658216  0.013115371    1.0822877    1.0889371   0.48014565        0.075    1.3554794          0.1  0.010669903     9.372156     2.623068    33.436121 -8.9751293e-05  -0.11760182 0.0019432347   0.18739587   0.78445877  -0.24743159 
  378000    4.9833231    1.2847478    3.6985753  -0.19262055   0.85651085    1.0087738   0.74906376   -1.2546559            1    1.1895097    1.7109642    1.7073548   0.15020999 -0.0053096937  0.027745278 -0.0053863465    1.0466811    1.0537486   0.49162491        0.075    1.3446938          0.1  0.010924998    9.1533197    2.6716665    33.436121 0.0030201906  -0.11296523 0.0006109646   0.20151326   0.63391203  -0.32656012 
  379000    4.9884198    1.2779538     3.710466  -0.19401689   0.85198143   0.99774608   0.74912075   -1.2546559            1    1.1684124    1.6926205    1.6883108   0.12430595 -0.00079344522 -0.026385397 -0.010495491     1.025573    1.0341354   0.49576819        0.075    1.3362315          0.1  0.011017071    9.0768228    2.6338732    33.436121 0.0029599565  -0.12114634 0.0009587935   0.19429375   0.39329661  -0.40479648 
  380000    4.9811619    1.2802489    3.7009129  -0.19184715   0.85351156   0.99864424   0.75109696   -1.2546559            1    1.2079306    1.7283049    1.7184539   0.17703309 0.0098402731 0.0017395837 -0.0079213906    1.0647144    1.0735328   0.50167493        0.075    1.3268375          0.1  0.011148332     8.969952    2.6530109    33.436121 0.0011666514  -0.11411257 0.0019643817     0.196516  -0.22151261   0.77911083 
  381000    4.9848954    1.2837305    3.7011649  -0.19449697   0.85583266    1.0083985   0.74817173   -1.2546559            1    1.2325966    1.7399942    1.7440119   0.21378366 0.0022335577  0.014892257 0.0051504415    1.0899381     1.096886   0.51435227        0.075    1.3199653          0.1  0.011430051    8.7488677    2.6459746    33.436121 -0.0048707789  -0.12009433 0.0051549762   0.18743005  -0.58755915    1.5379581 
  382000    4.9836094     1.278568    3.7050414  -0.19359196   0.85239094   0.99975685    0.7484001   -1.2546559            1    1.2265689     1.729799    1.7326609   0.21724689  0.017861336 0.0005570398 0.0028006953    1.0838669    1.0920214    0.5218362        0.075    1.3108072          0.1   0.01159636    8.6233956    2.6537103    33.436121 -0.0052124009  -0.11520157 0.0047875976   0.19553598 -0.084173146 -0.099981963 
  383000    4.9703339    1.2731157    3.6972182   -0.1957564     0.848756   0.99651944   0.74448449   -1.2546559            1    1.2110957    1.7164071     1.732347   0.18453285 -0.0047884063 0.0049792039 -0.0094126463    1.0691403    1.0769838   0.52715194        0.075    1.3017032          0.1  0.011714488    8.5364383    2.6501909    33.436121 -0.0025549805  -0.11360205 -0.00020935242   0.18672299   0.82500269   0.46200002 
  384000    4.9786779    1.2747985    3.7038794  -0.19331166   0.84987787   0.99667937   0.74628534   -1.2546559            1    1.1922887    1.7011856    1.7162205   0.15945985 0.0034329426 0.0064095145 -0.0096830599    1.0499899    1.0581552   0.52830018        0.075    1.2986226          0.1  0.011740004    8.5178847    2.5968437    33.436121 0.0034419544  -0.12039637 -0.00051052154   0.19297685    0.6862646   0.22659506 
  385000    4.9888324    1.2822486    3.7065838  -0.19220847   0.85484468   0.99538861   0.75566889   -1.2546559            1    1.2123684    1.7228344    1.7256629   0.18860791 -0.0083731007 -0.0030304007 0.0032951492    1.0682804    1.0784087   0.53673348        0.075    1.2915854          0.1  0.011927411    8.3840493    2.6324306    33.436121 0.0015200469  -0.11843338 0.0014290313   0.19334977   0.33039298   -1.1532562 
  386000    4.9773698    1.2785704    3.6987994  -0.19664308   0.85239251   0.99582685   0.75117658   -1.2546559            1    1.2281358    1.7330787    1.7391199   0.21220871 -0.0062249621 0.0098243579 -0.0098429434    1.0849044    1.0941171   0.54774969        0.075    1.2861231          0.1  0.012172215    8.2154314    2.6253128    33.436121 -0.0011048091  -0.12165786 3.7602604e-05    0.1935176    -0.559703   0.24351253 
  387000    4.9822448    1.2770246    3.7052202  -0.19525008   0.85136194    1.0047643   0.74311054   -1.2546559            1    1.2004736    1.7084557    1.7134708   0.17949431 0.00071255067 -0.016740558 0.00017089316    1.0587802    1.0652521    0.5568673        0.075    1.2826405          0.1  0.012374829    8.0809198    2.6449894    33.436121  -0.00224182  -0.12217126 0.0021961886    0.1977829  -0.83467013   0.36095921 
  388000    4.9866249    1.2874803    3.6991446  -0.19534907   0.85833253    1.0062054   0.75398403   -1.2546559            1    1.2133728    1.7254751    1.7239608   0.19068248 -0.00030434361 -0.0042738308 -0.00084045428     1.069606    1.0779573   0.56691961        0.075    1.2757438          0.1  0.012598214    7.9376334    2.6677614    33.436121 -0.00042979448  -0.12384197 0.0047094652   0.19614161  -0.58790424  -0.13567566 
  389000    4.9782017    1.2781927     3.700009  -0.19892035   0.85214069   0.99532905   0.75109839   -1.2546559            1    1.2316178    1.7440039    1.7384329   0.21241666 -0.007125535 -0.019362761  0.001015178    1.0884013    1.0976661   0.56728026        0.075    1.2704386          0.1  0.012606228     7.932587    2.6382425    33.436121 -0.0074617723  -0.12588504 -0.0040977092    0.1915452   0.14728279  -0.13452626 
  390000    4.9737219     1.277824    3.6958979  -0.19840496   0.85189494    1.0026808   0.74549027   -1.2546559            1    1.2369313    1.7473705    1.7390356   0.22438782 -0.012574821 -0.0030469898 -0.0061139902    1.0947841    1.1019902    0.5806211        0.075    1.2657851          0.1  0.012902691    7.7503212    2.6371051    33.436121 -0.00074587056    -0.121505 0.0028515783   0.20297922   0.37809229   0.80005608 
  391000    4.9782624    1.2825342    3.6957282  -0.19718857   0.85503508    1.0021143   0.75124663   -1.2546559            1    1.2302035    1.7413049    1.7409059   0.20839963 -0.013910899 -0.0033671435 0.0050260682    1.0869587    1.0953386    0.5882219        0.075    1.2584526          0.1  0.013071598    7.6501742    2.5808654    33.436121 -0.0022045248  -0.12899008 -0.00059169338   0.19539978 -0.0081271849  -0.44609479 
  392000    4.9871304    1.2875964    3.6995341  -0.19744378    0.8584099    1.0045467   0.75528668   -1.2546559            1     1.219007    1.7377485    1.7276041   0.19166842 0.0019069382 -0.038661782 -8.5866079e-05    1.0749919    1.0838148   0.60349172        0.075    1.2556238          0.1  0.013410927    7.4566061    2.6821988    33.436121 -0.0025953542  -0.13320114 -0.0041893466   0.19852222   0.78817231   0.94119006 
  393000    4.9841247     1.285913    3.6982118  -0.20345029   0.85728762    1.0004307   0.75627739   -1.2546559            1    1.2725313     1.770287    1.7689901   0.27831674 0.0038422771  0.004909306 0.0033414451    1.1283273     1.137893   0.59573054        0.075    1.2500307          0.1  0.013238456    7.5537508    2.5994746    33.436121 0.0025920401  -0.14511792 -0.0037778214   0.19982799    0.5672034   0.41213208 
  394000      4.95982    1.2704923    3.6893277   -0.2010217   0.84700706   0.99861101   0.74002485   -1.2546559            1    1.2350408    1.7486298    1.7444357   0.21205688 0.0097899072 -0.029025718 -0.0062327837    1.0939357    1.1006474    0.6138515        0.075    1.2434525          0.1  0.013641144    7.3307632    2.6315001    33.436121 -0.0019201336  -0.14217705 0.0063302715   0.19913183   0.27517292  -0.83996638 
  395000     4.980581    1.2872928    3.6932882  -0.20408246   0.85820755    1.0082947   0.75229618   -1.2546559            1    1.2442883      1.74651    1.7568244   0.22953048 0.0028859851 -0.0081218513  0.011720475    1.1008434    1.1085917   0.62220367        0.075    1.2387588          0.1  0.013826748    7.2323585    2.6259149    33.436121 0.0018857667   -0.1422945 -0.0013352903   0.19514633   0.16919951   0.43951063 
  396000    4.9608149    1.2792331    3.6815818  -0.20840045   0.85283429   0.99982485   0.74910839   -1.2546559            1     1.210661    1.7225332    1.7288407   0.18060922 -0.0051643675 0.0076371496 -0.00050083752     1.067824    1.0761043   0.63691491        0.075    1.2318039          0.1  0.014153665     7.065308    2.6872727    33.436121 0.00048385773  -0.14793422 6.999334e-05   0.19583311   0.28474825    1.0867789 
  397000     4.966134    1.2762112    3.6899228  -0.20503505   0.85081972   0.99496556   0.74910157   -1.2546559            1    1.2421108    1.7548476     1.740936   0.23054876 -0.0022126368  0.032291412 -0.0079136468     1.099275     1.108208   0.63628423        0.075    1.2275405          0.1   0.01413965     7.072311     2.598475    33.436121 0.00061021388  -0.14805098 0.0039689434    0.1796208   -0.1829109   0.44772724 
  398000    4.9675192    1.2877271     3.679792  -0.21083289    0.8584971    1.0083877   0.75272448   -1.2546559            1    1.2702842    1.7734535    1.7637789   0.27362017 0.0068916832 -0.019006603  0.017300896    1.1267576     1.134575    0.6479077        0.075    1.2285273          0.1  0.014397949    6.9454337    2.6361547    33.436121 -0.0024077795  -0.14996671 0.0020680589   0.19079898   0.22685969   0.19415774 
  399000    4.9595338      1.27803    3.6815038  -0.20714248   0.85203226   0.99828798   0.74882498   -1.2546559            1    1.2756122    1.7738322    1.7819478   0.27105655 -0.021399767  0.011197848 -0.018004712    1.1328292    1.1412623   0.65879706        0.075    1.2235174          0.1  0.014639935    6.8306316     2.669531    33.436121 -0.00083237912  -0.15288418 -0.0014962954   0.18780916 -0.070553322  -0.41398731 
  400000    4.9469705    1.2711455     3.675825  -0.20733283   0.84744253   0.99219842   0.74529373   -1.2546559            1    1.2498241    1.7579355    1.7593608   0.23217599 -0.0016778395  0.016660285  0.012505233    1.1077144    1.1162937   0.65685194        0.075    1.2280401          0.1   0.01459671    6.8508589    2.5706499    33.436121  0.003578244  -0.15760421 -0.0010860299   0.19698644  -0.31051922   0.25069648 
  401000    4.9520699    1.2808455    3.6712244  -0.20906788    0.8539093   0.99508671   0.75428637   -1.2546559            1    1.3209877    1.8078521    1.8158839   0.33922712 0.0062271278 -0.019785189  0.018961727    1.1771633    1.1870686   0.66568288        0.075    1.2253057          0.1  0.014792953    6.7599755     2.596126    33.436121 -0.003974518  -0.15318227 -0.001161156   0.20016231 0.0083289065      1.01714 
  402000    4.9527974    1.2780397    3.6747577  -0.21509593   0.85203869   0.99693809   0.74978872   -1.2546559            1    1.2659893     1.769412    1.7663172   0.26223864 -0.0011219864 -0.043307274 -0.0017825512    1.1230225    1.1318211   0.67265778        0.075    1.2257199          0.1  0.014947951    6.6898802     2.613974    33.436121 0.00090458199  -0.15866684  0.001511566   0.20436735   0.72187747   0.85793172 
  403000    4.9466448    1.2734567    3.6731881  -0.21029464    0.8489833   0.99996632   0.74243939   -1.2546559            1    1.2340677    1.7455866     1.755453    0.2011635 0.0041557759 -0.026734654 0.0096007788    1.0925022    1.0994919   0.67747815        0.075    1.2201925          0.1   0.01505507    6.6422806    2.6042783    33.436121  0.001530785  -0.16124679 -0.0014619538   0.18437161   0.71474965   -0.2692557 
  404000    4.9576706    1.2887646     3.668906  -0.21598045   0.85918873    1.0105705   0.75236361   -1.2546559            1    1.3092042     1.807459    1.8050797   0.31507384  -0.01022746  0.020190035 -0.0033509207    1.1657464    1.1732013   0.68554775        0.075    1.2183905          0.1  0.015234394    6.5640942    2.6205702    33.436121 0.0043098908  -0.16720521 -0.0016874081   0.18641763   0.45469341   0.75544521 
  405000    4.9525163    1.2794078    3.6731085  -0.21494873   0.85295081   0.99629581   0.75179797   -1.2546559            1    1.2732045    1.7721121    1.7815254   0.26597593 0.0084797694 0.0067801052 -0.008399246    1.1298546    1.1391227   0.68885823        0.075    1.2163809          0.1  0.015307961    6.5325488    2.6486838    33.436121 0.0018530339  -0.16121364 0.0036334733    0.1980399    1.0135956    1.7314132 
  406000    4.9444217    1.2824033    3.6620184  -0.22039003   0.85494781    1.0042555   0.74958651   -1.2546559            1    1.2947385    1.7888796    1.7956964   0.29963959 -0.0094415342  0.022885363  0.017598435    1.1518103    1.1595855   0.70782429        0.075    1.2202698          0.1  0.015729429      6.35751    2.7095874    33.436121 0.0015726611  -0.17846724 -0.0040410387   0.19494721  -0.44510797   0.41879276 
  407000    4.9375132    1.2782501    3.6592631  -0.21912972   0.85217896   0.99992305    0.7479212   -1.2546559            1    1.2999929     1.803985    1.7929807   0.30301301 -0.011859698 -0.028751431 -0.011213862    1.1573822    1.1654229   0.69870781        0.075    1.2242224          0.1   0.01552684    6.4404604     2.609889    33.436121 -3.5461468e-05  -0.16212834 -4.9920552e-06   0.18130108 -0.059752342   0.12280602 
  408000    4.9441212    1.2808693    3.6632519  -0.22130902   0.85392515     1.004114   0.74794186   -1.2546559            1    1.2626488      1.76984    1.7673254   0.25078096 -0.0050670402 -0.035878091 -0.0058808692    1.1200342    1.1275148   0.69684327        0.075    1.2184455          0.1  0.015485406    6.4576931    2.5753397    33.436121 -0.0053208361  -0.16481012 0.0022799543   0.19548865   0.50285244   0.80236948 
  409000    4.9338285    1.2820079    3.6518206  -0.22103425   0.85468424     1.000528    0.7517678   -1.2546559            1    1.2703857    1.7778933    1.7697047    0.2635592   0.01665717 -0.00070620879 -1.4340275e-05    1.1270416    1.1357344   0.70407223        0.075    1.2196278          0.1   0.01564605    6.3913897    2.5806002    33.436121 0.00045344145  -0.18780798 -0.00080642371   0.20152934   0.41730166    1.2850705 
  410000    4.9480092    1.2819458    3.6660634  -0.22213128   0.85464283   0.99837396    0.7532175   -1.2546559            1    1.3058457    1.8029085     1.798893   0.31573557 0.00013319817 0.0051213338 -0.020287854    1.1622251    1.1714842   0.71084486        0.075    1.2220859          0.1  0.015796552    6.3304953    2.6372589    33.436121 0.00043159458  -0.17444508 0.00031160528   0.19423428 -0.062311287   0.65698278 
  411000    4.9452616     1.277603    3.6676586  -0.22222592   0.85174755   0.99559614   0.75023923   -1.2546559            1    1.2862809    1.7823629    1.7875522   0.28892767  0.005435824  0.028822565 -0.0017619783    1.1432282    1.1522933   0.71827177        0.075     1.224213          0.1  0.015961595    6.2650381    2.6294905    33.436121 0.0047425353  -0.18353056  0.003265245   0.20408414   0.33121982  -0.11285472 
  412000    4.9436658    1.2832737     3.660392  -0.22208729    0.8555281    1.0022971   0.75195866   -1.2546559            1    1.2658518    1.7687049    1.7729854   0.25586504 0.0060311976  0.015755154 0.0089850939    1.1224712    1.1309623   0.72530045        0.075    1.2205848          0.1  0.016117788    6.2043254    2.6837979    33.436121 -0.0034698118  -0.17818107 -0.0021960765   0.18284751   0.32369609    1.3508032 
  413000    4.9430189    1.2838517    3.6591672  -0.22155798   0.85591345    1.0056504   0.75024916   -1.2546559            1    1.3045732     1.795314    1.8118207   0.30658507 -0.0057984645  0.034413817 -0.018003623    1.1615187    1.1692325   0.71878894        0.075    1.2252783          0.1  0.015973087    6.2605304    2.6081876    33.436121  0.002371066  -0.17088858 0.0039533124   0.18962839   -1.1798966    1.1013226 
  414000    4.9403276    1.2804811    3.6598465  -0.22151483   0.85366633    1.0027961   0.74843056   -1.2546559            1    1.3336288    1.8194996    1.8281219   0.35326481 -0.0048744155  0.036134671 -0.0026579204    1.1909209    1.1986721   0.71429893        0.075    1.2233598          0.1   0.01587331    6.2998835    2.5630946    33.436121 0.0035561855  -0.19498844 0.0030029606   0.19479405  -0.42190973   0.57501205 
  415000    4.9348761    1.2821425    3.6527336  -0.22516395   0.85477393    1.0071657   0.74723586   -1.2546559            1    1.3342112    1.8292396    1.8226339   0.35075993  0.006499295  0.034508937 -0.033385031    1.1917311    1.1986665   0.72053895        0.075    1.2279097          0.1  0.016011977    6.2453251     2.572268    33.436121 0.0040285727  -0.18136381 -0.0028481485   0.19463284  0.048826497   0.81496314 
  416000    4.9356131    1.2771451     3.658468  -0.22726381   0.85144231   0.99929155   0.74711031   -1.2546559            1    1.2985302    1.7936926    1.8025058   0.29939205  0.014197786  0.010080328 -0.0035526056    1.1560741    1.1640452      0.73536        0.075    1.2258543          0.1  0.016341333    6.1194517    2.7013855    33.436121 -0.0028762091   -0.1807136 -0.0026703155   0.18712092   0.23626695   0.19912729 
  417000    4.9273594     1.279051    3.6483084  -0.22821866   0.85271295    1.0008363   0.74818752   -1.2546559            1    1.2925039     1.797026    1.7925568   0.28792895 0.0015966742 -0.0049015462 -0.0015174231    1.1498425    1.1578111   0.73914276        0.075    1.2268249          0.1  0.016425395    6.0881338    2.6569088    33.436121 -0.0019204968  -0.18733932 0.0039767898   0.19084833  0.075580084   0.95827254 
  418000    4.9300011    1.2810545    3.6489466  -0.22818551   0.85404859    1.0036415   0.74848597   -1.2546559            1    1.3477857    1.8363554    1.8369313   0.37007043 -0.0059902792  0.035653798  0.022219252    1.2050673    1.2127153    0.7331513        0.075     1.224931          0.1  0.016292251    6.1378872    2.6310446    33.436121 -0.0018285351    -0.183964 -0.0018548379   0.19616544   0.12981018    2.0213892 
  419000    4.9277172     1.277223    3.6504942  -0.22797272   0.85149424   0.99663264   0.74907556   -1.2546559            1    1.3062672    1.8148257    1.7971052   0.30687056  0.012122075 0.0084269187 0.0059186397    1.1634364      1.17214   0.74032846        0.075    1.2234798          0.1  0.016451744    6.0783831     2.636509    33.436121 0.0037127674  -0.18983415 0.0047923706    0.2015203   0.44620927    1.7501885 
  420000    4.9399523    1.2882962    3.6516561  -0.22577975   0.85887649    1.0033043   0.75695954   -1.2546559            1    1.3039628    1.8060652    1.8050585   0.30076475 -0.0051163191  0.020194368 -0.0053132955    1.1596287    1.1689378   0.74247886        0.075    1.2244096          0.1   0.01649953    6.0607786    2.6362956    33.436121 0.0032770272   -0.1938602 -0.0019190642   0.19694209   0.15413181  -0.13287174 
  421000    4.9246375    1.2797077    3.6449298  -0.22497634    0.8531507    1.0003002   0.74931261   -1.2546559            1    1.3395223      1.83528    1.8252422    0.3580448 0.00052390099  0.037222147  0.013730081    1.1966463    1.2049016   0.74248164        0.075      1.22335          0.1  0.016499592    6.0607559    2.6369394    33.436121 -0.0020594108  -0.17502459 0.0037200415   0.19597009  -0.14554965   0.26784141 
  422000    4.9288627     1.279942    3.6489207  -0.23209289   0.85330695   0.99716844   0.75178957   -1.2546559            1    1.3108483    1.8119455    1.7983428   0.32225655 0.0023195362  0.056925509 -0.013072758       1.1675     1.176649   0.74257576        0.075     1.223436          0.1  0.016501684    6.0599877    2.6262823    33.436121 -0.00039426925  -0.19469932 0.00021226813    0.2028578  -0.83455403   0.28796152 
  423000    4.9154468    1.2744262    3.6410206  -0.23247941   0.84962969     1.004727   0.74018188   -1.2546559            1    1.3462289    1.8279914    1.8411847   0.36951056 -0.0091937824  0.025851491 -0.012011659    1.2050939    1.2110124   0.75064702        0.075    1.2230301          0.1  0.016681045    5.9948283    2.6515768    33.436121 -0.0051814089  -0.19990022 -1.5416385e-05   0.18776053  -0.10943227    0.7941624 
  424000     4.923936    1.2822968    3.6416392  -0.23144384    0.8548768    1.0033229   0.75012362   -1.2546559            1    1.2956513     1.804581    1.7951202   0.28725261 0.0039333509 -0.040709778  0.013581347    1.1526206    1.1606238   0.73300585        0.075    1.2232632          0.1  0.016289019    6.1391051     2.593037    33.436121 0.0044535047  -0.19098822 0.0013432828   0.19740715 -0.049451894    1.2736279 
  425000    4.9283803    1.2753413     3.653039  -0.23076966   0.85023976   0.99656176   0.74698565   -1.2546559            1    1.3041707    1.8034036    1.8014319   0.30767659  0.010997924 -0.013404573 0.0062661653    1.1617384    1.1700531   0.74257605        0.075    1.2243601          0.1   0.01650169    6.0599853    2.6019955    33.436121 2.3488692e-05  -0.17142237 -0.0024991751   0.19639317 -0.037804457    1.1356847 
  426000    4.9186956    1.2771298    3.6415658  -0.22714187   0.85143209   0.99115697    0.7528343   -1.2546559            1    1.3370623    1.8256284    1.8407076   0.34485094 0.0059856418 -0.023109793 0.0052547702    1.1935148    1.2036721   0.74346704        0.075     1.227018          0.1   0.01652149    6.0527229    2.6234887    33.436121 -0.0019264696  -0.20154028 -0.00081413045   0.18558245  -0.15296552   0.88257789 
  427000    4.9172762    1.2768837    3.6403925  -0.23140383   0.85126801    1.0032679   0.74400642   -1.2546559            1    1.3273639    1.8262702    1.8181117    0.3377099 -0.0055480474 -0.0011073877 -0.0029709345    1.1854997    1.1923438   0.74586522        0.075    1.2308095          0.1  0.016574783    6.0332616    2.6414686    33.436121 -0.0027528718  -0.19406008 0.0035096556   0.18610382  -0.13822037     1.310341 
  428000    4.9233354    1.2785763     3.644759  -0.23019871   0.85239647   0.99677283   0.75051567   -1.2546559            1    1.3479544    1.8275444     1.837725   0.37859364 -0.0042780936 -0.017642125 -0.0020818263     1.204849    1.2138083   0.74601998        0.075    1.2302434          0.1  0.016578222    6.0320101    2.6461655    33.436121 0.0040125162   -0.1855245 -0.005424056    0.1870163 0.00060588167   0.88867833 
  429000     4.921878    1.2744334    3.6474447  -0.22848722   0.84963444   0.99373563   0.74794779   -1.2546559            1    1.2880299    1.7930871    1.7981015     0.272901 -0.002399769  0.013743343 0.0041560599    1.1454141    1.1542926   0.74397174        0.075    1.2298469          0.1  0.016532705    6.0486168    2.6398175    33.436121 0.0071314241  -0.18991967 0.00089779635   0.18444871 -0.050505909   0.31288917 
  430000    4.9284787    1.2774347     3.651044  -0.22741797   0.85163539    1.0007607   0.74640271   -1.2546559            1    1.2897105    1.7959882    1.7918802   0.28126318 -0.0019238715  0.023315713  0.011399809    1.1473894    1.1550278   0.74458633        0.075    1.2313482          0.1  0.016546363    6.0436242    2.6471676    33.436121 -0.0031421208   -0.1997775 0.0012428571   0.19723544   0.14802241   0.84441268 
  431000    4.9296151     1.277099     3.652516  -0.22701708   0.85141158   0.99440527   0.75050666   -1.2546559            1    1.3409556    1.8317627      1.83061   0.36049416 0.0074305273 -0.0090903333  0.007801204     1.197852    1.2071283   0.74310262        0.075    1.2362918          0.1  0.016513392    6.0556912    2.6135097    33.436121 0.0075937666  -0.18574161 -0.0021746145   0.18928002  -0.11212852    1.1396835 
  432000    4.9304159    1.2740901    3.6563258  -0.22665282    0.8494056   0.99834286   0.74430561   -1.2546559            1     1.330675    1.8186943    1.8195519   0.35377868 -0.00033563155 -0.0091216562  -0.00284607    1.1887537    1.1963177   0.74733352        0.075    1.2376128          0.1  0.016607411     6.021408    2.6576396    33.436121 0.0039431587  -0.19777548 0.0042100477      0.18967   0.37091903    1.3750736 
  433000    4.9275528    1.2783294    3.6492234  -0.22695135   0.85223186    1.0026636   0.74607713   -1.2546559            1    1.3033825    1.8075873    1.8039938    0.2985665 0.0006623479  0.078347275  0.013279904    1.1611235    1.1684437   0.74720385        0.075    1.2333386          0.1   0.01660453    6.0224529    2.6364443    33.436121 -0.005167505  -0.20079289 -0.0031800259   0.19273445  -0.43460129   0.60868832 
  434000    4.9252663    1.2820822    3.6431841  -0.23138537   0.85473377    1.0069922   0.74728981   -1.2546559            1    1.3634347    1.8491319     1.844411   0.39676111 -0.0043583192 -0.0085523903  0.018125701    1.2209444    1.2279133   0.73752283        0.075    1.2376621          0.1  0.016389396     6.101506    2.6189448    33.436121 -0.00092263872  -0.19068064 0.0011376232   0.19492657 -0.079751949    2.2491923 
  435000    4.9311505    1.2755991    3.6555514  -0.22979046   0.85041161   0.99288843   0.74987146   -1.2546559            1    1.3063493    1.8046969    1.8062153   0.30813571 -0.0053302323 0.0023297536 0.0081001922    1.1633667    1.1727261   0.75134557        0.075    1.2370997          0.1  0.016696568    5.9892547    2.6227356    33.436121 -7.9863218e-05  -0.19454262 0.00026706519   0.19309886 -0.089688913    1.7824569 
  436000    4.9252919    1.2775185    3.6477735  -0.22824177   0.85169122    1.0029098   0.74498115   -1.2546559            1    1.3177625    1.8102355       1.8154   0.32765206 -0.0019265832 -0.0056166208 0.00084869726    1.1757124    1.1827906   0.74546848        0.075    1.2368019          0.1  0.016565966    6.0364725    2.6195764    33.436121 -0.0011359365  -0.21126768 -0.00046274726   0.17980329   0.18744829   0.55654063 
  437000    4.9164306     1.272584    3.6438466  -0.22956323   0.84840154   0.99760672   0.74311242   -1.2546559            1    1.3202747    1.8158751     1.816603     0.328346 -0.010001381 0.0075481644 0.0099975591    1.1785809    1.1860165   0.75797659        0.075    1.2369248          0.1  0.016843924    5.9368588    2.6813824    33.436121 0.0029287787  -0.20296153 0.0058636298   0.19641011   0.17464468   0.78526909 
  438000    4.9242953    1.2818821    3.6424132  -0.23190782   0.85460033    1.0041459   0.74907115   -1.2546559            1    1.3753161    1.8680972    1.8538836   0.40396753 -0.0024423157 -0.028121548 -0.0018712216    1.2324862    1.2401779   0.75375172        0.075    1.2393315          0.1  0.016750038    5.9701356     2.662783    33.436121 0.0013962099  -0.19735853  0.006609981   0.19560937   0.73109343    1.1442202 
  439000    4.9138583    1.2737944    3.6400639  -0.23538929   0.84920845   0.99954217   0.74312282   -1.2546559            1    1.3275921    1.8240302    1.8246352   0.33411098 -0.0067656724 -0.020829672  0.027423426    1.1858964    1.1930734   0.75297463        0.075    1.2374771          0.1   0.01673277     5.976297    2.6491172    33.436121 -0.00013088646  -0.19953179 -0.0021164705   0.19831111  0.083165443   0.52453797 
  440000    4.9165348    1.2822644    3.6342703  -0.23083049   0.85485524   0.99665458   0.75479337   -1.2546559            1    1.3045497    1.8015431    1.8090233   0.30308268 0.0083831059 0.0014260923 -0.0069220608    1.1606287    1.1704196   0.75853063        0.075    1.2370504          0.1  0.016856236    5.9325224    2.6808025    33.436121  0.000564706  -0.19621975 -0.00020847556   0.20973507  -0.39320216    1.3603203 
  441000    4.9146112     1.267744    3.6468672  -0.22928381    0.8451748   0.99169822   0.74177841   -1.2546559            1    1.3141784    1.8236205    1.8106292   0.30828555 -0.0033819236 0.0065600744  0.005436111     1.172739    1.1807154   0.74921662        0.075    1.2411151          0.1  0.016649258    6.0062736    2.6682626    33.436121 -0.001349219   -0.1954524 0.0024133814   0.19200607 0.0031005572    1.3104767 
  442000    4.9185002    1.2776465    3.6408538  -0.22941355   0.85177655   0.99404183   0.75138574   -1.2546559            1    1.3295066    1.8271962    1.8199535    0.3413702 -0.008995369 -0.00041728204 -0.0065858209    1.1862354    1.1957282   0.75152708        0.075    1.2376852          0.1  0.016700602    5.9878082    2.6240239    33.436121 -0.0042155094  -0.18814694 -0.0026920842   0.20048345   0.61768539   0.94122801 
  443000     4.911107    1.2790021    3.6321049  -0.22712997    0.8526803   0.99935572   0.74917682   -1.2546559            1    1.3433106    1.8344766    1.8373243   0.35813082 -0.011151659  0.016451764 -0.0060006257    1.2004605     1.208817   0.75579667        0.075     1.236009          0.1  0.016795482    5.9539823    2.6544476    33.436121 -0.0012224211  -0.19792679 0.0013239983   0.18534669   0.44682717   0.43271641 
  444000    4.9203984     1.281512    3.6388864   -0.2314652   0.85435364    1.0034874   0.74911505   -1.2546559            1    1.2887001    1.7938663    1.7866517   0.28558218 0.0030921471 0.0016252683 -0.010731521    1.1458617    1.1536504   0.74911711        0.075    1.2386122          0.1  0.016647047    6.0070714     2.628417    33.436121 -0.0040862158  -0.18463312 0.00057153611   0.18643287   0.33402037    1.0114606 
  445000    4.9135923    1.2770839    3.6365084  -0.23091471   0.85140151   0.99320986    0.7513332   -1.2546559            1    1.3675202    1.8585133    1.8494171   0.39463018 -0.0031696103 0.0024961191 0.0043836243    1.2242589    1.2338537   0.75370681        0.075    1.2387771          0.1   0.01674904    5.9704914    2.6621476    33.436121 0.0070521475     -0.18304 0.00035437455   0.18859553   0.15986005    1.1607236 
  446000    4.9108634     1.278959    3.6319043  -0.23204479   0.85265159   0.99963371   0.74893164   -1.2546559            1    1.3180836    1.8122885    1.8202965   0.32166568 0.0010385368 0.0035536678  0.029291761    1.1752802    1.1835525   0.75074959        0.075     1.237809          0.1  0.016683324    5.9940092    2.6069022    33.436121 0.00059402793  -0.18711022 0.0034418156   0.18854257  -0.15762822   0.86823559 
  447000    4.9230027    1.2756321    3.6473706  -0.23185344   0.85043364   0.99448578   0.74878162   -1.2546559            1    1.2968942    1.7974332     1.790938   0.30231131 -0.0088624189 -0.033650153 0.0037260092    1.1541194     1.163056   0.75442757        0.075    1.2352852          0.1  0.016765057    5.9647873    2.6339024    33.436121 -0.0037886771  -0.19398411  0.001898455   0.18830257   0.20579891    1.1407325 
  448000    4.9164668    1.2772299    3.6392369  -0.23085883   0.85149883    1.0055668   0.74277763   -1.2546559            1    1.3082569    1.8133308     1.800679   0.31076091 -0.00083196295 -0.058531996  -0.02979577     1.166627    1.1729274    0.7526509        0.075    1.2353571          0.1  0.016725576    5.9788675    2.6645888    33.436121 0.0046856139    -0.194809 0.0055434585    0.2051116   0.26899738   0.90156825 
  449000    4.9217135    1.2782547    3.6434588  -0.23061469   0.85218202   0.99704059   0.74996086   -1.2546559            1    1.3348511    1.8285388    1.8245482   0.35146626 -0.0052150516 0.0072323776  0.017941408    1.1918515     1.200669   0.75025336        0.075    1.2339603          0.1  0.016672297    5.9979738    2.6374525    33.436121 -0.0033037201  -0.19419585 0.0031548909   0.20582921   0.39330044   0.95931943 
  450000    4.9101512    1.2748021    3.6353492  -0.22990202   0.84988026    1.0042256   0.74096324   -1.2546559            1    1.3415154    1.8408388    1.8260105     0.357697  0.014531902  0.027332399 -0.0011237648    1.2002315    1.2063664   0.75556011        0.075    1.2337564          0.1  0.016790225    5.9558465     2.639524    33.436121 -0.004376718   -0.1796716 -0.0009324373   0.19219522   0.17375633   0.93069576 
  451000    4.9167954    1.2734757    3.6433197  -0.23232704   0.84899599   0.99552031   0.74559906   -1.2546559            1    1.3177337    1.8207334    1.8129406    0.3195272 0.0034863188  0.044672402 0.0025941946    1.1755658    1.1837563    0.7527728        0.075    1.2358819          0.1  0.016728284    5.9778993    2.6393949    33.436121 0.0071514718  -0.18899866 0.0061350472   0.19876459   0.43637386   0.29330187 
  452000    4.9320969    1.2837862    3.6483107  -0.22822008   0.85586975    1.0085364   0.74813767   -1.2546559            1    1.3008319    1.8012348     1.805007   0.29625405 -0.0070776404 0.0054991872  0.004249458      1.15818    1.1651028   0.74832357        0.075    1.2374069          0.1  0.016629413    6.0134415    2.6383742    33.436121 0.00035110649  -0.18353937 -0.0018190301   0.17979461   0.98988661    1.7822147 
  453000    4.9203295    1.2794238    3.6409057  -0.22808197   0.85296148   0.99705296   0.75128176   -1.2546559            1    1.3661343    1.8463149    1.8611107    0.3909773 0.0041392578 0.0015244469  0.016589568    1.2228828    1.2319506   0.74072951        0.075    1.2392333          0.1  0.016460656    6.0750921    2.6110864    33.436121 -0.0021583511  -0.19100917 -0.00017252121     0.196044   0.44784564    1.9942871 
  454000    4.9112586    1.2735965    3.6376621  -0.23349913   0.84907652   0.99600219   0.74539632   -1.2546559            1    1.2820724     1.784272    1.7946619   0.26728329 0.0029367939  0.003726905 -0.017260607    1.1399431    1.1480301   0.75263168        0.075    1.2409897          0.1  0.016725149    5.9790202    2.6692179    33.436121 -0.0013097371  -0.19874794   0.00158175   0.20622142  -0.18034408  -0.10314622 
  455000    4.9246249    1.2870988     3.637526  -0.23035579   0.85807821    1.0076605   0.75252315   -1.2546559            1    1.3057577    1.8099284    1.8022819   0.30506272 0.0071282086 -0.026623228 -0.021451935    1.1622695    1.1701464   0.75120074        0.075    1.2372924          0.1   0.01669335    5.9904094    2.6225431    33.436121 -0.0017129222  -0.19182104 0.0011506137   0.19003523  -0.44612404  0.023766691 
  456000    4.9157544    1.2665211    3.6492333  -0.23068636   0.84435953   0.99160975   0.74045014   -1.2546559            1    1.3860108    1.8682801    1.8548726   0.43487968 0.00030984473 -0.031157953 -0.0087130312    1.2448247    1.2525597   0.73872475        0.075    1.2401458          0.1  0.016416106    6.0915788     2.558739    33.436121 0.0012596857  -0.19115114 -0.0068059701   0.19773746  -0.27609028    2.3257799 
  457000    4.9238917    1.2826937     3.641198  -0.22978764    0.8551414    1.0026247   0.75106776   -1.2546559            1    1.2743171    1.7875957    1.7818937   0.25346184   0.01347567 -0.025006523  -0.01098033    1.1311064    1.1393835   0.75316843        0.075    1.2406704          0.1  0.016737076    5.9747592    2.6684244    33.436121 0.0015667497  -0.18908853 0.00075435478   0.20612931   0.37370055   0.61903963 
  458000    4.9262992    1.2832739    3.6430252   -0.2308887   0.85552826    1.0000103   0.75357297   -1.2546559            1     1.310849    1.8054104    1.8176022    0.3095343 0.00072397334 -0.0078316981 0.0044990178    1.1671606    1.1762673   0.74246676        0.075    1.2408827          0.1  0.016499261    6.0608774    2.6003534    33.436121 0.0050801232  -0.18934818 -0.0023308446   0.18309088   0.27885543    1.2480102 
  459000     4.925995    1.2820565    3.6439385  -0.23371265   0.85471663     0.999867   0.75228958   -1.2546559            1    1.3520166    1.8397199    1.8305168   0.38581321  0.012057974 -0.007632999 -0.009003139     1.208573    1.2174542   0.74952734        0.075    1.2422893          0.1  0.016656163    6.0037836    2.6363627    33.436121 -0.0061312706  -0.19655534 -0.0020803892   0.19854402   0.24700444    1.3718256 
  460000    4.9187862    1.2764362      3.64235  -0.22881117   0.85096967    1.0005016   0.74545002   -1.2546559            1    1.3315444    1.8233414    1.8286323   0.34265944 -0.012114386  -0.00801481 -0.001290063    1.1894049    1.1968966   0.74684222        0.075    1.2402341          0.1  0.016596494    6.0253691     2.639492    33.436121 0.0040720142  -0.19107925 -5.9224242e-05   0.18730267    0.0226721    0.8212996 
  461000    4.9281608    1.2849081    3.6432527  -0.22891235   0.85661771    1.0036213   0.75288272   -1.2546559            1     1.329179     1.828859    1.8243997   0.33427819   0.01529582  -0.01268119 -0.013805698    1.1856222    1.1941113   0.74391325        0.075    1.2416655          0.1  0.016531406    6.0490924    2.5733291    33.436121 -0.0019718406  -0.17983136 0.0030539982   0.19982806   0.41783239    2.2121846 
  462000    4.9118908    1.2709377    3.6409531  -0.22904418   0.84730394   0.99190747   0.74526268   -1.2546559            1    1.3189838    1.8117532    1.8119918   0.33320634 -0.011932933  0.026448192  0.030335051      1.17688    1.1854926   0.75291871        0.075    1.2424648          0.1  0.016731527    5.9767408    2.6659769    33.436121 0.0043579312   -0.1944215 -0.0017586741   0.19055164  -0.41838924    1.1359079 
  463000    4.9277856    1.2795447    3.6482409  -0.22826536   0.85304205   0.99839352   0.75047303   -1.2546559            1    1.3118504    1.8090996    1.8050959   0.32135551 0.0073136765  0.030335923 0.0025696357    1.1687531    1.1774862   0.74836537        0.075    1.2397278          0.1  0.016630342    6.0131056    2.6075488    33.436121 -0.0013486668  -0.19138539 -0.003087129   0.20124985  -0.30904244   0.52798281 
  464000    4.9188736    1.2793354    3.6395382  -0.22889604   0.85290251    1.0029423   0.74702441   -1.2546559            1    1.3356683    1.8226792    1.8300254   0.35430026  0.011604076 -0.013191205 4.5223412e-05    1.1932286     1.200692   0.74818566        0.075    1.2401938          0.1  0.016626348    6.0145499    2.6351149    33.436121 -0.00070974736   -0.2013955  0.001900941   0.20268361   0.16721084   0.99560273 
  465000    4.9112896    1.2735245     3.637765  -0.23041402   0.84902854    1.0024296     0.740778   -1.2546559            1    1.2925626    1.7986025    1.7852307   0.29385466 0.0072933417 -0.003798984  0.010627642     1.151314    1.1576553   0.75224081        0.075    1.2457052          0.1  0.016716462    5.9821269    2.6611982    33.436121 -0.0039886845  -0.19464059 -0.0052448222   0.19045255 -0.088138156   0.54352976 
  466000    4.9146473    1.2760917    3.6385556  -0.23284659   0.85074005   0.99522719   0.74878101   -1.2546559            1    1.3289998    1.8256373    1.8181351   0.34322701 -0.018329884 0.0029857234  -0.01054869    1.1862252    1.1950618   0.75157906        0.075    1.2423952          0.1  0.016701757     5.987394    2.5955102    33.436121 -0.0012256184  -0.20422136 -0.0032532189   0.19900852   0.11257964    1.2214241 
  467000    4.9089283    1.2743994    3.6345289  -0.23147055   0.84961178    1.0028934    0.7414455   -1.2546559            1     1.333301    1.8230513    1.8248425   0.35200933 -0.0059236989 0.0014673542 0.0014003853    1.1919251    1.1983313    0.7551147        0.075     1.236143          0.1  0.016780327    5.9593595    2.6606067    33.436121 0.00017294678  -0.19629901 -0.0026917284   0.19930511   0.53562204    2.0402898 
  468000    4.9197491    1.2852314    3.6345177  -0.23036653   0.85683323    1.0042913   0.75277743   -1.2546559            1    1.3325837    1.8299158    1.8322493   0.33558595 -9.9897142e-05 -0.030409649 -0.0060207297     1.189047    1.1974258   0.76000929        0.075     1.240641          0.1  0.016889095    5.9209803    2.6550153    33.436121 0.0015603468   -0.1935827 0.0014993997   0.18786023   0.67290269    1.1715298 
  469000    4.9127711    1.2764595    3.6363116  -0.23231406   0.85098525   0.98856545   0.75390117   -1.2546559            1     1.339311    1.8276458    1.8342429   0.35604439 0.0089586589 -0.025962305 -0.015669652    1.1955601    1.2062696   0.75856901        0.075    1.2412103          0.1  0.016857089    5.9322223     2.695426    33.436121 -0.0056802493  -0.19855166 -0.0023381726    0.1996162  -0.28771031   0.56635805 
  470000    4.9182328    1.2770753    3.6411575  -0.23399039   0.85139578   0.99708353   0.74858936   -1.2546559            1    1.3467956    1.8392254    1.8347396   0.36642189 0.0041324048 -0.031360734 -0.0097230795    1.2040575    1.2126078   0.73893821        0.075    1.2403331          0.1  0.016420849     6.089819    2.6124424    33.436121 0.0040086529  -0.18135108 -0.0024993218   0.20444977   0.26064445    1.9347639 
  471000    4.9232743     1.278762    3.6445123  -0.22843129   0.85252022   0.99402839   0.75266381   -1.2546559            1    1.3257282    1.8161024    1.8223557    0.3387265 -0.004952174 -0.027923601 -0.0030849852    1.1822132    1.1919516   0.75160804        0.075    1.2470722          0.1  0.016702401    5.9871632    2.6467638    33.436121 -0.0004181871  -0.20121369 0.0041179568   0.19594891    0.8242086    1.7464525 
  472000    4.9256065    1.2798486    3.6457579   -0.2283957   0.85324466   0.99816542   0.75097964   -1.2546559            1    1.3073038    1.8152777    1.8078738   0.29875987 0.0059906019 -0.026054701 0.0023585124    1.1641099    1.1729704   0.75110039        0.075    1.2445951          0.1   0.01669112    5.9912098    2.6290767    33.436121 0.00019794579  -0.19938049 -0.0010955694   0.19557629   0.53056745   0.76651242 
  473000    4.9181429    1.2735418    3.6446011  -0.23206562   0.84904006   0.99418093   0.74661958   -1.2546559            1    1.3261854     1.825684    1.8143388   0.33853329  0.012614322  0.018543421 -0.013035731    1.1838229    1.1923882   0.74944318        0.075    1.2459722          0.1  0.016654293    6.0044579     2.648198    33.436121 0.0034130307  -0.19515456 0.0019386708   0.19627761  -0.61386559   0.65554143 
  474000    4.9358755    1.2814661    3.6544094  -0.22741242   0.85432299    1.0022996   0.74990117   -1.2546559            1    1.3480121     1.840949    1.8434227   0.35966448 -0.007555435 -0.020212278 -0.018383166    1.2050238    1.2131223    0.7449577        0.075    1.2472564          0.1  0.016554616    6.0406114    2.5983122    33.436121 -0.0030509865  -0.19519631 -0.00030311289    0.1812503  -0.62481616    1.2198338 
  475000    4.9267427    1.2863611    3.6403816  -0.23082652   0.85758637     1.005137    0.7534653   -1.2546559            1    1.3234955    1.8190396    1.8258371   0.32560978 0.0037933661 0.00067609157  0.017776719    1.1798277    1.1882238   0.74651005        0.075    1.2477304          0.1  0.016589112    6.0280501    2.5860878    33.436121 0.0012875069  -0.18703285 3.753655e-05   0.18576985   -1.1448805   0.88964074 
  476000    4.9195421    1.2803241     3.639218  -0.23301118   0.85356167    1.0025082   0.74845526   -1.2546559            1    1.3223005    1.8188376    1.8087584   0.33930557 -0.006925041  0.028667762 -0.015413149     1.179588    1.1873826   0.74912991        0.075    1.2508757          0.1  0.016647331    6.0069688    2.6227536    33.436121 0.0034072505  -0.19194052 0.0011516884   0.20512126  -0.58360982   0.87395696 
  477000    4.9042562    1.2688787    3.6353775  -0.22947555   0.84593131   0.99668199   0.73955132   -1.2546559            1    1.3207292    1.8155242     1.816749   0.32991426 -0.00080712145 -0.012328717 0.0051099843    1.1797144    1.1865954   0.74662905        0.075    1.2536565          0.1  0.016591757    6.0270894    2.6265379    33.436121 -0.0030775897   -0.1966319 0.0023333423    0.1958995   0.19555367   0.65196074 
  478000    4.9101368    1.2790552    3.6310815  -0.23030249   0.85271574    1.0023524   0.74712217   -1.2546559            1    1.2968577    1.8007076    1.7977645   0.29210103 0.0073289204  0.011695051 -0.0083794905    1.1543994    1.1619608   0.74991708        0.075    1.2553522          0.1  0.016664824    6.0006634        2.675    33.436121 0.0028430303  -0.19923345 0.0029636731   0.18149184    0.8555616    1.0261552 
  479000     4.921798    1.2822908    3.6395071  -0.23162598   0.85487284    1.0011122   0.75167722   -1.2546559            1    1.3489236    1.8430326    1.8364596   0.36727844 0.0076433395 -0.0073131261 -0.00061280828    1.2055967    1.2141936    0.7444899        0.075    1.2549407          0.1   0.01654422    6.0444071    2.6222351    33.436121 0.0028732417  -0.20617802 -0.0044693604   0.19590991   0.40934591    1.4776838 
  480000    4.9209472    1.2790169    3.6419303  -0.22846812    0.8526902    1.0000859   0.74867834   -1.2546559            1    1.3273774    1.8268744    1.8214806    0.3337773 0.0076607796 -0.033900563 0.0032197936    1.1846224    1.1927856   0.74569994        0.075    1.2553679          0.1   0.01657111    6.0345988    2.6598442    33.436121 0.0006573079  -0.20555182 0.0021867943   0.19513591   0.30283675   0.07976236 
  481000    4.9198774    1.2735929    3.6462844  -0.22776264   0.84907416   0.99600546   0.74538999   -1.2546559            1    1.3243795     1.814919    1.8226597   0.33555989 0.0064324604 -0.0023425666  0.016860622    1.1822515    1.1903368   0.75441829        0.075    1.2580155          0.1  0.016764851    5.9648607    2.6603006    33.436121 0.0014970219  -0.20271174 0.0043368456   0.19240982   -0.1807686    1.0135822 
  482000    4.9086159    1.2701708    3.6384452  -0.23011961   0.84679268   0.99293969   0.74366201   -1.2546559            1    1.3317233    1.8216492     1.832161   0.34135973 -0.0020993202 -0.014721732  0.011350176    1.1899248    1.1980932    0.7493611        0.075    1.2536673          0.1  0.016652469    6.0051155    2.6206503    33.436121 -0.0063902308  -0.18951863 0.00064283431   0.19824541  -0.04930147    1.2797467 
  483000    4.9153431    1.2778654    3.6374777  -0.22841357   0.85192249   0.99885348   0.74823861   -1.2546559            1    1.3101845    1.8142095    1.8090298   0.30731422 -0.015703781 -0.0041814834  0.010529272    1.1675133    1.1757585   0.74948592        0.075    1.2562463          0.1  0.016655243    6.0041154     2.600251    33.436121 -0.00030482953  -0.19415813 -0.0052312018   0.19104578  -0.38774516   0.30562331 
  484000    4.9266105    1.2810382    3.6455723  -0.22904381   0.85403775   0.99554463   0.75418228   -1.2546559            1    1.3304785    1.8213289    1.8233466   0.34675991   0.01264501 -0.0031444808 -0.0035175627     1.186674    1.1964978   0.76018868        0.075    1.2566429          0.1  0.016893082     5.919583    2.7022157    33.436121 -0.0028989225  -0.18972584 -0.0063831818   0.20154372  -0.34447106    1.3449578 
  485000    4.9178907    1.2769127    3.6409779  -0.23066225   0.85128739    1.0019735   0.74495313   -1.2546559            1    1.3335295    1.8213039    1.8301814   0.34910325 -0.010965804  0.013635115 0.0060209436    1.1914848    1.1986836   0.74472552        0.075    1.2531511          0.1  0.016549456    6.0424947    2.6280636    33.436121 0.0023144955  -0.20867585 -0.00091850478   0.19886492  -0.45592597    1.4342181 
  486000    4.9276417    1.2828636    3.6447781  -0.22953718   0.85525468    1.0013612    0.7521528   -1.2546559            1    1.3328349     1.830109    1.8206584   0.34773739 -0.0072108447 -0.0049498279 -0.002717757    1.1894174    1.1980714   0.74898073        0.075    1.2557862          0.1  0.016644016    6.0081653    2.6390115    33.436121 -0.0010440361   -0.1847842 0.00062239329   0.18599143  0.057685426   0.91836294 
  487000    4.9150833     1.276777    3.6383063  -0.22908661    0.8511969    0.9977135   0.74780548   -1.2546559            1    1.3230679    1.8188644    1.8218872   0.32845208 0.0018352139 -0.021654502  0.009539415    1.1804793    1.1887953   0.74319039        0.075     1.256299          0.1  0.016515342     6.054976    2.6231458    33.436121 0.0024581632  -0.19705148 -0.0030779664   0.20702417 -0.093459414   0.73883671 
  488000    4.9228137    1.2829396    3.6398741  -0.23039359   0.85530538    1.0004518   0.75288116   -1.2546559            1    1.3454482    1.8378549    1.8355995   0.36289025 -0.024336401 0.0068859647   -0.0104258    1.2018918    1.2108071   0.75857822        0.075    1.2530598          0.1  0.016857294    5.9321503     2.697463    33.436121 -0.003175302   -0.1826468 0.0020925971   0.20437003  -0.40495751   0.82251411 
  489000    4.9152248    1.2803134    3.6349113  -0.22838113   0.85355455    1.0005683   0.74981229   -1.2546559            1    1.3310021    1.8359751    1.8208172   0.33621413 -8.6067022e-07 -0.037131869 0.0028131476    1.1880309    1.1963453   0.75209779        0.075    1.2528557          0.1  0.016713284    5.9832645    2.6589503    33.436121 0.00032485133  -0.18810056 0.00064052238   0.20206354   0.88159672    1.0803624 
  490000    4.9290238    1.2761818     3.652842  -0.22553344   0.85080007   0.99107932     0.751811   -1.2546559            1    1.3387644    1.8333862    1.8276681   0.35523902 0.0047176357 -0.075545681 0.0080005365    1.1954121    1.2053847   0.75799293        0.075    1.2541354          0.1  0.016844287    5.9367308    2.6550425    33.436121 -0.0024674159  -0.20581652 0.00035182662   0.18814457    1.2791953       1.8728 
  491000    4.9222576    1.2799871    3.6422704  -0.23209124   0.85333702   0.99944939   0.75023095   -1.2546559            1    1.2988595    1.7914822    1.7951613   0.30993501  -0.00955859 -0.043489591   0.02907348    1.1558084    1.1643533   0.75550906        0.075    1.2499463          0.1   0.01678909    5.9562489    2.6662877    33.436121 0.0024901866  -0.19682092 0.0047359158   0.18902668  0.052743465   0.96426297 
  492000    4.9258516    1.2770944    3.6487571  -0.23014641   0.85140852   0.99733287    0.7484351   -1.2546559            1    1.3403385    1.8324134    1.8300466   0.35855541 -0.00051371599 -0.00091765478  0.017445659    1.1976298    1.2061171   0.74960735        0.075       1.2512          0.1  0.016657941    6.0031429    2.6578381    33.436121 -0.0079971858  -0.19503077 -0.0014434394    0.1892099  -0.94902131  0.048004175 
  493000    4.9237732    1.2805028    3.6432704  -0.23057616    0.8536808    1.0001509   0.75032223   -1.2546559            1    1.3452953    1.8324244    1.8366274   0.36683422 -0.0023067407  0.024746781 -0.015011665    1.2022268    1.2106947   0.75152686        0.075    1.2579206          0.1  0.016700597    5.9878099    2.6455449    33.436121 0.0043258191  -0.19278678 -0.0005020195   0.19393153  -0.24437133   0.93183934 
  494000    4.9248245    1.2807285    3.6440959  -0.22950553   0.85383128     1.004807   0.74729262   -1.2546559            1    1.3253547    1.8198813    1.8261651   0.33001761 0.0049557207 -0.0063592531  0.014667404    1.1828638    1.1901274   0.75314784        0.075    1.2622092          0.1  0.016736619    5.9749225    2.6340331    33.436121 0.0023644387  -0.18627318 -0.0027678548   0.19631199   0.47929672    1.8747018 
  495000      4.91397    1.2774197    3.6365503  -0.22766962   0.85162536   0.99892576   0.74768073   -1.2546559            1     1.326249    1.8213892    1.8272784    0.3300793 0.0052464608 -0.0048424522 0.00080005485    1.1836841    1.1918132     0.748176        0.075    1.2606652          0.1  0.016626133    6.0146276    2.6636498    33.436121 -0.00010431151  -0.19848601 -0.0021487361   0.19799671  0.087407998    1.8295636 
  496000    4.9305563    1.2822066    3.6483497  -0.22692923   0.85481667    1.0028867   0.75032889   -1.2546559            1    1.3018681      1.79702    1.8069361   0.30164821  0.013356848 -0.009107494 -0.017605067    1.1587983    1.1668993   0.75705207        0.075    1.2601977          0.1  0.016823379     5.944109    2.6844089    33.436121 0.0029361557  -0.19344867 0.0018619867   0.21391438  -0.18474459    0.9410568 
  497000    4.9235246    1.2872626     3.636262   -0.2310556   0.85818739    1.0144128   0.74794357   -1.2546559            1     1.300545    1.8085697    1.7969876   0.29607753 -0.0026144126 -0.013452424  0.033617234      1.15793     1.164025   0.74125887        0.075    1.2629305          0.1  0.016472419    6.0707537    2.5996524    33.436121 0.00020923235  -0.17938248 -0.0050213937   0.19627425    0.2759544  -0.84827134 
  498000    4.9207727    1.2772629    3.6435099   -0.2251552   0.85152082    1.0065619   0.74211279   -1.2546559            1    1.3100208    1.8110218    1.8017757   0.31726486 0.0048947232 0.0029111715 -0.0083550207    1.1685176    1.1745574    0.7537514        0.075    1.2599926          0.1  0.016750031    5.9701381    2.6233464    33.436121 -0.0027002003  -0.20931939 0.0015228048   0.21208812   0.28562244   0.40983504 
  499000    4.9230197    1.2772177     3.645802  -0.23061847   0.85149069   0.99989798   0.74676481   -1.2546559            1    1.2889586    1.7951574    1.7940233   0.27769522 -0.0093916759  0.030586988 -0.0013234421    1.1465684     1.154392   0.75493912        0.075    1.2583743          0.1  0.016776425    5.9607456    2.6339881    33.436121 0.0074047563  -0.20089881 -0.0050993043   0.18807928   -0.4945588    1.5089127 
  500000    4.9180673    1.2776232    3.6404442  -0.22780156   0.85176101   0.99848389   0.74822401   -1.2546559            1    1.3334326    1.8293897     1.825795   0.34511314 0.0051914086 -0.0063893438 -0.021543234    1.1907642    1.1990564   0.74106957        0.075    1.2567988          0.1  0.016468213    6.0723044    2.5771578    33.436121 0.0006549598  -0.18964887 0.0026378192    0.2022265 -0.000578918   0.83895699 
  501000    4.9290641    1.2843014    3.6447626  -0.23121539   0.85621324    1.0054941    0.7508709   -1.2546559            1    1.2877394     1.788832    1.7906395   0.28374663 0.0021287346 -0.0093950508 -0.00093554761    1.1445663    1.1524197    0.7481615        0.075    1.2599989          0.1  0.016625811    6.0147442    2.6208324    33.436121 -0.0032799611  -0.19392896 0.0016618634   0.20701387  0.031661007  0.034275467 
  502000    4.9200259    1.2785547    3.6414712  -0.23161567   0.85238204    1.0070807   0.74321573   -1.2546559            1    1.3094213    1.8076185    1.8110675   0.30957793 0.0030407997 -0.017603431 -0.0028596739    1.1677078    1.1738881   0.75125178        0.075    1.2602714          0.1  0.016694484    5.9900024    2.6262997    33.436121 0.0001611869  -0.20367235 -0.0020653262   0.19214232   0.26419571   0.77625853 
  503000    4.9120004    1.2756169    3.6363835  -0.23386207   0.85042351   0.99659616   0.74727482   -1.2546559            1    1.3311401    1.8248111    1.8249441   0.34366502  0.001307163 -0.033330491 -0.0070022647    1.1886526    1.1970179   0.74884445        0.075    1.2622525          0.1  0.016640988    6.0092586    2.6126969    33.436121 -5.813164e-05  -0.20876407 -0.0041594191   0.20653757  -0.23167841    2.3901955 
  504000    4.9229468     1.278574    3.6443728  -0.23085817    0.8523949    1.0022494    0.7466476   -1.2546559            1    1.3180364     1.811244    1.8172583   0.32560694  0.010650794 -0.013572552 -0.015019021    1.1756686    1.1831534    0.7520379        0.075    1.2590633          0.1  0.016711953     5.983741    2.6439304    33.436121 0.0021176818  -0.19122074 -0.004459509   0.19351556  -0.64700304    1.5666514 
  505000    4.9158043     1.283821    3.6319832  -0.23104761   0.85589297   0.99608657   0.75696447   -1.2546559            1     1.286977    1.7978428    1.7857247   0.27736326 -0.005385151 0.0047477814  -0.01732855    1.1426419    1.1529233   0.75138512        0.075    1.2643289          0.1  0.016697447    5.9889395     2.624514    33.436121 -0.0036563833  -0.18093975 0.00075986313   0.20178247  -0.21952445  -0.60593949 
  506000    4.9247143    1.2856234    3.6390909   -0.2302804    0.8570946    1.0049399   0.75276549   -1.2546559            1    1.3489118     1.827874    1.8451931   0.37366813 0.0067041937 -0.019612832 -0.00056509557    1.2053774    1.2136666   0.75356369        0.075     1.268091          0.1   0.01674586    5.9716253    2.6562475    33.436121 0.0030679993  -0.20175377 -0.001836336   0.19280276   0.06766105    1.0535104 
  507000    4.9255615    1.2782415    3.6473201  -0.22797524   0.85217322    1.0026156   0.74601097   -1.2546559            1    1.3027363    1.8107308     1.801604   0.29587395 0.00020562824  0.051495558  -0.01828561    1.1604898    1.1678039   0.74743038        0.075    1.2667124          0.1  0.016609564    6.0206277    2.6116715    33.436121 -0.0010379228  -0.20514964 0.0006481161   0.20502037  -0.41373262    1.6983105 
  508000    4.9161421    1.2726662    3.6434759  -0.22908478   0.84845631   0.99733238   0.74339948   -1.2546559            1    1.2620406    1.7713391    1.7676403   0.24714228 -0.015213035 -0.033399304 0.0051642894    1.1202921    1.1278193   0.75710862        0.075    1.2685024          0.1  0.016824636     5.943665     2.673659    33.436121 -0.0030794458  -0.21990537 -0.0012985522   0.20509917    0.5999471  -0.12589446 
  509000    4.9284567     1.282332    3.6461247  -0.22727988   0.85490028    1.0061933   0.74813772   -1.2546559            1    1.3247601    1.8182932    1.8196237   0.33636333 -0.0056615871 -0.033306661 -0.0038337312    1.1821081    1.1893463   0.74653941        0.075    1.2718507          0.1  0.016589765     6.027813    2.6251399    33.436121 0.0023245049  -0.19597419 0.0034174335   0.19671143   0.35874386   0.45773966 
  510000    4.9187731    1.2725649    3.6462082   -0.2295423   0.84838879   0.99848241   0.74247262   -1.2546559            1    1.3331192    1.8217618    1.8253333   0.35226238 -0.0090532262  0.011015207  -0.01852815    1.1915474    1.1987431    0.7527922        0.075    1.2718036          0.1  0.016728715    5.9777453    2.6744905    33.436121 0.0044545744   -0.1965715 0.0032940892   0.18890406  -0.18922321     1.231648 
  511000    4.9198649    1.2775522    3.6423127  -0.23038524    0.8517137    0.9941204   0.75122308   -1.2546559            1    1.3102577    1.8098452    1.8088099   0.31211813 -0.010643648  0.017198441  0.012963505    1.1670175    1.1764687   0.74439914        0.075    1.2750031          0.1  0.016542203     6.045144    2.6057141    33.436121 0.0033835695  -0.19925746 0.0080297681    0.1952042  -0.59973995   0.30642943 
  512000    4.9205031    1.2760641    3.6444391  -0.23155216   0.85072159   0.99173417   0.75121493   -1.2546559            1    1.3449615    1.8341966     1.836855   0.36383291  0.008523397  0.025461961 -0.0032682079    1.2017227    1.2114936   0.74684853        0.075    1.2747984          0.1  0.016596634    6.0253181    2.5908292    33.436121 -0.00096134256  -0.20390085 0.00015492979   0.18666428   0.11421319    1.7623235 
  513000    4.9249857    1.2823865    3.6425992  -0.23248516   0.85493662    1.0096061   0.74579097   -1.2546559            1    1.3018202    1.7960106    1.8050737   0.30437638  0.014063195  0.024216129 0.0043068448    1.1596157    1.1659471   0.75946715        0.075    1.2735472          0.1  0.016877048    5.9252069    2.6587707    33.436121 0.0011751393  -0.19615675  -0.00103128   0.20336384  0.093175619    1.1244201 
  514000    4.9118981    1.2766543    3.6352439  -0.22807082   0.85111507   0.99436465   0.75002953   -1.2546559            1    1.3251352    1.8234359    1.8239713   0.32799829 -0.00056409239 -0.00041034334 0.0031826695    1.1821225    1.1913133   0.74464472        0.075    1.2712483          0.1   0.01654766    6.0431504    2.6114131    33.436121 -0.0026992125  -0.19947298 0.0015339039   0.19855058   0.28217355    1.3624869 
  515000    4.9211879    1.2801804    3.6410075  -0.22990355   0.85346584   0.99982573   0.75018508   -1.2546559            1    1.3260495    1.8185329    1.8246047   0.33501097 0.0059315116 -0.027429296 -0.0081128766    1.1830072    1.1914927   0.75381658        0.075    1.2707715          0.1   0.01675148    5.9696219    2.6539986    33.436121 -0.0016528648  -0.19661276 -0.002947983   0.20402624  -0.20090173   0.52864379 
  516000    4.9055775     1.270512    3.6350655  -0.22981939    0.8470202   0.99631946   0.74166466   -1.2546559            1    1.3269373    1.8203714    1.8242019    0.3362385 0.0077055018 -0.049956255  0.013758476    1.1855196    1.1928523   0.75060885        0.075    1.2693719          0.1  0.016680197    5.9951332    2.6587167    33.436121 0.00026666907  -0.19940809 2.5763616e-05   0.20795311   0.19499986    1.1153952 
  517000    4.9246446    1.2819067    3.6427379  -0.22892473   0.85461674   0.99973329   0.75221356   -1.2546559            1    1.3613593    1.8480227    1.8500926   0.38596252 -0.031179113 -0.010079927  0.015997187    1.2179302    1.2268149   0.75376396        0.075    1.2706293          0.1   0.01675031    5.9700387    2.6115713    33.436121 -0.0046558464  -0.19969078 3.5102573e-05    0.1941617   0.11764978    1.6268252 
  518000    4.9189309    1.2826863    3.6362445  -0.23167729   0.85513651     1.000966   0.75223017   -1.2546559            1    1.3264126    1.8174857    1.8245957   0.33715634 -0.011076768  0.020217915 -0.041122238    1.1829803    1.1917023    0.7553589        0.075    1.2712811          0.1  0.016785753    5.9574329    2.6329108    33.436121 -0.0052293056  -0.19640808 0.0043628564   0.20493379   0.17227604   0.76254406 
  519000    4.9134897    1.2799387     3.633551  -0.23151629   0.85330469   0.99620404    0.7524664   -1.2546559            1    1.2889689    1.7963219     1.791898   0.27868676 -0.012310686 -0.0091657558 -0.0036933745    1.1454915    1.1548994   0.75501753        0.075    1.2704474          0.1  0.016778167    5.9601265    2.6036255    33.436121 0.0053680123   -0.1923975 0.00047881092   0.18197551   0.24474518    1.0484868 
  520000    4.9174915    1.2749907    3.6425008  -0.22730342     0.850006   0.99788787   0.74565093   -1.2546559            1    1.3380696    1.8291365    1.8324381   0.35263416 -0.0098480762 -0.051308166 -0.021779659    1.1958918    1.2037735   0.75386844        0.075    1.2712951          0.1  0.016752632    5.9692113    2.6321284    33.436121 -0.0043674331  -0.19878439 -0.0049965137   0.19835559   0.27731131    1.4732908 
  521000    4.9157849    1.2745325    3.6412524   -0.2302224   0.84970054   0.99405819   0.74783288   -1.2546559            1    1.2564738    1.7666789    1.7708532   0.23188933 -0.0028058034 -0.023020171  0.020506961    1.1138799    1.1226931   0.73707871        0.075    1.2719559          0.1  0.016379527    6.1051824    2.5654854    33.436121 0.0041516931  -0.18944839 0.0018286141   0.19927269 -0.084698909 -0.052468327 
  522000    4.9129965    1.2759185     3.637078    -0.236438   0.85062454    1.0066366   0.74053116   -1.2546559            1    1.3369527    1.8284213    1.8268387   0.35559787 0.0089253582 -0.0077668874  0.014331039    1.1957511    1.2014792   0.75808614        0.075    1.2759856          0.1  0.016846359    5.9360009    2.6245472    33.436121 -0.0021902099  -0.19444984 0.00012221128   0.19761955  -0.85968403   0.50663068 
  523000    4.9162328    1.2809763    3.6352565  -0.23129445   0.85399649   0.99513923   0.75439803   -1.2546559            1    1.3315223     1.819266    1.8302783   0.34502254 -0.0094314472  0.019725716 0.0031584584    1.1876766    1.1975961     0.759585        0.075    1.2750218          0.1  0.016879667    5.9242876      2.67275    33.436121 -0.0038189465  -0.19988397 0.0061975237   0.20229626 -0.041313847     1.844963 
  524000     4.922166    1.2851655    3.6370005   -0.2334427   0.85678931   0.99760872   0.75741913   -1.2546559            1    1.3044197    1.7945779    1.8144459    0.3042354 -0.0026122944  0.016767149 -0.0086012327     1.159998    1.1701612   0.75638293        0.075    1.2752081          0.1   0.01680851    5.9493674    2.6079316    33.436121 -0.0019610764  -0.19690505 -0.00056672971   0.19347626   0.51807637    1.2546761 
  525000    4.9126883    1.2782398    3.6344485  -0.23213239   0.85217208    1.0004418   0.74754332   -1.2546559            1    1.3163358    1.8148326     1.801613   0.33256189 -0.0049005062 0.0030641945 0.0082579269    1.1737972    1.1816961    0.7666736        0.075     1.274168          0.1  0.017037191    5.8695122    2.7015397    33.436121 -0.010138066  -0.20164691 -0.0002938419   0.20132408   0.16751759    1.1367566 
  526000    4.9216613    1.2859921    3.6356692  -0.23291119   0.85734036    1.0026077    0.7548308   -1.2546559            1    1.3090669    1.8080579    1.8113818   0.30776109 0.0022902159  0.041072783  0.016085425    1.1651387    1.1741357   0.75781205        0.075    1.2743645          0.1  0.016840268    5.9381478    2.7043098    33.436121 -0.0019396688  -0.19357582 0.00091341129   0.18875809 -0.057948934   0.78183101 
  527000    4.9238621    1.2736107    3.6502514  -0.22720223     0.849086    0.9933723   0.74726868   -1.2546559            1    1.3324926    1.8137912    1.8292994   0.35438729 0.00012837765  0.012976603  0.018562669    1.1900064    1.1988043   0.75082015        0.075    1.2761158          0.1  0.016684892    5.9934459    2.6404758    33.436121 -0.0027176441  -0.20890089 0.0064458668   0.19729743   -0.6668397   0.96966866 
  528000    4.9208084     1.288357    3.6324514   -0.2312644   0.85891702    1.0004671    0.7590312   -1.2546559            1    1.3580347    1.8530313    1.8398711   0.38120171 -0.0023701445 0.0059774336 -0.0035378366    1.2133056    1.2233915   0.75733113        0.075    1.2726437          0.1  0.016829581    5.9419187    2.6649153    33.436121 -0.0005452425  -0.18772974 -0.0046170583   0.19289503  -0.28504393    1.1572293 
  529000     4.910171    1.2780885    3.6320826  -0.23032168   0.85207123   0.99505749   0.75117155   -1.2546559            1     1.294529    1.8030932    1.7971063   0.28338748 0.0082565596 -0.013055961  -0.01027388    1.1512985    1.1606138   0.74624482        0.075    1.2749045          0.1  0.016583218    6.0301926    2.6562252    33.436121 -0.0015936961     -0.19111 -0.0023948391   0.20098164  -0.43899117    1.1870354 
  530000    4.9235885    1.2852024    3.6383861  -0.22867594   0.85681394    1.0064161   0.75124482   -1.2546559            1    1.3284676     1.829213    1.8271646    0.3290252 0.0049283469 -0.011064531 0.0075121432    1.1852232    1.1930238   0.74469347        0.075    1.2751968          0.1  0.016548744    6.0427548    2.6339751    33.436121 -0.00027199616  -0.19689051 -0.001926335   0.19723059   -0.1150601    1.3866607 
  531000    4.9175872    1.2829248    3.6346623  -0.22936554   0.85529549   0.99964943   0.75343059   -1.2546559            1    1.3281914    1.8308125    1.8266104   0.32715127 0.0054356112 -0.033820618  0.013992585    1.1845302    1.1936583   0.76075737        0.075    1.2711649          0.1  0.016905719     5.915158    2.6652036    33.436121 0.0011814935  -0.18527251 -0.0028344752   0.20116102   0.33701268    1.5133255 
  532000    4.9217702    1.2848738    3.6368965  -0.23163765   0.85659482    1.0103218   0.74811438   -1.2546559            1    1.3484642    1.8430251    1.8369894   0.36537811 -0.0027736777 -0.017927368  0.005746414    1.2058167    1.2124948   0.76280148        0.075    1.2714418          0.1  0.016951144    5.8993068    2.6641819    33.436121 0.0085239612  -0.18999686 -0.0070519231   0.19814555   0.50103508   0.45886555 
  533000    4.9211273    1.2795998    3.6415275  -0.23186883   0.85307879   0.99754156   0.75113702   -1.2546559            1    1.3107264    1.8039628    1.8052804   0.32293619 -0.00019609726 0.0083550283 -0.005270213    1.1675026     1.176477   0.73923596        0.075    1.2721736          0.1  0.016427466    6.0873662    2.5820755    33.436121 -0.0021023235  -0.21081514 0.00023322155   0.19042174   0.37138928    1.1571855 
  534000    4.9343733    1.2948452    3.6395281  -0.23286132   0.86324252    1.0146453   0.75640271   -1.2546559            1    1.3671135    1.8484096      1.85514   0.39779094 0.0042501588 0.0072835719   0.01120247    1.2228856    1.2305622   0.75228754        0.075    1.2739493          0.1  0.016717501    5.9817553    2.6415192    33.436121 0.00092854874  -0.18399727 0.0014183457   0.20065071  0.041613625    2.0401334 
  535000    4.9111355    1.2806768    3.6304587  -0.22720763   0.85379682    1.0024911   0.74886841   -1.2546559            1    1.3061129    1.8095224      1.80897   0.29984621 -0.012239543 0.0022333807 -0.011523284    1.1633216    1.1711973    0.7535394        0.075    1.2716169          0.1   0.01674532    5.9718178    2.6333636    33.436121 0.0041643176  -0.19771537 0.0023912021   0.19778805  0.072273337   0.10117959 
  536000    4.9175923    1.2790497    3.6385426  -0.23191088   0.85271208   0.99303028   0.75369555   -1.2546559            1    1.3146674    1.8115189    1.8052176   0.32726577 0.0085607969 0.0010050297   0.02235913    1.1709557    1.1810251   0.74192009        0.075    1.2705941          0.1  0.016487113    6.0653433    2.6000881    33.436121 -0.0032859961    -0.199755 -0.0032584659   0.20159715   0.29800552    1.4055925 
  537000    4.9097629    1.2727064    3.6370565  -0.22780963   0.84848311   0.99745494    0.7433587   -1.2546559            1    1.3311113    1.8214092    1.8344994   0.33742526 -0.0063733515 -0.040648768 0.0049768432    1.1893705    1.1968735   0.75339044        0.075    1.2694211          0.1   0.01674201    5.9729986     2.638259    33.436121 0.0052395617  -0.18822292 0.0012840465   0.20152407   0.47617357    1.2693813 
  538000    4.9267469    1.2837888    3.6429581  -0.23472683   0.85587151   0.99839396   0.75529928   -1.2546559            1    1.3141441    1.8119443    1.8194529    0.3110351 0.0070769168  0.014785507 0.00015170965    1.1701266    1.1797799   0.75554815        0.075    1.2718734          0.1  0.016789959    5.9559408    2.6392346    33.436121 -0.0031916532  -0.17970277 -0.0026075636   0.18412456   0.27735267   0.67280726 
  539000    4.9144711     1.276404    3.6380671  -0.23476853   0.85094822   0.99609282   0.74852515   -1.2546559            1    1.3339555    1.8322003    1.8183904   0.35127574 0.0092047964  0.022824628 0.0073717974    1.1912296     1.199901   0.76080683        0.075    1.2723722          0.1  0.016906818    5.9147734    2.6782665    33.436121 0.0030896797  -0.21032028 0.0066382726   0.18821682  -0.80798132    2.0799776 
  540000     4.919803    1.2771702    3.6426328  -0.23143763   0.85145903    1.0028783   0.74460729   -1.2546559            1    1.3354739    1.8279143    1.8222181   0.35628943 -0.001438127 -0.0096367091 0.0058338887    1.1934951    1.2005062   0.75054364        0.075    1.2736606          0.1  0.016678747    5.9956541    2.6118484    33.436121 0.0043093949   -0.1922576 0.00089269898   0.19011943  -0.38056932     1.046183 
  541000    4.9132254    1.2817204     3.631505  -0.22967985   0.85449257    1.0038616   0.74908792   -1.2546559            1    1.3295402    1.8217256    1.8312272   0.33566794 0.0066321612 -0.0064681334 -0.012611561    1.1867071    1.1944402   0.75134669        0.075    1.2745037          0.1  0.016696593    5.9892458    2.6092783    33.436121  0.001280391  -0.19101351 -0.0010232825   0.19693999 -0.074814394 0.0047688935 
  542000    4.9201967    1.2832934    3.6369033  -0.23004318   0.85554124    1.0096062   0.74682225   -1.2546559            1    1.3415988    1.8399914    1.8391517    0.3456532 -0.0013190011  0.022273112 -0.0028848056    1.1991976    1.2057256    0.7488126        0.075    1.2746367          0.1   0.01664028    6.0095143    2.5797311    33.436121 0.00048370322  -0.19919264 -0.0031285516   0.19949257  -0.12246215    1.1262033 
  543000    4.9026906    1.2691469    3.6335437  -0.23256605    0.8461101   0.98781436   0.74611513   -1.2546559            1    1.3037426    1.7994146    1.8080398   0.30377336 0.0094093823  0.018594462  0.019775527    1.1614763    1.1708022    0.7511856        0.075    1.2741097          0.1  0.016693013    5.9905302    2.6646368    33.436121 -0.0045315167  -0.19327183 0.0029823515   0.20477377   0.58982608   0.86240316 
  544000    4.9004192    1.2725456    3.6278736  -0.23252907   0.84837593   0.99739289   0.74321967   -1.2546559            1    1.3258883    1.8239911    1.8145692   0.33910461 -0.0052610443 0.0033017139 -0.0032190447    1.1841741    1.1916588   0.75241096        0.075    1.2779643          0.1  0.016720244    5.9807741     2.612504    33.436121 -0.001907804  -0.20366891 -0.0034415477    0.1809684  -0.27281156   0.70280375 
  545000    4.9154053    1.2781982    3.6372072  -0.22936805   0.85214436   0.99571821   0.75082996   -1.2546559            1    1.2886044     1.799506    1.7930006   0.27330671 -0.0084830342  0.016896236 -0.0076070788    1.1454391    1.1546004   0.75416725        0.075    1.2790649          0.1  0.016759272    5.9668462    2.6384622    33.436121 0.0033020909  -0.19291022 0.0071069577   0.18177953    -1.101755  -0.52986717 
  546000    4.9074954    1.2760015    3.6314939  -0.23282245   0.85067988   0.99701877   0.74741386   -1.2546559            1    1.2898411    1.8015638    1.7833724   0.28458697 0.0068296936 -0.017009441 -0.023398566    1.1473271     1.155662   0.75557041        0.075    1.2789792          0.1  0.016790453    5.9557653    2.6216176    33.436121 -0.0023793779  -0.20122221 -5.0445951e-06   0.20930895  -0.41646463   0.77293122 
  547000    4.9114569    1.2761646    3.6352923  -0.23231838   0.85078862   0.99059684     0.752132   -1.2546559            1    1.3417874    1.8314114      1.82497   0.36898091 -0.007584328 -0.042491056 -0.024186567    1.1983739    1.2084726   0.75404149        0.075    1.2801563          0.1  0.016756478    5.9678414    2.5935458    33.436121 -0.0045545061  -0.21139117 0.0042872185   0.19602832  0.065689775    2.3345141 
  548000    4.9082882    1.2771602     3.631128  -0.23250965   0.85145234   0.99863018   0.74759422   -1.2546559            1    1.3396674    1.8278313    1.8374242   0.35374681 -0.0073782055 -0.014767353 -0.0001841826    1.1971191    1.2052715   0.75526776        0.075    1.2811143          0.1  0.016783728    5.9581519    2.6537697    33.436121 0.0035371144  -0.19102253 -0.0029970554   0.20143993   0.07180474    1.6203775 
  549000    4.9145008    1.2810135    3.6334873  -0.23499225   0.85402129    1.0012322   0.75013987   -1.2546559            1    1.2924062    1.7931535    1.7958326   0.28823237  0.015877545   0.01687248 -0.0089724868    1.1493724      1.15766    0.7581084        0.075    1.2798614          0.1  0.016846853    5.9358266    2.6647223    33.436121 -0.0049085299  -0.20209339 0.0037749918   0.19622897   0.34880556  -0.22732145 
  550000    4.9112895    1.2731161    3.6381734  -0.23333374   0.84875625   0.99234225   0.74743321   -1.2546559            1    1.3452554    1.8342282    1.8264145   0.37512356 0.0024900118 -0.0049200355  0.010462628    1.2027378    1.2117057    0.7623886        0.075    1.2797549          0.1  0.016941969    5.9025017    2.6857489    33.436121 0.00081499156  -0.20749599 -0.0035616611   0.20177053   0.46735628    2.1371713 
  551000     4.916951    1.2774637    3.6394873  -0.23147196    0.8516547   0.99610062   0.74972478   -1.2546559            1    1.3162755    1.8164965    1.8086352    0.3236946 -0.0054286536  0.010827824 -0.0044002306    1.1733209    1.1822199   0.74831088        0.075    1.2775972          0.1  0.016629131    6.0135434    2.6198783    33.436121 0.0062445006  -0.19530334 -0.0047425451   0.18756864   0.26020938    2.1212398 
  552000    4.9204003    1.2797117    3.6406887   -0.2319325   0.85315336    1.0015655   0.74842411   -1.2546559            1    1.3040109     1.797059    1.8009597   0.31401391 0.00027627945  -0.03634547 0.0052318943    1.1613043    1.1692199     0.756112        0.075    1.2781949          0.1  0.016802489    5.9514992    2.6334046    33.436121 -0.00087420805  -0.20326778 -0.00039137969   0.20557109 -0.092721064    0.4393182 
  553000    4.9173356    1.2801411    3.6371945  -0.23059888   0.85343966    1.0038574   0.74729487   -1.2546559            1    1.3084907     1.806318    1.8172809   0.30187333  0.014300042 -0.045667796  0.020894844    1.1659995    1.1733913   0.75676234        0.075    1.2759538          0.1  0.016816941    5.9463847    2.6642303    33.436121 -0.0032059697  -0.19875334 -0.0039451925   0.19480421   0.17255267    1.1710822 
  554000    4.9128979    1.2819966    3.6309013  -0.23197677   0.85467665   0.99985218   0.75223185   -1.2546559            1    1.3512928    1.8466335    1.8399674   0.36727748 0.00053632933  0.036039815  -0.02243426    1.2078602    1.2167324   0.75361129        0.075    1.2773485          0.1  0.016746917    5.9712482    2.6521586    33.436121 -0.0045645252  -0.18983979 -0.00033123921   0.19045347  -0.70864989   0.71501264 
  555000    4.9084864    1.2802562    3.6282302  -0.23000142   0.85351638   0.99744056   0.75195476   -1.2546559            1    1.2797416    1.7864556    1.7967606   0.25600842 0.0048441153 -0.012943811   0.01749749    1.1363618    1.1455057   0.76224942        0.075    1.2779293          0.1  0.016938876    5.9035794    2.6536175    33.436121 -0.0047314314  -0.19087548 -0.00014962599   0.20154408   0.73189548    0.5357091 
  556000    4.9198798    1.2820076    3.6378721  -0.22676766   0.85468403    1.0058953   0.74797919   -1.2546559            1    1.3509993    1.8390159    1.8432976   0.37068428  0.011727028 0.0070158196  0.011783086    1.2083775    1.2156256   0.74352189        0.075    1.2779853          0.1  0.016522709    6.0522764    2.5868687    33.436121 0.0025829551  -0.20520804 -0.0032762214     0.200628   0.28012527    1.4902335 
  557000    4.9188566    1.2878526     3.631004  -0.22980239   0.85858076    1.0066008   0.75412836   -1.2546559            1    1.3932391    1.8736834     1.877398   0.42863596 -0.0044344514  0.029993728  -0.01997826    1.2494449    1.2577705   0.75869894        0.075    1.2773571          0.1  0.016859976    5.9312064    2.6408184    33.436121 -0.0029313761  -0.18805547 -0.0010526599    0.1848144  -0.19870175    1.9461196 
  558000    4.9263319    1.2804721    3.6458598  -0.23159256   0.85366035    1.0030818   0.74821872   -1.2546559            1    1.3041247    1.8008695    1.7905365   0.32096804 -0.010544457  0.012715769 0.0080101293    1.1614573    1.1691296   0.74819209        0.075    1.2772074          0.1  0.016626491    6.0144982    2.5802943    33.436121 -0.00011313621  -0.20061757 -0.0012800168   0.20397976  -0.71730444   0.94971778 
  559000    4.9149653    1.2804646    3.6345007  -0.22994623   0.85365532   0.99932264   0.75086338   -1.2546559            1    1.3614876    1.8575498    1.8506343    0.3762788 -0.010297091 -0.00017287126  0.036669597    1.2183159    1.2269985   0.74949124        0.075    1.2804924          0.1  0.016655361    6.0040728    2.6218671    33.436121 0.0031422418  -0.19775599 -0.0019557409    0.1803759  -0.63287021   0.85025351 
  560000    4.9214002    1.2828641     3.638536  -0.22816146   0.85525504    1.0008272   0.75253033   -1.2546559            1    1.3099884    1.8043615    1.8073632   0.31824057  0.015060927 -0.0077806638  0.018059372    1.1664989    1.1752968   0.75199849        0.075    1.2799623          0.1  0.016711078    5.9840546    2.6212922    33.436121 0.00026225691  -0.19291268 -0.003652808   0.19706505   0.39117232    2.0606777 
  561000    4.9136736    1.2799064    3.6337672  -0.23453494   0.85328318    1.0014455   0.74873027   -1.2546559            1    1.3230765    1.8209736    1.8143022   0.33395375 0.0052324097 -0.041534719  0.014222513    1.1803116    1.1883017   0.76159117        0.075    1.2784072          0.1  0.016924248     5.908682    2.6923222    33.436121 -0.00039402877  -0.20828602 -0.00069343851   0.19575449   0.20796407   0.45467417 
  562000    4.9092792    1.2699747    3.6393045  -0.23117304   0.84666193   0.99597811   0.74129444   -1.2546559            1    1.3247685    1.8184095    1.8119672   0.34392884 0.0023051305 -0.021191709 0.0075774379    1.1834214    1.1907295   0.75107624        0.075    1.2782085          0.1  0.016690583    5.9914024     2.632122    33.436121 -0.0018399602  -0.19010833 0.0024214077   0.19912507  0.064405316    1.1177631 
  563000     4.911074     1.281104    3.6299701  -0.22901249   0.85408158    0.9908981    0.7575366   -1.2546559            1    1.3042461    1.7982902    1.8063813   0.30806691 -0.010082018  0.013300838 5.0070595e-05     1.159802    1.1708908    0.7604599        0.075    1.2816181          0.1  0.016899109    5.9174718     2.691363    33.436121 0.0047830389  -0.20514851 -0.00078425133   0.20338925  -0.62011214    1.3566927 
  564000    4.9291506    1.2788432    3.6503073  -0.22766638   0.85257438   0.99893224   0.74929503   -1.2546559            1    1.3620494    1.8409445    1.8527921   0.39241175  0.014898552  0.022299297 0.0064647356    1.2191768    1.2276128   0.74578145        0.075    1.2758597          0.1  0.016572921    6.0339393    2.5824279    33.436121 0.0025752144  -0.19049717 -0.0041701257   0.18877627  -0.64959222   0.39774739 
  565000    4.9148381    1.2802137    3.6346245   -0.2297425   0.85348805    1.0018324   0.74880667   -1.2546559            1    1.3284209    1.8265347     1.824639   0.33408907 -0.0082792752 -0.023007385 -0.010800029    1.1856414     1.193594   0.75896248        0.075    1.2756072          0.1  0.016865833    5.9291469    2.6435548    33.436121 0.00089174881  -0.18811629 0.0019668423   0.19034334 -0.090469583    1.2111623 
  566000    4.9140184    1.2793122    3.6347063  -0.23392237   0.85288702     1.000832   0.74848751   -1.2546559            1    1.3524206    1.8535174    1.8343803   0.36936389 0.0056390675 -0.013046699 -0.0087688709    1.2097019    1.2177283    0.7509532        0.075    1.2789291          0.1  0.016687849    5.9923841    2.6337539    33.436121 0.0056262824  -0.18360358 -0.0022567956   0.18840331 -0.079316978    1.2003877 
  567000    4.9272828    1.2831345    3.6441483  -0.23080898   0.85543531     1.005959   0.74921577   -1.2546559            1     1.336393    1.8286578    1.8273179   0.35320331 -0.015570139 -0.0064848703  0.008086735    1.1935355    1.2010107   0.75444243        0.075    1.2800283          0.1  0.016765387    5.9646698    2.6471245    33.436121 0.0012644521   -0.2015455 0.0018320504   0.19716901   0.65465954    1.2404556 
  568000    4.9176895    1.2851525     3.632537  -0.23426135   0.85678063    1.0052078   0.75204082   -1.2546559            1    1.3333054    1.8291292    1.8204613   0.35032583 -0.0052033979 -0.016163319 0.0048877614    1.1899092    1.1980242   0.75857519        0.075     1.280321          0.1  0.016857227     5.932174     2.645891    33.436121 0.0019790423  -0.19986044 -0.00068207344   0.19091827   0.16665502    2.2914679 
  569000    4.9232424    1.2801005    3.6431419  -0.23078892   0.85341256   0.99319306   0.75477557   -1.2546559            1     1.383337    1.8667148    1.8676287   0.41566738 -0.0022897042 0.0071898215 0.0020320527    1.2394193    1.2496727   0.76179579        0.075    1.2839582          0.1  0.016928795    5.9070948    2.6765258    33.436121 0.0054788282  -0.18721054  0.002594099   0.19589916  0.086269399   0.28914855 
  570000    4.9294298    1.2846094    3.6448204  -0.22859788   0.85641856    1.0052808   0.75137172   -1.2546559            1    1.3177312    1.8174311    1.8099311   0.32583139 -0.0058445471   0.03289146 0.0030400012    1.1744626    1.1824402   0.75497446        0.075    1.2845173          0.1   0.01677721    5.9604665    2.6289229    33.436121 0.0027184621  -0.19165247 0.0030049407   0.20853247 -0.010457274   0.53024148 
  571000    4.9144845    1.2760337    3.6384508  -0.22926362   0.85070136   0.99589633   0.74824274   -1.2546559            1    1.3311655    1.8156735    1.8288204   0.34900248 -0.0013648862  0.014596879 -0.012686426    1.1884935    1.1971374    0.7635339        0.075    1.2848734          0.1   0.01696742    5.8936479    2.6520096    33.436121 -7.4979002e-05  -0.18924648 -0.00025725927    0.1820675  0.070420871      1.49255 
  572000    4.9067206     1.272122    3.6345986  -0.23103619   0.84809353   0.98860099   0.74894332   -1.2546559            1    1.2972616    1.8047734    1.7916359    0.2953756 -0.0050777101 -0.0088432842 0.0018046283     1.154456    1.1642154   0.75162401        0.075    1.2795624          0.1  0.016702756     5.987036    2.6487886    33.436121 -0.0015516789  -0.19129765 0.0024312246   0.19672273   0.54872593    0.2564414 
  573000    4.9213003    1.2781839    3.6431164  -0.22995986   0.85213484   0.99630452    0.7503999   -1.2546559            1    1.3343962    1.8285395    1.8269549   0.34769411 -0.0029090382 0.0026365651 0.0074638316    1.1913128    1.2003132   0.75211666        0.075    1.2810482          0.1  0.016713704    5.9831144    2.6332527    33.436121 -0.0031660715  -0.19161175 -0.0068728823   0.18581909 -0.030263201    2.2132927 
  574000    4.9182343    1.2857405    3.6324938  -0.22987697   0.85717267    1.0094261   0.74973227   -1.2546559            1    1.3378161    1.8267688    1.8314707   0.35520883 0.0067872996 -0.012346121 -0.025492272    1.1948601    1.2019672   0.75148355        0.075    1.2825558          0.1  0.016699634     5.988155     2.606782    33.436121 -0.0077656472  -0.19119541 0.0076768357   0.20503563  0.056212379   0.11448878 
  575000    4.9104661    1.2787984    3.6316677  -0.23088255   0.85254451   0.99810948   0.74982478   -1.2546559            1    1.3498004    1.8370957    1.8457749   0.36653053 -0.015101443 -0.0048146474  0.019093685    1.2068267    1.2154745   0.75700009        0.075    1.2798884          0.1  0.016822224    5.9445171    2.6659239    33.436121 -0.003471855   -0.1986937 0.0012387068   0.20127961  -0.14016744  -0.18498697 
  576000    4.9096587    1.2792966    3.6303622  -0.23190023   0.85287663    1.0039518   0.74626779   -1.2546559            1     1.334148    1.8237548    1.8332657   0.34542339  0.015874443 -0.018774398 -0.010696202    1.1918525    1.1990358   0.75984887        0.075    1.2799307          0.1   0.01688553    5.9222303    2.6783276    33.436121 -0.0032196936  -0.17701113 -0.00049135523   0.19559988 -0.094406899    1.6581143 
  577000    4.9190141    1.2852974    3.6337167  -0.22957727   0.85687721    1.0093364   0.74929159   -1.2546559            1    1.3059225    1.8085254    1.7997347   0.30950739 -6.370979e-05 -0.010997315 -0.016160555    1.1630505    1.1700857   0.75719976        0.075    1.2794843          0.1  0.016826661    5.9429496    2.6392714    33.436121 -0.00039479621  -0.19685668 0.0017247779   0.18499213 -0.059568178   0.58533661 
  578000    4.9054442    1.2819706    3.6234736  -0.23502511   0.85465935    1.0023871    0.7504132   -1.2546559            1    1.3079699    1.8100286     1.810428   0.30345313 0.0075502156 -0.018194837  0.036063701    1.1648841    1.1730683   0.74400431        0.075    1.2772315          0.1  0.016533429    6.0483521    2.6216986    33.436121 -0.00028607866  -0.20218396 0.00070817461     0.196966   0.62114803     1.242427 
  579000     4.927175    1.2877656    3.6394094  -0.22677123   0.85852271    1.0022621   0.75709161   -1.2546559            1    1.3614138    1.8468941    1.8542846    0.3830628 -0.011074861 -0.013854178 0.0007021819    1.2170545     1.226529   0.74953828        0.075    1.2788586          0.1  0.016656406     6.003696    2.5683114    33.436121 -0.00090337452  -0.19981549 -0.0019770216   0.20458846   0.95409527    1.0280094 
  580000    4.9149629    1.2820794    3.6328835  -0.22905622   0.85473188     1.007897   0.74664796   -1.2546559            1    1.3207214    1.8185817    1.8189082   0.32467422 0.0039963246  0.020555283  0.010652855    1.1783535    1.1850783   0.74845449        0.075    1.2790757          0.1  0.016632322    6.0123896    2.5940281    33.436121 -0.0010199894  -0.19841122 -0.003332595   0.19545799  0.069072592    0.7933217 
  581000    4.9151921    1.2792243    3.6359678  -0.23171736   0.85282848   0.99580656    0.7519346   -1.2546559            1    1.3241267    1.8180199    1.8226154   0.33174477 0.0045727324 -0.0080331078 -0.010574139    1.1807507    1.1901107   0.76015903        0.075     1.279677          0.1  0.016892423    5.9198139    2.6603906    33.436121 -0.0038184445  -0.18282013 0.0033890623   0.19068953  -0.35671761   0.74606739 
  582000     4.923039    1.2818237    3.6412153  -0.23068635    0.8545614    1.0006477   0.75147376   -1.2546559            1    1.3252529    1.8168685    1.8224069   0.33648327 0.0013919986 -0.024071354 0.0043138841    1.1819648    1.1905854   0.75546371        0.075    1.2842642          0.1  0.016788083    5.9566064    2.6407593    33.436121 -0.0049750102  -0.20499959 0.00011937837   0.19309663  -0.39357803     1.685171 
  583000    4.9061557    1.2786185    3.6275371  -0.22952284    0.8524246    1.0014839   0.74723858   -1.2546559            1    1.3502475     1.836418    1.8366588    0.3776657 0.0092335216 -0.016731829 0.0095366999     1.207767    1.2154675    0.7640817        0.075    1.2799326          0.1  0.016979593    5.8894226    2.6644783    33.436121 0.0030856621   -0.2015723 -0.0029014003   0.21022064  0.035997672   0.53998688 
  584000    4.9086248    1.2769471    3.6316777  -0.23374218   0.85131029   0.99991353    0.7464461   -1.2546559            1    1.3107174    1.8091355    1.8084975   0.31451918 0.0038397607  -0.04460253 -0.011270188     1.168388    1.1761487   0.76703233        0.075    1.2837729          0.1  0.017045163    5.8667671    2.6791122    33.436121 0.0031240804  -0.18454932 0.00041229589   0.20061041    1.0228303   0.09865626 
  585000    4.9158664    1.2800214    3.6358449  -0.23133442   0.85335987   0.99880588   0.75072413   -1.2546559            1    1.3528062    1.8309169    1.8517669   0.37573482  0.008100178 -0.040941772 0.0067107023    1.2096611    1.2183866   0.75064965        0.075    1.2807678          0.1  0.016681103    5.9948073     2.596743    33.436121 0.0065520403  -0.19420187 -0.0010678129   0.18301912   0.91148846    1.5832045 
  586000    4.9127762    1.2868181    3.6259581  -0.23499825   0.85789108    1.0051444   0.75397981   -1.2546559            1    1.2992281    1.8055975    1.8079216   0.28416523 0.00059103984 -0.030996187 0.0051009238    1.1554622    1.1639555   0.75677401        0.075    1.2804933          0.1    0.0168172     5.946293    2.6542531    33.436121 0.0021734968  -0.19298205 0.0038131199   0.20196242   0.88677228   0.88117873 
  587000    4.9053897    1.2793385    3.6260512  -0.23315633   0.85290459    1.0015163   0.74803447   -1.2546559            1    1.3251984    1.8218072    1.8206935   0.33309447  0.013983961 -0.051438732 0.0029327489    1.1825661     1.190414   0.75118164        0.075    1.2806848          0.1  0.016692925    5.9905617    2.6244031    33.436121 0.00063301215  -0.21076307 0.0039113685   0.19315449   0.48736346 -0.049782658 
  588000    4.8985967    1.2703346    3.6282621  -0.23214938   0.84690187   0.99463378   0.74265256   -1.2546559            1    1.3346491    1.8327054    1.8188644   0.35237746 -0.011222387 -0.012179181  -0.03119186     1.193043     1.200791   0.75329991        0.075    1.2806693          0.1  0.016739998    5.9737163    2.6153105    33.436121 0.0052883219  -0.20730545 -0.0002534851   0.18388179  -0.31464679   0.73999959 
  589000     4.921567    1.2845711    3.6369958  -0.23380765   0.85639307    1.0043715   0.75196998   -1.2546559            1    1.3330579    1.8398896     1.820027   0.33925722 0.0093086743 -0.017912947 -0.0039545552    1.1896752    1.1978893    0.7519261        0.075    1.2822254          0.1  0.016709469    5.9846306    2.6158818    33.436121 -0.00045290537  -0.18807991 -0.0035204264   0.18591794  -0.18286661   0.50794012 
  590000    4.9250413    1.2904106    3.6346307  -0.23238578   0.86028608    1.0084019   0.75576616   -1.2546559            1    1.3198644    1.8170975    1.8122177   0.33027786 -0.013351146   0.01611257 -0.015614554    1.1757578    1.1841533   0.76097896        0.075    1.2806798          0.1  0.016910644    5.9134355    2.6360855    33.436121 -0.0063551049  -0.19888047 0.0024256062   0.19425083  -0.29842676    1.7494242 
