LAMMPS (5 Jun 2019)
OMP_NUM_THREADS environment is not set. Defaulting to 1 thread. (src/comm.cpp:88)
  using 1 OpenMP thread(s) per MPI task
#--- Brush Variables---#
variable      f      equal  1                  # System Size Scaling Factor
variable      M      equal  $(v_f * 60)        # The number of polymer chains on each brush
variable      M      equal  60        
variable      N      string 30                 # The number of beads per chain
variable      xhi    equal  $(sqrt(v_f) * 30)  # The width of the polymer Brush
variable      xhi    equal  30  
variable      yhi    equal  $(sqrt(v_f) * 30)   # The length of the polymer Brush
variable      yhi    equal  30   
variable      wthick equal  3                  # The thickness of the walls wthick=1,2,3,4 gives 2,3,4,6 layers respectively

#--- Simulation Variables ---#
variable       Temp      index 1               # The Temperature of the Thermostats
variable       Tstep     equal 0.005           # Timestep in Tau (default = 0.005)
variable       Nequil    equal 30000          # Number of timesteps to equilibrate
variable       Ncomp     equal 70000          # Number of timesteps to compress - until no more oscillation of D
variable       Nshear    equal 200000         # Number of timesteps to shear
variable       Nthermo   equal 1000            # Number of timesteps between thermo data prints
variable       Ndump_e   equal 10000
variable       Ndump_c   equal 10000           # Number of timesteps per dump file (compression)
variable       Ndump_s   equal 10000           # Number of timesteps per dump file (shear)
variable       Vwalli    index 1          # Relative wall Velocities
variable       Pcomp     index 1 # 0.5 2 0.05 4 8                               # Compressive Pressures applied to top wall
variable       Vscale    equal 1e-1

include        MDPBB.in
# This is an input script that creates a mono disperse polymer brush bilayer
# A coarse grained bead-spring model is used for the polymers which are end
# grafted to the surfaces of 2 opposing FCC walls at random sites.

#--- Initialization ---#

dimension     3
boundary      p p f
units         lj
atom_style    bond


#--- Moved to main.in ---#
#variable      M      equal  50                # The number of polymer chains on each brush
#variable      N      string 80                # The number of beads per chain
#variable      xhi    equal  15                # The width of the polymer Brush
#variable      yhi    equal  20                # The length of the polymer Brush
#variable      wthick equal  3                 # The thickness of the walls wthick=1,2,3,4 gives 2,3,4,6 layers respectively

variable      zhi    equal  $(1.1 * 2 * v_N + (2 * v_wthick))  # The initial height of the simulation box the value is such that no overlaps occur
variable      zhi    equal  72  
variable      z0     equal  $((v_zhi)/4 - (v_N)/30)          # This is the location at which to place the CoM of the molecule
variable      z0     equal  17          

print "The number of grafted chains = $(v_M)"
The number of grafted chains = 60
print "The number of beads per chain = $(v_N)"
The number of beads per chain = 30

variable      check  equal count(all)         # The number of atoms in the system
variable      ntwall equal count(twall)       # The number of atoms in the top wall
variable      nbwall equal count(bwall)       # The number of atoms in the bottom wall
variable      s equal 234897  #45335              # Seed for the RNG

print "zhi = ${zhi}"
zhi = 72

#--- Create the simulation box ---#

region        sbox block 0 ${xhi} 0 ${yhi} 0 ${zhi}
region        sbox block 0 30 0 ${yhi} 0 ${zhi}
region        sbox block 0 30 0 30 0 ${zhi}
region        sbox block 0 30 0 30 0 72
create_box    4 sbox bond/types 3 extra/bond/per/atom 12 extra/special/per/atom 2
Created orthogonal box = (0 0 0) to (30 30 72)
  1 by 1 by 1 MPI processor grid

mass          1 2.0                   # Wall atoms that are not grafted
mass          2 1.0                   # Grafted bead
mass          3 1.0                   # The rest of the beads on the chain
mass          4 2.0                   # Wall atoms that the chains are grafted to

bond_style    hybrid fene harmonic    # Finitely extensible linearly elastic bond between neighbouring beads
#bond_coeff    1 fene 30.0 1.5 0.0 0.0      # Values obtained from literature [Grest, Galushcko]
bond_coeff    1 fene 30.0 30.0 0.0 0.0
bond_coeff    2 fene 30.0 30.0 0.0 0.0       # This is the grafting bond between the polymer and the wall atom
special_bonds fene                    #
  0 = max # of 1-2 neighbors
  5 = max # of special neighbors
  special bonds CPU = 0.0002839 secs
pair_style	  lj/cut 1.122462         # LJ potential with rc=2^1/6
#pair_coeff	  * * 1.0 1.0             # LJ potential acts between all atoms
pair_coeff    1 1 0.0 0.0
pair_coeff    1 2 1.0 1.0
pair_coeff    1 3 1.0 1.0
pair_coeff    2 2 1.0 1.0
pair_coeff    2 3 1.0 1.0
pair_coeff    2 4 1.0 1.0
pair_coeff    3 3 1.0 1.0
pair_coeff    3 4 1.0 1.0
pair_coeff    4 4 0.0 0.0
neighbor      10 bin                  #
neigh_modify  one 4000

#--- Create and read the molecule file ---#
python        BSMolf input 1 $N format i file BSMolf.py
python        BSMolf input 1 30 format i file BSMolf.py
python        BSMolf invoke    # Call the python function with number of beads to write the mol file
molecule      bs     bsmol.txt     # Read the Mol file to define the polymer chain
Read molecule bs:
  30 atoms with max type 2
  29 bonds with max type 1
  0 angles with max type 0
  0 dihedrals with max type 0
  0 impropers with max type 0

#--- Define the FCC wall region ---#
region        wall  block 0 ${xhi} 0 ${yhi} 0 ${wthick}
region        wall  block 0 30 0 ${yhi} 0 ${wthick}
region        wall  block 0 30 0 30 0 ${wthick}
region        wall  block 0 30 0 30 0 3
lattice       fcc 1
Lattice spacing in x,y,z = 1.5874 1.5874 1.5874

#--- Create the Top Brush  (At the bottom then rotate 180 degrees to top) ---#

create_atoms  1 region wall
Created 2888 atoms
  create_atoms CPU = 0.0016469 secs
group         twall  region wall
2888 atoms in group twall
#group         tsurf  region wsurf

# A loop to insert the Chains into the sim box
variable      i loop $M                                   # Index to insert N total number of chains
variable      i loop 60                                   
label         loop                                        # Start of loop
variable      randni equal round(random(1,${ntwall},$s))  # Pick a random "top" wall atom
variable      randni equal round(random(1,2888,$s))  
variable      randni equal round(random(1,2888,234897))  
variable      randatomi equal ${randni}                   # This is to obtain an integer number for atom-id
variable      randatomi equal 1814                   
variable      randzi equal z[${randatomi}]                # Determine the z coordinate of the chosen atom
variable      randzi equal z[1814]                
# if the chosen atom is not a surface atom then restart the loop
if            "${randzi} < $(v_wthick - 0.7)" then "jump MDPBB.in loop"
jump MDPBB.in loop
variable      randni equal round(random(1,${ntwall},$s))  # Pick a random "top" wall atom
variable      randni equal round(random(1,2888,$s))  
variable      randni equal round(random(1,2888,234897))  
variable      randatomi equal ${randni}                   # This is to obtain an integer number for atom-id
variable      randatomi equal 455                   
variable      randzi equal z[${randatomi}]                # Determine the z coordinate of the chosen atom
variable      randzi equal z[455]                
# if the chosen atom is not a surface atom then restart the loop
if            "${randzi} < $(v_wthick - 0.7)" then "jump MDPBB.in loop"
jump MDPBB.in loop
variable      randni equal round(random(1,${ntwall},$s))  # Pick a random "top" wall atom
variable      randni equal round(random(1,2888,$s))  
variable      randni equal round(random(1,2888,234897))  
variable      randatomi equal ${randni}                   # This is to obtain an integer number for atom-id
variable      randatomi equal 2182                   
variable      randzi equal z[${randatomi}]                # Determine the z coordinate of the chosen atom
variable      randzi equal z[2182]                
# if the chosen atom is not a surface atom then restart the loop
if            "${randzi} < $(v_wthick - 0.7)" then "jump MDPBB.in loop"
jump MDPBB.in loop
variable      randni equal round(random(1,${ntwall},$s))  # Pick a random "top" wall atom
variable      randni equal round(random(1,2888,$s))  
variable      randni equal round(random(1,2888,234897))  
variable      randatomi equal ${randni}                   # This is to obtain an integer number for atom-id
variable      randatomi equal 2201                   
variable      randzi equal z[${randatomi}]                # Determine the z coordinate of the chosen atom
variable      randzi equal z[2201]                
# if the chosen atom is not a surface atom then restart the loop
if            "${randzi} < $(v_wthick - 0.7)" then "jump MDPBB.in loop"
jump MDPBB.in loop
variable      randni equal round(random(1,${ntwall},$s))  # Pick a random "top" wall atom
variable      randni equal round(random(1,2888,$s))  
variable      randni equal round(random(1,2888,234897))  
variable      randatomi equal ${randni}                   # This is to obtain an integer number for atom-id
variable      randatomi equal 2098                   
variable      randzi equal z[${randatomi}]                # Determine the z coordinate of the chosen atom
variable      randzi equal z[2098]                
# if the chosen atom is not a surface atom then restart the loop
if            "${randzi} < $(v_wthick - 0.7)" then "jump MDPBB.in loop"
jump MDPBB.in loop
variable      randni equal round(random(1,${ntwall},$s))  # Pick a random "top" wall atom
variable      randni equal round(random(1,2888,$s))  
variable      randni equal round(random(1,2888,234897))  
variable      randatomi equal ${randni}                   # This is to obtain an integer number for atom-id
variable      randatomi equal 2845                   
variable      randzi equal z[${randatomi}]                # Determine the z coordinate of the chosen atom
variable      randzi equal z[2845]                
# if the chosen atom is not a surface atom then restart the loop
if            "${randzi} < $(v_wthick - 0.7)" then "jump MDPBB.in loop"
jump MDPBB.in loop
variable      randni equal round(random(1,${ntwall},$s))  # Pick a random "top" wall atom
variable      randni equal round(random(1,2888,$s))  
variable      randni equal round(random(1,2888,234897))  
variable      randatomi equal ${randni}                   # This is to obtain an integer number for atom-id
variable      randatomi equal 1373                   
variable      randzi equal z[${randatomi}]                # Determine the z coordinate of the chosen atom
variable      randzi equal z[1373]                
# if the chosen atom is not a surface atom then restart the loop
if            "${randzi} < $(v_wthick - 0.7)" then "jump MDPBB.in loop"
jump MDPBB.in loop
variable      randni equal round(random(1,${ntwall},$s))  # Pick a random "top" wall atom
variable      randni equal round(random(1,2888,$s))  
variable      randni equal round(random(1,2888,234897))  
variable      randatomi equal ${randni}                   # This is to obtain an integer number for atom-id
variable      randatomi equal 968                   
variable      randzi equal z[${randatomi}]                # Determine the z coordinate of the chosen atom
variable      randzi equal z[968]                
# if the chosen atom is not a surface atom then restart the loop
if            "${randzi} < $(v_wthick - 0.7)" then "jump MDPBB.in loop"
jump MDPBB.in loop
variable      randni equal round(random(1,${ntwall},$s))  # Pick a random "top" wall atom
variable      randni equal round(random(1,2888,$s))  
variable      randni equal round(random(1,2888,234897))  
variable      randatomi equal ${randni}                   # This is to obtain an integer number for atom-id
variable      randatomi equal 1250                   
variable      randzi equal z[${randatomi}]                # Determine the z coordinate of the chosen atom
variable      randzi equal z[1250]                
# if the chosen atom is not a surface atom then restart the loop
if            "${randzi} < $(v_wthick - 0.7)" then "jump MDPBB.in loop"
jump MDPBB.in loop
variable      randni equal round(random(1,${ntwall},$s))  # Pick a random "top" wall atom
variable      randni equal round(random(1,2888,$s))  
variable      randni equal round(random(1,2888,234897))  
variable      randatomi equal ${randni}                   # This is to obtain an integer number for atom-id
variable      randatomi equal 2090                   
variable      randzi equal z[${randatomi}]                # Determine the z coordinate of the chosen atom
variable      randzi equal z[2090]                
# if the chosen atom is not a surface atom then restart the loop
if            "${randzi} < $(v_wthick - 0.7)" then "jump MDPBB.in loop"
jump MDPBB.in loop
variable      randni equal round(random(1,${ntwall},$s))  # Pick a random "top" wall atom
variable      randni equal round(random(1,2888,$s))  
variable      randni equal round(random(1,2888,234897))  
variable      randatomi equal ${randni}                   # This is to obtain an integer number for atom-id
variable      randatomi equal 2586                   
variable      randzi equal z[${randatomi}]                # Determine the z coordinate of the chosen atom
variable      randzi equal z[2586]                
# if the chosen atom is not a surface atom then restart the loop
if            "${randzi} < $(v_wthick - 0.7)" then "jump MDPBB.in loop"
jump MDPBB.in loop
variable      randni equal round(random(1,${ntwall},$s))  # Pick a random "top" wall atom
variable      randni equal round(random(1,2888,$s))  
variable      randni equal round(random(1,2888,234897))  
variable      randatomi equal ${randni}                   # This is to obtain an integer number for atom-id
variable      randatomi equal 21                   
variable      randzi equal z[${randatomi}]                # Determine the z coordinate of the chosen atom
variable      randzi equal z[21]                
# if the chosen atom is not a surface atom then restart the loop
if            "${randzi} < $(v_wthick - 0.7)" then "jump MDPBB.in loop"
jump MDPBB.in loop
variable      randni equal round(random(1,${ntwall},$s))  # Pick a random "top" wall atom
variable      randni equal round(random(1,2888,$s))  
variable      randni equal round(random(1,2888,234897))  
variable      randatomi equal ${randni}                   # This is to obtain an integer number for atom-id
variable      randatomi equal 550                   
variable      randzi equal z[${randatomi}]                # Determine the z coordinate of the chosen atom
variable      randzi equal z[550]                
# if the chosen atom is not a surface atom then restart the loop
if            "${randzi} < $(v_wthick - 0.7)" then "jump MDPBB.in loop"
jump MDPBB.in loop
variable      randni equal round(random(1,${ntwall},$s))  # Pick a random "top" wall atom
variable      randni equal round(random(1,2888,$s))  
variable      randni equal round(random(1,2888,234897))  
variable      randatomi equal ${randni}                   # This is to obtain an integer number for atom-id
variable      randatomi equal 944                   
variable      randzi equal z[${randatomi}]                # Determine the z coordinate of the chosen atom
variable      randzi equal z[944]                
# if the chosen atom is not a surface atom then restart the loop
if            "${randzi} < $(v_wthick - 0.7)" then "jump MDPBB.in loop"
jump MDPBB.in loop
variable      randni equal round(random(1,${ntwall},$s))  # Pick a random "top" wall atom
variable      randni equal round(random(1,2888,$s))  
variable      randni equal round(random(1,2888,234897))  
variable      randatomi equal ${randni}                   # This is to obtain an integer number for atom-id
variable      randatomi equal 2340                   
variable      randzi equal z[${randatomi}]                # Determine the z coordinate of the chosen atom
variable      randzi equal z[2340]                
# if the chosen atom is not a surface atom then restart the loop
if            "${randzi} < $(v_wthick - 0.7)" then "jump MDPBB.in loop"
set           atom ${randatomi} type 4                    # Set this grafted wall atom as a new type
set           atom 2340 type 4                    
  1 settings made for type
group         twg id ${randatomi}                         # Add this atom to a top-wall-grafted group
group         twg id 2340                         
1 atoms in group twg
variable      twgcount equal count(twg)
print         "twg contains ${twgcount}"
twg contains 1
print         "i = $(v_i)"                                # The index i should always be equal to the number of atom in twg
i = 1
variable      x0 equal x[${randatomi}]                    # Determine its x-coord
variable      x0 equal x[2340]                    
variable      y0 equal y[${randatomi}]                    # Determine its y-coord
variable      y0 equal y[2340]                    
variable      check0 equal ${check}                       # Count the number of atoms in the simulation
variable      check0 equal 2888                       
variable      b equal ${check}+1                          # The grafted bead id will be one higher after being inserted
variable      b equal 2888+1                          
if            "${twgcount} != $(v_i)" then "jump MDPBB.in loop"
# Otherwise insert the chain directly above the chosen wall atom pointing perpendicular to the wall
create_atoms  1 single ${x0} ${y0} ${z0} mol bs 24987 units box remap yes rotate 0 0 0 1
create_atoms  1 single 22.2236147275548 ${y0} ${z0} mol bs 24987 units box remap yes rotate 0 0 0 1
create_atoms  1 single 22.2236147275548 18.2551120976343 ${z0} mol bs 24987 units box remap yes rotate 0 0 0 1
create_atoms  1 single 22.2236147275548 18.2551120976343 17 mol bs 24987 units box remap yes rotate 0 0 0 1
Created 30 atoms
  create_atoms CPU = 0.0001485 secs
variable      check1 equal ${check}               # Count the new total number of atoms
variable      check1 equal 2918               
# Check that the molecule has indeed been inserted (This check is no longer an issue).
if            "${check1} != ${check0}" then "create_bonds  single/bond 2 ${randatomi} $b" "next i"
create_bonds  single/bond 2 ${randatomi} $b
create_bonds  single/bond 2 2340 $b
create_bonds  single/bond 2 2340 2889
  2 = max # of 1-2 neighbors
  5 = max # of special neighbors
  special bonds CPU = 0.0026419 secs
next i
jump MDPBB.in loop    # End of the loop
variable      randni equal round(random(1,${ntwall},$s))  # Pick a random "top" wall atom
variable      randni equal round(random(1,2888,$s))  
variable      randni equal round(random(1,2888,234897))  
variable      randatomi equal ${randni}                   # This is to obtain an integer number for atom-id
variable      randatomi equal 2049                   
variable      randzi equal z[${randatomi}]                # Determine the z coordinate of the chosen atom
variable      randzi equal z[2049]                
# if the chosen atom is not a surface atom then restart the loop
if            "${randzi} < $(v_wthick - 0.7)" then "jump MDPBB.in loop"
jump MDPBB.in loop
variable      randni equal round(random(1,${ntwall},$s))  # Pick a random "top" wall atom
variable      randni equal round(random(1,2888,$s))  
variable      randni equal round(random(1,2888,234897))  
variable      randatomi equal ${randni}                   # This is to obtain an integer number for atom-id
variable      randatomi equal 1989                   
variable      randzi equal z[${randatomi}]                # Determine the z coordinate of the chosen atom
variable      randzi equal z[1989]                
# if the chosen atom is not a surface atom then restart the loop
if            "${randzi} < $(v_wthick - 0.7)" then "jump MDPBB.in loop"
jump MDPBB.in loop
variable      randni equal round(random(1,${ntwall},$s))  # Pick a random "top" wall atom
variable      randni equal round(random(1,2888,$s))  
variable      randni equal round(random(1,2888,234897))  
variable      randatomi equal ${randni}                   # This is to obtain an integer number for atom-id
variable      randatomi equal 1613                   
variable      randzi equal z[${randatomi}]                # Determine the z coordinate of the chosen atom
variable      randzi equal z[1613]                
# if the chosen atom is not a surface atom then restart the loop
if            "${randzi} < $(v_wthick - 0.7)" then "jump MDPBB.in loop"
jump MDPBB.in loop
variable      randni equal round(random(1,${ntwall},$s))  # Pick a random "top" wall atom
variable      randni equal round(random(1,2888,$s))  
variable      randni equal round(random(1,2888,234897))  
variable      randatomi equal ${randni}                   # This is to obtain an integer number for atom-id
variable      randatomi equal 2250                   
variable      randzi equal z[${randatomi}]                # Determine the z coordinate of the chosen atom
variable      randzi equal z[2250]                
# if the chosen atom is not a surface atom then restart the loop
if            "${randzi} < $(v_wthick - 0.7)" then "jump MDPBB.in loop"
jump MDPBB.in loop
variable      randni equal round(random(1,${ntwall},$s))  # Pick a random "top" wall atom
variable      randni equal round(random(1,2888,$s))  
variable      randni equal round(random(1,2888,234897))  
variable      randatomi equal ${randni}                   # This is to obtain an integer number for atom-id
variable      randatomi equal 1777                   
variable      randzi equal z[${randatomi}]                # Determine the z coordinate of the chosen atom
variable      randzi equal z[1777]                
# if the chosen atom is not a surface atom then restart the loop
if            "${randzi} < $(v_wthick - 0.7)" then "jump MDPBB.in loop"
jump MDPBB.in loop
variable      randni equal round(random(1,${ntwall},$s))  # Pick a random "top" wall atom
variable      randni equal round(random(1,2888,$s))  
variable      randni equal round(random(1,2888,234897))  
variable      randatomi equal ${randni}                   # This is to obtain an integer number for atom-id
variable      randatomi equal 1790                   
variable      randzi equal z[${randatomi}]                # Determine the z coordinate of the chosen atom
variable      randzi equal z[1790]                
# if the chosen atom is not a surface atom then restart the loop
if            "${randzi} < $(v_wthick - 0.7)" then "jump MDPBB.in loop"
jump MDPBB.in loop
variable      randni equal round(random(1,${ntwall},$s))  # Pick a random "top" wall atom
variable      randni equal round(random(1,2888,$s))  
variable      randni equal round(random(1,2888,234897))  
variable      randatomi equal ${randni}                   # This is to obtain an integer number for atom-id
variable      randatomi equal 346                   
variable      randzi equal z[${randatomi}]                # Determine the z coordinate of the chosen atom
variable      randzi equal z[346]                
# if the chosen atom is not a surface atom then restart the loop
if            "${randzi} < $(v_wthick - 0.7)" then "jump MDPBB.in loop"
jump MDPBB.in loop
variable      randni equal round(random(1,${ntwall},$s))  # Pick a random "top" wall atom
variable      randni equal round(random(1,2888,$s))  
variable      randni equal round(random(1,2888,234897))  
variable      randatomi equal ${randni}                   # This is to obtain an integer number for atom-id
variable      randatomi equal 2515                   
variable      randzi equal z[${randatomi}]                # Determine the z coordinate of the chosen atom
variable      randzi equal z[2515]                
# if the chosen atom is not a surface atom then restart the loop
if            "${randzi} < $(v_wthick - 0.7)" then "jump MDPBB.in loop"
set           atom ${randatomi} type 4                    # Set this grafted wall atom as a new type
set           atom 2515 type 4                    
  1 settings made for type
group         twg id ${randatomi}                         # Add this atom to a top-wall-grafted group
group         twg id 2515                         
2 atoms in group twg
variable      twgcount equal count(twg)
print         "twg contains ${twgcount}"
twg contains 2
print         "i = $(v_i)"                                # The index i should always be equal to the number of atom in twg
i = 2
variable      x0 equal x[${randatomi}]                    # Determine its x-coord
variable      x0 equal x[2515]                    
variable      y0 equal y[${randatomi}]                    # Determine its y-coord
variable      y0 equal y[2515]                    
variable      check0 equal ${check}                       # Count the number of atoms in the simulation
variable      check0 equal 2918                       
variable      b equal ${check}+1                          # The grafted bead id will be one higher after being inserted
variable      b equal 2918+1                          
if            "${twgcount} != $(v_i)" then "jump MDPBB.in loop"
# Otherwise insert the chain directly above the chosen wall atom pointing perpendicular to the wall
create_atoms  1 single ${x0} ${y0} ${z0} mol bs 24987 units box remap yes rotate 0 0 0 1
create_atoms  1 single 2.3811015779523 ${y0} ${z0} mol bs 24987 units box remap yes rotate 0 0 0 1
create_atoms  1 single 2.3811015779523 22.2236147275548 ${z0} mol bs 24987 units box remap yes rotate 0 0 0 1
create_atoms  1 single 2.3811015779523 22.2236147275548 17 mol bs 24987 units box remap yes rotate 0 0 0 1
Created 30 atoms
  create_atoms CPU = 6.92e-05 secs
variable      check1 equal ${check}               # Count the new total number of atoms
variable      check1 equal 2948               
# Check that the molecule has indeed been inserted (This check is no longer an issue).
if            "${check1} != ${check0}" then "create_bonds  single/bond 2 ${randatomi} $b" "next i"
create_bonds  single/bond 2 ${randatomi} $b
create_bonds  single/bond 2 2515 $b
create_bonds  single/bond 2 2515 2919
  2 = max # of 1-2 neighbors
  5 = max # of special neighbors
  special bonds CPU = 0.0030868 secs
next i
jump MDPBB.in loop    # End of the loop
variable      randni equal round(random(1,${ntwall},$s))  # Pick a random "top" wall atom
variable      randni equal round(random(1,2888,$s))  
variable      randni equal round(random(1,2888,234897))  
variable      randatomi equal ${randni}                   # This is to obtain an integer number for atom-id
variable      randatomi equal 1738                   
variable      randzi equal z[${randatomi}]                # Determine the z coordinate of the chosen atom
variable      randzi equal z[1738]                
# if the chosen atom is not a surface atom then restart the loop
if            "${randzi} < $(v_wthick - 0.7)" then "jump MDPBB.in loop"
jump MDPBB.in loop
variable      randni equal round(random(1,${ntwall},$s))  # Pick a random "top" wall atom
variable      randni equal round(random(1,2888,$s))  
variable      randni equal round(random(1,2888,234897))  
variable      randatomi equal ${randni}                   # This is to obtain an integer number for atom-id
variable      randatomi equal 2654                   
variable      randzi equal z[${randatomi}]                # Determine the z coordinate of the chosen atom
variable      randzi equal z[2654]                
# if the chosen atom is not a surface atom then restart the loop
if            "${randzi} < $(v_wthick - 0.7)" then "jump MDPBB.in loop"
jump MDPBB.in loop
variable      randni equal round(random(1,${ntwall},$s))  # Pick a random "top" wall atom
variable      randni equal round(random(1,2888,$s))  
variable      randni equal round(random(1,2888,234897))  
variable      randatomi equal ${randni}                   # This is to obtain an integer number for atom-id
variable      randatomi equal 2013                   
variable      randzi equal z[${randatomi}]                # Determine the z coordinate of the chosen atom
variable      randzi equal z[2013]                
# if the chosen atom is not a surface atom then restart the loop
if            "${randzi} < $(v_wthick - 0.7)" then "jump MDPBB.in loop"
jump MDPBB.in loop
variable      randni equal round(random(1,${ntwall},$s))  # Pick a random "top" wall atom
variable      randni equal round(random(1,2888,$s))  
variable      randni equal round(random(1,2888,234897))  
variable      randatomi equal ${randni}                   # This is to obtain an integer number for atom-id
variable      randatomi equal 2593                   
variable      randzi equal z[${randatomi}]                # Determine the z coordinate of the chosen atom
variable      randzi equal z[2593]                
# if the chosen atom is not a surface atom then restart the loop
if            "${randzi} < $(v_wthick - 0.7)" then "jump MDPBB.in loop"
jump MDPBB.in loop
variable      randni equal round(random(1,${ntwall},$s))  # Pick a random "top" wall atom
variable      randni equal round(random(1,2888,$s))  
variable      randni equal round(random(1,2888,234897))  
variable      randatomi equal ${randni}                   # This is to obtain an integer number for atom-id
variable      randatomi equal 1699                   
variable      randzi equal z[${randatomi}]                # Determine the z coordinate of the chosen atom
variable      randzi equal z[1699]                
# if the chosen atom is not a surface atom then restart the loop
if            "${randzi} < $(v_wthick - 0.7)" then "jump MDPBB.in loop"
set           atom ${randatomi} type 4                    # Set this grafted wall atom as a new type
set           atom 1699 type 4                    
  1 settings made for type
group         twg id ${randatomi}                         # Add this atom to a top-wall-grafted group
group         twg id 1699                         
3 atoms in group twg
variable      twgcount equal count(twg)
print         "twg contains ${twgcount}"
twg contains 3
print         "i = $(v_i)"                                # The index i should always be equal to the number of atom in twg
i = 3
variable      x0 equal x[${randatomi}]                    # Determine its x-coord
variable      x0 equal x[1699]                    
variable      y0 equal y[${randatomi}]                    # Determine its y-coord
variable      y0 equal y[1699]                    
variable      check0 equal ${check}                       # Count the number of atoms in the simulation
variable      check0 equal 2948                       
variable      b equal ${check}+1                          # The grafted bead id will be one higher after being inserted
variable      b equal 2948+1                          
if            "${twgcount} != $(v_i)" then "jump MDPBB.in loop"
# Otherwise insert the chain directly above the chosen wall atom pointing perpendicular to the wall
create_atoms  1 single ${x0} ${y0} ${z0} mol bs 24987 units box remap yes rotate 0 0 0 1
create_atoms  1 single 10.3181068377933 ${y0} ${z0} mol bs 24987 units box remap yes rotate 0 0 0 1
create_atoms  1 single 10.3181068377933 4.7622031559046 ${z0} mol bs 24987 units box remap yes rotate 0 0 0 1
create_atoms  1 single 10.3181068377933 4.7622031559046 17 mol bs 24987 units box remap yes rotate 0 0 0 1
Created 30 atoms
  create_atoms CPU = 8.84e-05 secs
variable      check1 equal ${check}               # Count the new total number of atoms
variable      check1 equal 2978               
# Check that the molecule has indeed been inserted (This check is no longer an issue).
if            "${check1} != ${check0}" then "create_bonds  single/bond 2 ${randatomi} $b" "next i"
create_bonds  single/bond 2 ${randatomi} $b
create_bonds  single/bond 2 1699 $b
create_bonds  single/bond 2 1699 2949
  2 = max # of 1-2 neighbors
  5 = max # of special neighbors
  special bonds CPU = 0.0039141 secs
next i
jump MDPBB.in loop    # End of the loop
variable      randni equal round(random(1,${ntwall},$s))  # Pick a random "top" wall atom
variable      randni equal round(random(1,2888,$s))  
variable      randni equal round(random(1,2888,234897))  
variable      randatomi equal ${randni}                   # This is to obtain an integer number for atom-id
variable      randatomi equal 2456                   
variable      randzi equal z[${randatomi}]                # Determine the z coordinate of the chosen atom
variable      randzi equal z[2456]                
# if the chosen atom is not a surface atom then restart the loop
if            "${randzi} < $(v_wthick - 0.7)" then "jump MDPBB.in loop"
set           atom ${randatomi} type 4                    # Set this grafted wall atom as a new type
set           atom 2456 type 4                    
  1 settings made for type
group         twg id ${randatomi}                         # Add this atom to a top-wall-grafted group
group         twg id 2456                         
4 atoms in group twg
variable      twgcount equal count(twg)
print         "twg contains ${twgcount}"
twg contains 4
print         "i = $(v_i)"                                # The index i should always be equal to the number of atom in twg
i = 4
variable      x0 equal x[${randatomi}]                    # Determine its x-coord
variable      x0 equal x[2456]                    
variable      y0 equal y[${randatomi}]                    # Determine its y-coord
variable      y0 equal y[2456]                    
variable      check0 equal ${check}                       # Count the number of atoms in the simulation
variable      check0 equal 2978                       
variable      b equal ${check}+1                          # The grafted bead id will be one higher after being inserted
variable      b equal 2978+1                          
if            "${twgcount} != $(v_i)" then "jump MDPBB.in loop"
# Otherwise insert the chain directly above the chosen wall atom pointing perpendicular to the wall
create_atoms  1 single ${x0} ${y0} ${z0} mol bs 24987 units box remap yes rotate 0 0 0 1
create_atoms  1 single 7.937005259841 ${y0} ${z0} mol bs 24987 units box remap yes rotate 0 0 0 1
create_atoms  1 single 7.937005259841 21.4299142015707 ${z0} mol bs 24987 units box remap yes rotate 0 0 0 1
create_atoms  1 single 7.937005259841 21.4299142015707 17 mol bs 24987 units box remap yes rotate 0 0 0 1
Created 30 atoms
  create_atoms CPU = 0.0001103 secs
variable      check1 equal ${check}               # Count the new total number of atoms
variable      check1 equal 3008               
# Check that the molecule has indeed been inserted (This check is no longer an issue).
if            "${check1} != ${check0}" then "create_bonds  single/bond 2 ${randatomi} $b" "next i"
create_bonds  single/bond 2 ${randatomi} $b
create_bonds  single/bond 2 2456 $b
create_bonds  single/bond 2 2456 2979
  2 = max # of 1-2 neighbors
  5 = max # of special neighbors
  special bonds CPU = 0.0046561 secs
next i
jump MDPBB.in loop    # End of the loop
variable      randni equal round(random(1,${ntwall},$s))  # Pick a random "top" wall atom
variable      randni equal round(random(1,2888,$s))  
variable      randni equal round(random(1,2888,234897))  
variable      randatomi equal ${randni}                   # This is to obtain an integer number for atom-id
variable      randatomi equal 2420                   
variable      randzi equal z[${randatomi}]                # Determine the z coordinate of the chosen atom
variable      randzi equal z[2420]                
# if the chosen atom is not a surface atom then restart the loop
if            "${randzi} < $(v_wthick - 0.7)" then "jump MDPBB.in loop"
set           atom ${randatomi} type 4                    # Set this grafted wall atom as a new type
set           atom 2420 type 4                    
  1 settings made for type
group         twg id ${randatomi}                         # Add this atom to a top-wall-grafted group
group         twg id 2420                         
5 atoms in group twg
variable      twgcount equal count(twg)
print         "twg contains ${twgcount}"
twg contains 5
print         "i = $(v_i)"                                # The index i should always be equal to the number of atom in twg
i = 5
variable      x0 equal x[${randatomi}]                    # Determine its x-coord
variable      x0 equal x[2420]                    
variable      y0 equal y[${randatomi}]                    # Determine its y-coord
variable      y0 equal y[2420]                    
variable      check0 equal ${check}                       # Count the number of atoms in the simulation
variable      check0 equal 3008                       
variable      b equal ${check}+1                          # The grafted bead id will be one higher after being inserted
variable      b equal 3008+1                          
if            "${twgcount} != $(v_i)" then "jump MDPBB.in loop"
# Otherwise insert the chain directly above the chosen wall atom pointing perpendicular to the wall
create_atoms  1 single ${x0} ${y0} ${z0} mol bs 24987 units box remap yes rotate 0 0 0 1
create_atoms  1 single 23.811015779523 ${y0} ${z0} mol bs 24987 units box remap yes rotate 0 0 0 1
create_atoms  1 single 23.811015779523 19.8425131496025 ${z0} mol bs 24987 units box remap yes rotate 0 0 0 1
create_atoms  1 single 23.811015779523 19.8425131496025 17 mol bs 24987 units box remap yes rotate 0 0 0 1
Created 30 atoms
  create_atoms CPU = 0.0001172 secs
variable      check1 equal ${check}               # Count the new total number of atoms
variable      check1 equal 3038               
# Check that the molecule has indeed been inserted (This check is no longer an issue).
if            "${check1} != ${check0}" then "create_bonds  single/bond 2 ${randatomi} $b" "next i"
create_bonds  single/bond 2 ${randatomi} $b
create_bonds  single/bond 2 2420 $b
create_bonds  single/bond 2 2420 3009
  2 = max # of 1-2 neighbors
  5 = max # of special neighbors
  special bonds CPU = 0.0040294 secs
next i
jump MDPBB.in loop    # End of the loop
variable      randni equal round(random(1,${ntwall},$s))  # Pick a random "top" wall atom
variable      randni equal round(random(1,2888,$s))  
variable      randni equal round(random(1,2888,234897))  
variable      randatomi equal ${randni}                   # This is to obtain an integer number for atom-id
variable      randatomi equal 1201                   
variable      randzi equal z[${randatomi}]                # Determine the z coordinate of the chosen atom
variable      randzi equal z[1201]                
# if the chosen atom is not a surface atom then restart the loop
if            "${randzi} < $(v_wthick - 0.7)" then "jump MDPBB.in loop"
jump MDPBB.in loop
variable      randni equal round(random(1,${ntwall},$s))  # Pick a random "top" wall atom
variable      randni equal round(random(1,2888,$s))  
variable      randni equal round(random(1,2888,234897))  
variable      randatomi equal ${randni}                   # This is to obtain an integer number for atom-id
variable      randatomi equal 2884                   
variable      randzi equal z[${randatomi}]                # Determine the z coordinate of the chosen atom
variable      randzi equal z[2884]                
# if the chosen atom is not a surface atom then restart the loop
if            "${randzi} < $(v_wthick - 0.7)" then "jump MDPBB.in loop"
set           atom ${randatomi} type 4                    # Set this grafted wall atom as a new type
set           atom 2884 type 4                    
  1 settings made for type
group         twg id ${randatomi}                         # Add this atom to a top-wall-grafted group
group         twg id 2884                         
6 atoms in group twg
variable      twgcount equal count(twg)
print         "twg contains ${twgcount}"
twg contains 6
print         "i = $(v_i)"                                # The index i should always be equal to the number of atom in twg
i = 6
variable      x0 equal x[${randatomi}]                    # Determine its x-coord
variable      x0 equal x[2884]                    
variable      y0 equal y[${randatomi}]                    # Determine its y-coord
variable      y0 equal y[2884]                    
variable      check0 equal ${check}                       # Count the number of atoms in the simulation
variable      check0 equal 3038                       
variable      b equal ${check}+1                          # The grafted bead id will be one higher after being inserted
variable      b equal 3038+1                          
if            "${twgcount} != $(v_i)" then "jump MDPBB.in loop"
# Otherwise insert the chain directly above the chosen wall atom pointing perpendicular to the wall
create_atoms  1 single ${x0} ${y0} ${z0} mol bs 24987 units box remap yes rotate 0 0 0 1
create_atoms  1 single 26.9858178834594 ${y0} ${z0} mol bs 24987 units box remap yes rotate 0 0 0 1
create_atoms  1 single 26.9858178834594 29.3669194614117 ${z0} mol bs 24987 units box remap yes rotate 0 0 0 1
create_atoms  1 single 26.9858178834594 29.3669194614117 17 mol bs 24987 units box remap yes rotate 0 0 0 1
Created 30 atoms
  create_atoms CPU = 0.0001128 secs
variable      check1 equal ${check}               # Count the new total number of atoms
variable      check1 equal 3068               
# Check that the molecule has indeed been inserted (This check is no longer an issue).
if            "${check1} != ${check0}" then "create_bonds  single/bond 2 ${randatomi} $b" "next i"
create_bonds  single/bond 2 ${randatomi} $b
create_bonds  single/bond 2 2884 $b
create_bonds  single/bond 2 2884 3039
  2 = max # of 1-2 neighbors
  5 = max # of special neighbors
  special bonds CPU = 0.0053907 secs
next i
jump MDPBB.in loop    # End of the loop
variable      randni equal round(random(1,${ntwall},$s))  # Pick a random "top" wall atom
variable      randni equal round(random(1,2888,$s))  
variable      randni equal round(random(1,2888,234897))  
variable      randatomi equal ${randni}                   # This is to obtain an integer number for atom-id
variable      randatomi equal 2815                   
variable      randzi equal z[${randatomi}]                # Determine the z coordinate of the chosen atom
variable      randzi equal z[2815]                
# if the chosen atom is not a surface atom then restart the loop
if            "${randzi} < $(v_wthick - 0.7)" then "jump MDPBB.in loop"
set           atom ${randatomi} type 4                    # Set this grafted wall atom as a new type
set           atom 2815 type 4                    
  1 settings made for type
group         twg id ${randatomi}                         # Add this atom to a top-wall-grafted group
group         twg id 2815                         
7 atoms in group twg
variable      twgcount equal count(twg)
print         "twg contains ${twgcount}"
twg contains 7
print         "i = $(v_i)"                                # The index i should always be equal to the number of atom in twg
i = 7
variable      x0 equal x[${randatomi}]                    # Determine its x-coord
variable      x0 equal x[2815]                    
variable      y0 equal y[${randatomi}]                    # Determine its y-coord
variable      y0 equal y[2815]                    
variable      check0 equal ${check}                       # Count the number of atoms in the simulation
variable      check0 equal 3068                       
variable      b equal ${check}+1                          # The grafted bead id will be one higher after being inserted
variable      b equal 3068+1                          
if            "${twgcount} != $(v_i)" then "jump MDPBB.in loop"
# Otherwise insert the chain directly above the chosen wall atom pointing perpendicular to the wall
create_atoms  1 single ${x0} ${y0} ${z0} mol bs 24987 units box remap yes rotate 0 0 0 1
create_atoms  1 single 0.7937005259841 ${y0} ${z0} mol bs 24987 units box remap yes rotate 0 0 0 1
create_atoms  1 single 0.7937005259841 28.5732189354276 ${z0} mol bs 24987 units box remap yes rotate 0 0 0 1
create_atoms  1 single 0.7937005259841 28.5732189354276 17 mol bs 24987 units box remap yes rotate 0 0 0 1
Created 30 atoms
  create_atoms CPU = 0.0001579 secs
variable      check1 equal ${check}               # Count the new total number of atoms
variable      check1 equal 3098               
# Check that the molecule has indeed been inserted (This check is no longer an issue).
if            "${check1} != ${check0}" then "create_bonds  single/bond 2 ${randatomi} $b" "next i"
create_bonds  single/bond 2 ${randatomi} $b
create_bonds  single/bond 2 2815 $b
create_bonds  single/bond 2 2815 3069
  2 = max # of 1-2 neighbors
  5 = max # of special neighbors
  special bonds CPU = 0.0031424 secs
next i
jump MDPBB.in loop    # End of the loop
variable      randni equal round(random(1,${ntwall},$s))  # Pick a random "top" wall atom
variable      randni equal round(random(1,2888,$s))  
variable      randni equal round(random(1,2888,234897))  
variable      randatomi equal ${randni}                   # This is to obtain an integer number for atom-id
variable      randatomi equal 2092                   
variable      randzi equal z[${randatomi}]                # Determine the z coordinate of the chosen atom
variable      randzi equal z[2092]                
# if the chosen atom is not a surface atom then restart the loop
if            "${randzi} < $(v_wthick - 0.7)" then "jump MDPBB.in loop"
set           atom ${randatomi} type 4                    # Set this grafted wall atom as a new type
set           atom 2092 type 4                    
  1 settings made for type
group         twg id ${randatomi}                         # Add this atom to a top-wall-grafted group
group         twg id 2092                         
8 atoms in group twg
variable      twgcount equal count(twg)
print         "twg contains ${twgcount}"
twg contains 8
print         "i = $(v_i)"                                # The index i should always be equal to the number of atom in twg
i = 8
variable      x0 equal x[${randatomi}]                    # Determine its x-coord
variable      x0 equal x[2092]                    
variable      y0 equal y[${randatomi}]                    # Determine its y-coord
variable      y0 equal y[2092]                    
variable      check0 equal ${check}                       # Count the number of atoms in the simulation
variable      check0 equal 3098                       
variable      b equal ${check}+1                          # The grafted bead id will be one higher after being inserted
variable      b equal 3098+1                          
if            "${twgcount} != $(v_i)" then "jump MDPBB.in loop"
# Otherwise insert the chain directly above the chosen wall atom pointing perpendicular to the wall
create_atoms  1 single ${x0} ${y0} ${z0} mol bs 24987 units box remap yes rotate 0 0 0 1
create_atoms  1 single 14.2866094677138 ${y0} ${z0} mol bs 24987 units box remap yes rotate 0 0 0 1
create_atoms  1 single 14.2866094677138 13.4929089417297 ${z0} mol bs 24987 units box remap yes rotate 0 0 0 1
create_atoms  1 single 14.2866094677138 13.4929089417297 17 mol bs 24987 units box remap yes rotate 0 0 0 1
Created 30 atoms
  create_atoms CPU = 0.0001451 secs
variable      check1 equal ${check}               # Count the new total number of atoms
variable      check1 equal 3128               
# Check that the molecule has indeed been inserted (This check is no longer an issue).
if            "${check1} != ${check0}" then "create_bonds  single/bond 2 ${randatomi} $b" "next i"
create_bonds  single/bond 2 ${randatomi} $b
create_bonds  single/bond 2 2092 $b
create_bonds  single/bond 2 2092 3099
  2 = max # of 1-2 neighbors
  5 = max # of special neighbors
  special bonds CPU = 0.0032595 secs
next i
jump MDPBB.in loop    # End of the loop
variable      randni equal round(random(1,${ntwall},$s))  # Pick a random "top" wall atom
variable      randni equal round(random(1,2888,$s))  
variable      randni equal round(random(1,2888,234897))  
variable      randatomi equal ${randni}                   # This is to obtain an integer number for atom-id
variable      randatomi equal 2713                   
variable      randzi equal z[${randatomi}]                # Determine the z coordinate of the chosen atom
variable      randzi equal z[2713]                
# if the chosen atom is not a surface atom then restart the loop
if            "${randzi} < $(v_wthick - 0.7)" then "jump MDPBB.in loop"
jump MDPBB.in loop
variable      randni equal round(random(1,${ntwall},$s))  # Pick a random "top" wall atom
variable      randni equal round(random(1,2888,$s))  
variable      randni equal round(random(1,2888,234897))  
variable      randatomi equal ${randni}                   # This is to obtain an integer number for atom-id
variable      randatomi equal 682                   
variable      randzi equal z[${randatomi}]                # Determine the z coordinate of the chosen atom
variable      randzi equal z[682]                
# if the chosen atom is not a surface atom then restart the loop
if            "${randzi} < $(v_wthick - 0.7)" then "jump MDPBB.in loop"
jump MDPBB.in loop
variable      randni equal round(random(1,${ntwall},$s))  # Pick a random "top" wall atom
variable      randni equal round(random(1,2888,$s))  
variable      randni equal round(random(1,2888,234897))  
variable      randatomi equal ${randni}                   # This is to obtain an integer number for atom-id
variable      randatomi equal 2694                   
variable      randzi equal z[${randatomi}]                # Determine the z coordinate of the chosen atom
variable      randzi equal z[2694]                
# if the chosen atom is not a surface atom then restart the loop
if            "${randzi} < $(v_wthick - 0.7)" then "jump MDPBB.in loop"
jump MDPBB.in loop
variable      randni equal round(random(1,${ntwall},$s))  # Pick a random "top" wall atom
variable      randni equal round(random(1,2888,$s))  
variable      randni equal round(random(1,2888,234897))  
variable      randatomi equal ${randni}                   # This is to obtain an integer number for atom-id
variable      randatomi equal 378                   
variable      randzi equal z[${randatomi}]                # Determine the z coordinate of the chosen atom
variable      randzi equal z[378]                
# if the chosen atom is not a surface atom then restart the loop
if            "${randzi} < $(v_wthick - 0.7)" then "jump MDPBB.in loop"
jump MDPBB.in loop
variable      randni equal round(random(1,${ntwall},$s))  # Pick a random "top" wall atom
variable      randni equal round(random(1,2888,$s))  
variable      randni equal round(random(1,2888,234897))  
variable      randatomi equal ${randni}                   # This is to obtain an integer number for atom-id
variable      randatomi equal 2456                   
variable      randzi equal z[${randatomi}]                # Determine the z coordinate of the chosen atom
variable      randzi equal z[2456]                
# if the chosen atom is not a surface atom then restart the loop
if            "${randzi} < $(v_wthick - 0.7)" then "jump MDPBB.in loop"
set           atom ${randatomi} type 4                    # Set this grafted wall atom as a new type
set           atom 2456 type 4                    
  1 settings made for type
group         twg id ${randatomi}                         # Add this atom to a top-wall-grafted group
group         twg id 2456                         
8 atoms in group twg
variable      twgcount equal count(twg)
print         "twg contains ${twgcount}"
twg contains 8
print         "i = $(v_i)"                                # The index i should always be equal to the number of atom in twg
i = 9
variable      x0 equal x[${randatomi}]                    # Determine its x-coord
variable      x0 equal x[2456]                    
variable      y0 equal y[${randatomi}]                    # Determine its y-coord
variable      y0 equal y[2456]                    
variable      check0 equal ${check}                       # Count the number of atoms in the simulation
variable      check0 equal 3128                       
variable      b equal ${check}+1                          # The grafted bead id will be one higher after being inserted
variable      b equal 3128+1                          
if            "${twgcount} != $(v_i)" then "jump MDPBB.in loop"
jump MDPBB.in loop
variable      randni equal round(random(1,${ntwall},$s))  # Pick a random "top" wall atom
variable      randni equal round(random(1,2888,$s))  
variable      randni equal round(random(1,2888,234897))  
variable      randatomi equal ${randni}                   # This is to obtain an integer number for atom-id
variable      randatomi equal 2698                   
variable      randzi equal z[${randatomi}]                # Determine the z coordinate of the chosen atom
variable      randzi equal z[2698]                
# if the chosen atom is not a surface atom then restart the loop
if            "${randzi} < $(v_wthick - 0.7)" then "jump MDPBB.in loop"
jump MDPBB.in loop
variable      randni equal round(random(1,${ntwall},$s))  # Pick a random "top" wall atom
variable      randni equal round(random(1,2888,$s))  
variable      randni equal round(random(1,2888,234897))  
variable      randatomi equal ${randni}                   # This is to obtain an integer number for atom-id
variable      randatomi equal 989                   
variable      randzi equal z[${randatomi}]                # Determine the z coordinate of the chosen atom
variable      randzi equal z[989]                
# if the chosen atom is not a surface atom then restart the loop
if            "${randzi} < $(v_wthick - 0.7)" then "jump MDPBB.in loop"
jump MDPBB.in loop
variable      randni equal round(random(1,${ntwall},$s))  # Pick a random "top" wall atom
variable      randni equal round(random(1,2888,$s))  
variable      randni equal round(random(1,2888,234897))  
variable      randatomi equal ${randni}                   # This is to obtain an integer number for atom-id
variable      randatomi equal 752                   
variable      randzi equal z[${randatomi}]                # Determine the z coordinate of the chosen atom
variable      randzi equal z[752]                
# if the chosen atom is not a surface atom then restart the loop
if            "${randzi} < $(v_wthick - 0.7)" then "jump MDPBB.in loop"
jump MDPBB.in loop
variable      randni equal round(random(1,${ntwall},$s))  # Pick a random "top" wall atom
variable      randni equal round(random(1,2888,$s))  
variable      randni equal round(random(1,2888,234897))  
variable      randatomi equal ${randni}                   # This is to obtain an integer number for atom-id
variable      randatomi equal 1918                   
variable      randzi equal z[${randatomi}]                # Determine the z coordinate of the chosen atom
variable      randzi equal z[1918]                
# if the chosen atom is not a surface atom then restart the loop
if            "${randzi} < $(v_wthick - 0.7)" then "jump MDPBB.in loop"
jump MDPBB.in loop
variable      randni equal round(random(1,${ntwall},$s))  # Pick a random "top" wall atom
variable      randni equal round(random(1,2888,$s))  
variable      randni equal round(random(1,2888,234897))  
variable      randatomi equal ${randni}                   # This is to obtain an integer number for atom-id
variable      randatomi equal 1347                   
variable      randzi equal z[${randatomi}]                # Determine the z coordinate of the chosen atom
variable      randzi equal z[1347]                
# if the chosen atom is not a surface atom then restart the loop
if            "${randzi} < $(v_wthick - 0.7)" then "jump MDPBB.in loop"
jump MDPBB.in loop
variable      randni equal round(random(1,${ntwall},$s))  # Pick a random "top" wall atom
variable      randni equal round(random(1,2888,$s))  
variable      randni equal round(random(1,2888,234897))  
variable      randatomi equal ${randni}                   # This is to obtain an integer number for atom-id
variable      randatomi equal 418                   
variable      randzi equal z[${randatomi}]                # Determine the z coordinate of the chosen atom
variable      randzi equal z[418]                
# if the chosen atom is not a surface atom then restart the loop
if            "${randzi} < $(v_wthick - 0.7)" then "jump MDPBB.in loop"
jump MDPBB.in loop
variable      randni equal round(random(1,${ntwall},$s))  # Pick a random "top" wall atom
variable      randni equal round(random(1,2888,$s))  
variable      randni equal round(random(1,2888,234897))  
variable      randatomi equal ${randni}                   # This is to obtain an integer number for atom-id
variable      randatomi equal 2659                   
variable      randzi equal z[${randatomi}]                # Determine the z coordinate of the chosen atom
variable      randzi equal z[2659]                
# if the chosen atom is not a surface atom then restart the loop
if            "${randzi} < $(v_wthick - 0.7)" then "jump MDPBB.in loop"
set           atom ${randatomi} type 4                    # Set this grafted wall atom as a new type
set           atom 2659 type 4                    
  1 settings made for type
group         twg id ${randatomi}                         # Add this atom to a top-wall-grafted group
group         twg id 2659                         
9 atoms in group twg
variable      twgcount equal count(twg)
print         "twg contains ${twgcount}"
twg contains 9
print         "i = $(v_i)"                                # The index i should always be equal to the number of atom in twg
i = 9
variable      x0 equal x[${randatomi}]                    # Determine its x-coord
variable      x0 equal x[2659]                    
variable      y0 equal y[${randatomi}]                    # Determine its y-coord
variable      y0 equal y[2659]                    
variable      check0 equal ${check}                       # Count the number of atoms in the simulation
variable      check0 equal 3128                       
variable      b equal ${check}+1                          # The grafted bead id will be one higher after being inserted
variable      b equal 3128+1                          
if            "${twgcount} != $(v_i)" then "jump MDPBB.in loop"
# Otherwise insert the chain directly above the chosen wall atom pointing perpendicular to the wall
create_atoms  1 single ${x0} ${y0} ${z0} mol bs 24987 units box remap yes rotate 0 0 0 1
create_atoms  1 single 29.3669194614117 ${y0} ${z0} mol bs 24987 units box remap yes rotate 0 0 0 1
create_atoms  1 single 29.3669194614117 23.811015779523 ${z0} mol bs 24987 units box remap yes rotate 0 0 0 1
create_atoms  1 single 29.3669194614117 23.811015779523 17 mol bs 24987 units box remap yes rotate 0 0 0 1
Created 30 atoms
  create_atoms CPU = 0.0001093 secs
variable      check1 equal ${check}               # Count the new total number of atoms
variable      check1 equal 3158               
# Check that the molecule has indeed been inserted (This check is no longer an issue).
if            "${check1} != ${check0}" then "create_bonds  single/bond 2 ${randatomi} $b" "next i"
create_bonds  single/bond 2 ${randatomi} $b
create_bonds  single/bond 2 2659 $b
create_bonds  single/bond 2 2659 3129
  2 = max # of 1-2 neighbors
  5 = max # of special neighbors
  special bonds CPU = 0.0038226 secs
next i
jump MDPBB.in loop    # End of the loop
variable      randni equal round(random(1,${ntwall},$s))  # Pick a random "top" wall atom
variable      randni equal round(random(1,2888,$s))  
variable      randni equal round(random(1,2888,234897))  
variable      randatomi equal ${randni}                   # This is to obtain an integer number for atom-id
variable      randatomi equal 2763                   
variable      randzi equal z[${randatomi}]                # Determine the z coordinate of the chosen atom
variable      randzi equal z[2763]                
# if the chosen atom is not a surface atom then restart the loop
if            "${randzi} < $(v_wthick - 0.7)" then "jump MDPBB.in loop"
set           atom ${randatomi} type 4                    # Set this grafted wall atom as a new type
set           atom 2763 type 4                    
  1 settings made for type
group         twg id ${randatomi}                         # Add this atom to a top-wall-grafted group
group         twg id 2763                         
10 atoms in group twg
variable      twgcount equal count(twg)
print         "twg contains ${twgcount}"
twg contains 10
print         "i = $(v_i)"                                # The index i should always be equal to the number of atom in twg
i = 10
variable      x0 equal x[${randatomi}]                    # Determine its x-coord
variable      x0 equal x[2763]                    
variable      y0 equal y[${randatomi}]                    # Determine its y-coord
variable      y0 equal y[2763]                    
variable      check0 equal ${check}                       # Count the number of atoms in the simulation
variable      check0 equal 3158                       
variable      b equal ${check}+1                          # The grafted bead id will be one higher after being inserted
variable      b equal 3158+1                          
if            "${twgcount} != $(v_i)" then "jump MDPBB.in loop"
# Otherwise insert the chain directly above the chosen wall atom pointing perpendicular to the wall
create_atoms  1 single ${x0} ${y0} ${z0} mol bs 24987 units box remap yes rotate 0 0 0 1
create_atoms  1 single 10.3181068377933 ${y0} ${z0} mol bs 24987 units box remap yes rotate 0 0 0 1
create_atoms  1 single 10.3181068377933 26.9858178834594 ${z0} mol bs 24987 units box remap yes rotate 0 0 0 1
create_atoms  1 single 10.3181068377933 26.9858178834594 17 mol bs 24987 units box remap yes rotate 0 0 0 1
Created 30 atoms
  create_atoms CPU = 0.0001172 secs
variable      check1 equal ${check}               # Count the new total number of atoms
variable      check1 equal 3188               
# Check that the molecule has indeed been inserted (This check is no longer an issue).
if            "${check1} != ${check0}" then "create_bonds  single/bond 2 ${randatomi} $b" "next i"
create_bonds  single/bond 2 ${randatomi} $b
create_bonds  single/bond 2 2763 $b
create_bonds  single/bond 2 2763 3159
  2 = max # of 1-2 neighbors
  5 = max # of special neighbors
  special bonds CPU = 0.0046399 secs
next i
jump MDPBB.in loop    # End of the loop
variable      randni equal round(random(1,${ntwall},$s))  # Pick a random "top" wall atom
variable      randni equal round(random(1,2888,$s))  
variable      randni equal round(random(1,2888,234897))  
variable      randatomi equal ${randni}                   # This is to obtain an integer number for atom-id
variable      randatomi equal 2611                   
variable      randzi equal z[${randatomi}]                # Determine the z coordinate of the chosen atom
variable      randzi equal z[2611]                
# if the chosen atom is not a surface atom then restart the loop
if            "${randzi} < $(v_wthick - 0.7)" then "jump MDPBB.in loop"
set           atom ${randatomi} type 4                    # Set this grafted wall atom as a new type
set           atom 2611 type 4                    
  1 settings made for type
group         twg id ${randatomi}                         # Add this atom to a top-wall-grafted group
group         twg id 2611                         
11 atoms in group twg
variable      twgcount equal count(twg)
print         "twg contains ${twgcount}"
twg contains 11
print         "i = $(v_i)"                                # The index i should always be equal to the number of atom in twg
i = 11
variable      x0 equal x[${randatomi}]                    # Determine its x-coord
variable      x0 equal x[2611]                    
variable      y0 equal y[${randatomi}]                    # Determine its y-coord
variable      y0 equal y[2611]                    
variable      check0 equal ${check}                       # Count the number of atoms in the simulation
variable      check0 equal 3188                       
variable      b equal ${check}+1                          # The grafted bead id will be one higher after being inserted
variable      b equal 3188+1                          
if            "${twgcount} != $(v_i)" then "jump MDPBB.in loop"
# Otherwise insert the chain directly above the chosen wall atom pointing perpendicular to the wall
create_atoms  1 single ${x0} ${y0} ${z0} mol bs 24987 units box remap yes rotate 0 0 0 1
create_atoms  1 single 10.3181068377933 ${y0} ${z0} mol bs 24987 units box remap yes rotate 0 0 0 1
create_atoms  1 single 10.3181068377933 23.811015779523 ${z0} mol bs 24987 units box remap yes rotate 0 0 0 1
create_atoms  1 single 10.3181068377933 23.811015779523 17 mol bs 24987 units box remap yes rotate 0 0 0 1
Created 30 atoms
  create_atoms CPU = 0.0001407 secs
variable      check1 equal ${check}               # Count the new total number of atoms
variable      check1 equal 3218               
# Check that the molecule has indeed been inserted (This check is no longer an issue).
if            "${check1} != ${check0}" then "create_bonds  single/bond 2 ${randatomi} $b" "next i"
create_bonds  single/bond 2 ${randatomi} $b
create_bonds  single/bond 2 2611 $b
create_bonds  single/bond 2 2611 3189
  2 = max # of 1-2 neighbors
  5 = max # of special neighbors
  special bonds CPU = 0.0035198 secs
next i
jump MDPBB.in loop    # End of the loop
variable      randni equal round(random(1,${ntwall},$s))  # Pick a random "top" wall atom
variable      randni equal round(random(1,2888,$s))  
variable      randni equal round(random(1,2888,234897))  
variable      randatomi equal ${randni}                   # This is to obtain an integer number for atom-id
variable      randatomi equal 2302                   
variable      randzi equal z[${randatomi}]                # Determine the z coordinate of the chosen atom
variable      randzi equal z[2302]                
# if the chosen atom is not a surface atom then restart the loop
if            "${randzi} < $(v_wthick - 0.7)" then "jump MDPBB.in loop"
jump MDPBB.in loop
variable      randni equal round(random(1,${ntwall},$s))  # Pick a random "top" wall atom
variable      randni equal round(random(1,2888,$s))  
variable      randni equal round(random(1,2888,234897))  
variable      randatomi equal ${randni}                   # This is to obtain an integer number for atom-id
variable      randatomi equal 1267                   
variable      randzi equal z[${randatomi}]                # Determine the z coordinate of the chosen atom
variable      randzi equal z[1267]                
# if the chosen atom is not a surface atom then restart the loop
if            "${randzi} < $(v_wthick - 0.7)" then "jump MDPBB.in loop"
jump MDPBB.in loop
variable      randni equal round(random(1,${ntwall},$s))  # Pick a random "top" wall atom
variable      randni equal round(random(1,2888,$s))  
variable      randni equal round(random(1,2888,234897))  
variable      randatomi equal ${randni}                   # This is to obtain an integer number for atom-id
variable      randatomi equal 1072                   
variable      randzi equal z[${randatomi}]                # Determine the z coordinate of the chosen atom
variable      randzi equal z[1072]                
# if the chosen atom is not a surface atom then restart the loop
if            "${randzi} < $(v_wthick - 0.7)" then "jump MDPBB.in loop"
jump MDPBB.in loop
variable      randni equal round(random(1,${ntwall},$s))  # Pick a random "top" wall atom
variable      randni equal round(random(1,2888,$s))  
variable      randni equal round(random(1,2888,234897))  
variable      randatomi equal ${randni}                   # This is to obtain an integer number for atom-id
variable      randatomi equal 2025                   
variable      randzi equal z[${randatomi}]                # Determine the z coordinate of the chosen atom
variable      randzi equal z[2025]                
# if the chosen atom is not a surface atom then restart the loop
if            "${randzi} < $(v_wthick - 0.7)" then "jump MDPBB.in loop"
jump MDPBB.in loop
variable      randni equal round(random(1,${ntwall},$s))  # Pick a random "top" wall atom
variable      randni equal round(random(1,2888,$s))  
variable      randni equal round(random(1,2888,234897))  
variable      randatomi equal ${randni}                   # This is to obtain an integer number for atom-id
variable      randatomi equal 271                   
variable      randzi equal z[${randatomi}]                # Determine the z coordinate of the chosen atom
variable      randzi equal z[271]                
# if the chosen atom is not a surface atom then restart the loop
if            "${randzi} < $(v_wthick - 0.7)" then "jump MDPBB.in loop"
jump MDPBB.in loop
variable      randni equal round(random(1,${ntwall},$s))  # Pick a random "top" wall atom
variable      randni equal round(random(1,2888,$s))  
variable      randni equal round(random(1,2888,234897))  
variable      randatomi equal ${randni}                   # This is to obtain an integer number for atom-id
variable      randatomi equal 1094                   
variable      randzi equal z[${randatomi}]                # Determine the z coordinate of the chosen atom
variable      randzi equal z[1094]                
# if the chosen atom is not a surface atom then restart the loop
if            "${randzi} < $(v_wthick - 0.7)" then "jump MDPBB.in loop"
jump MDPBB.in loop
variable      randni equal round(random(1,${ntwall},$s))  # Pick a random "top" wall atom
variable      randni equal round(random(1,2888,$s))  
variable      randni equal round(random(1,2888,234897))  
variable      randatomi equal ${randni}                   # This is to obtain an integer number for atom-id
variable      randatomi equal 1260                   
variable      randzi equal z[${randatomi}]                # Determine the z coordinate of the chosen atom
variable      randzi equal z[1260]                
# if the chosen atom is not a surface atom then restart the loop
if            "${randzi} < $(v_wthick - 0.7)" then "jump MDPBB.in loop"
jump MDPBB.in loop
variable      randni equal round(random(1,${ntwall},$s))  # Pick a random "top" wall atom
variable      randni equal round(random(1,2888,$s))  
variable      randni equal round(random(1,2888,234897))  
variable      randatomi equal ${randni}                   # This is to obtain an integer number for atom-id
variable      randatomi equal 949                   
variable      randzi equal z[${randatomi}]                # Determine the z coordinate of the chosen atom
variable      randzi equal z[949]                
# if the chosen atom is not a surface atom then restart the loop
if            "${randzi} < $(v_wthick - 0.7)" then "jump MDPBB.in loop"
jump MDPBB.in loop
variable      randni equal round(random(1,${ntwall},$s))  # Pick a random "top" wall atom
variable      randni equal round(random(1,2888,$s))  
variable      randni equal round(random(1,2888,234897))  
variable      randatomi equal ${randni}                   # This is to obtain an integer number for atom-id
variable      randatomi equal 1761                   
variable      randzi equal z[${randatomi}]                # Determine the z coordinate of the chosen atom
variable      randzi equal z[1761]                
# if the chosen atom is not a surface atom then restart the loop
if            "${randzi} < $(v_wthick - 0.7)" then "jump MDPBB.in loop"
jump MDPBB.in loop
variable      randni equal round(random(1,${ntwall},$s))  # Pick a random "top" wall atom
variable      randni equal round(random(1,2888,$s))  
variable      randni equal round(random(1,2888,234897))  
variable      randatomi equal ${randni}                   # This is to obtain an integer number for atom-id
variable      randatomi equal 827                   
variable      randzi equal z[${randatomi}]                # Determine the z coordinate of the chosen atom
variable      randzi equal z[827]                
# if the chosen atom is not a surface atom then restart the loop
if            "${randzi} < $(v_wthick - 0.7)" then "jump MDPBB.in loop"
jump MDPBB.in loop
variable      randni equal round(random(1,${ntwall},$s))  # Pick a random "top" wall atom
variable      randni equal round(random(1,2888,$s))  
variable      randni equal round(random(1,2888,234897))  
variable      randatomi equal ${randni}                   # This is to obtain an integer number for atom-id
variable      randatomi equal 688                   
variable      randzi equal z[${randatomi}]                # Determine the z coordinate of the chosen atom
variable      randzi equal z[688]                
# if the chosen atom is not a surface atom then restart the loop
if            "${randzi} < $(v_wthick - 0.7)" then "jump MDPBB.in loop"
jump MDPBB.in loop
variable      randni equal round(random(1,${ntwall},$s))  # Pick a random "top" wall atom
variable      randni equal round(random(1,2888,$s))  
variable      randni equal round(random(1,2888,234897))  
variable      randatomi equal ${randni}                   # This is to obtain an integer number for atom-id
variable      randatomi equal 248                   
variable      randzi equal z[${randatomi}]                # Determine the z coordinate of the chosen atom
variable      randzi equal z[248]                
# if the chosen atom is not a surface atom then restart the loop
if            "${randzi} < $(v_wthick - 0.7)" then "jump MDPBB.in loop"
jump MDPBB.in loop
variable      randni equal round(random(1,${ntwall},$s))  # Pick a random "top" wall atom
variable      randni equal round(random(1,2888,$s))  
variable      randni equal round(random(1,2888,234897))  
variable      randatomi equal ${randni}                   # This is to obtain an integer number for atom-id
variable      randatomi equal 1966                   
variable      randzi equal z[${randatomi}]                # Determine the z coordinate of the chosen atom
variable      randzi equal z[1966]                
# if the chosen atom is not a surface atom then restart the loop
if            "${randzi} < $(v_wthick - 0.7)" then "jump MDPBB.in loop"
jump MDPBB.in loop
variable      randni equal round(random(1,${ntwall},$s))  # Pick a random "top" wall atom
variable      randni equal round(random(1,2888,$s))  
variable      randni equal round(random(1,2888,234897))  
variable      randatomi equal ${randni}                   # This is to obtain an integer number for atom-id
variable      randatomi equal 2118                   
variable      randzi equal z[${randatomi}]                # Determine the z coordinate of the chosen atom
variable      randzi equal z[2118]                
# if the chosen atom is not a surface atom then restart the loop
if            "${randzi} < $(v_wthick - 0.7)" then "jump MDPBB.in loop"
jump MDPBB.in loop
variable      randni equal round(random(1,${ntwall},$s))  # Pick a random "top" wall atom
variable      randni equal round(random(1,2888,$s))  
variable      randni equal round(random(1,2888,234897))  
variable      randatomi equal ${randni}                   # This is to obtain an integer number for atom-id
variable      randatomi equal 973                   
variable      randzi equal z[${randatomi}]                # Determine the z coordinate of the chosen atom
variable      randzi equal z[973]                
# if the chosen atom is not a surface atom then restart the loop
if            "${randzi} < $(v_wthick - 0.7)" then "jump MDPBB.in loop"
jump MDPBB.in loop
variable      randni equal round(random(1,${ntwall},$s))  # Pick a random "top" wall atom
variable      randni equal round(random(1,2888,$s))  
variable      randni equal round(random(1,2888,234897))  
variable      randatomi equal ${randni}                   # This is to obtain an integer number for atom-id
variable      randatomi equal 1444                   
variable      randzi equal z[${randatomi}]                # Determine the z coordinate of the chosen atom
variable      randzi equal z[1444]                
# if the chosen atom is not a surface atom then restart the loop
if            "${randzi} < $(v_wthick - 0.7)" then "jump MDPBB.in loop"
jump MDPBB.in loop
variable      randni equal round(random(1,${ntwall},$s))  # Pick a random "top" wall atom
variable      randni equal round(random(1,2888,$s))  
variable      randni equal round(random(1,2888,234897))  
variable      randatomi equal ${randni}                   # This is to obtain an integer number for atom-id
variable      randatomi equal 1243                   
variable      randzi equal z[${randatomi}]                # Determine the z coordinate of the chosen atom
variable      randzi equal z[1243]                
# if the chosen atom is not a surface atom then restart the loop
if            "${randzi} < $(v_wthick - 0.7)" then "jump MDPBB.in loop"
jump MDPBB.in loop
variable      randni equal round(random(1,${ntwall},$s))  # Pick a random "top" wall atom
variable      randni equal round(random(1,2888,$s))  
variable      randni equal round(random(1,2888,234897))  
variable      randatomi equal ${randni}                   # This is to obtain an integer number for atom-id
variable      randatomi equal 654                   
variable      randzi equal z[${randatomi}]                # Determine the z coordinate of the chosen atom
variable      randzi equal z[654]                
# if the chosen atom is not a surface atom then restart the loop
if            "${randzi} < $(v_wthick - 0.7)" then "jump MDPBB.in loop"
jump MDPBB.in loop
variable      randni equal round(random(1,${ntwall},$s))  # Pick a random "top" wall atom
variable      randni equal round(random(1,2888,$s))  
variable      randni equal round(random(1,2888,234897))  
variable      randatomi equal ${randni}                   # This is to obtain an integer number for atom-id
variable      randatomi equal 1674                   
variable      randzi equal z[${randatomi}]                # Determine the z coordinate of the chosen atom
variable      randzi equal z[1674]                
# if the chosen atom is not a surface atom then restart the loop
if            "${randzi} < $(v_wthick - 0.7)" then "jump MDPBB.in loop"
jump MDPBB.in loop
variable      randni equal round(random(1,${ntwall},$s))  # Pick a random "top" wall atom
variable      randni equal round(random(1,2888,$s))  
variable      randni equal round(random(1,2888,234897))  
variable      randatomi equal ${randni}                   # This is to obtain an integer number for atom-id
variable      randatomi equal 528                   
variable      randzi equal z[${randatomi}]                # Determine the z coordinate of the chosen atom
variable      randzi equal z[528]                
# if the chosen atom is not a surface atom then restart the loop
if            "${randzi} < $(v_wthick - 0.7)" then "jump MDPBB.in loop"
jump MDPBB.in loop
variable      randni equal round(random(1,${ntwall},$s))  # Pick a random "top" wall atom
variable      randni equal round(random(1,2888,$s))  
variable      randni equal round(random(1,2888,234897))  
variable      randatomi equal ${randni}                   # This is to obtain an integer number for atom-id
variable      randatomi equal 2548                   
variable      randzi equal z[${randatomi}]                # Determine the z coordinate of the chosen atom
variable      randzi equal z[2548]                
# if the chosen atom is not a surface atom then restart the loop
if            "${randzi} < $(v_wthick - 0.7)" then "jump MDPBB.in loop"
set           atom ${randatomi} type 4                    # Set this grafted wall atom as a new type
set           atom 2548 type 4                    
  1 settings made for type
group         twg id ${randatomi}                         # Add this atom to a top-wall-grafted group
group         twg id 2548                         
12 atoms in group twg
variable      twgcount equal count(twg)
print         "twg contains ${twgcount}"
twg contains 12
print         "i = $(v_i)"                                # The index i should always be equal to the number of atom in twg
i = 12
variable      x0 equal x[${randatomi}]                    # Determine its x-coord
variable      x0 equal x[2548]                    
variable      y0 equal y[${randatomi}]                    # Determine its y-coord
variable      y0 equal y[2548]                    
variable      check0 equal ${check}                       # Count the number of atoms in the simulation
variable      check0 equal 3218                       
variable      b equal ${check}+1                          # The grafted bead id will be one higher after being inserted
variable      b equal 3218+1                          
if            "${twgcount} != $(v_i)" then "jump MDPBB.in loop"
# Otherwise insert the chain directly above the chosen wall atom pointing perpendicular to the wall
create_atoms  1 single ${x0} ${y0} ${z0} mol bs 24987 units box remap yes rotate 0 0 0 1
create_atoms  1 single 14.2866094677138 ${y0} ${z0} mol bs 24987 units box remap yes rotate 0 0 0 1
create_atoms  1 single 14.2866094677138 23.0173152535389 ${z0} mol bs 24987 units box remap yes rotate 0 0 0 1
create_atoms  1 single 14.2866094677138 23.0173152535389 17 mol bs 24987 units box remap yes rotate 0 0 0 1
Created 30 atoms
  create_atoms CPU = 0.0001269 secs
variable      check1 equal ${check}               # Count the new total number of atoms
variable      check1 equal 3248               
# Check that the molecule has indeed been inserted (This check is no longer an issue).
if            "${check1} != ${check0}" then "create_bonds  single/bond 2 ${randatomi} $b" "next i"
create_bonds  single/bond 2 ${randatomi} $b
create_bonds  single/bond 2 2548 $b
create_bonds  single/bond 2 2548 3219
  2 = max # of 1-2 neighbors
  5 = max # of special neighbors
  special bonds CPU = 0.00292 secs
next i
jump MDPBB.in loop    # End of the loop
variable      randni equal round(random(1,${ntwall},$s))  # Pick a random "top" wall atom
variable      randni equal round(random(1,2888,$s))  
variable      randni equal round(random(1,2888,234897))  
variable      randatomi equal ${randni}                   # This is to obtain an integer number for atom-id
variable      randatomi equal 1332                   
variable      randzi equal z[${randatomi}]                # Determine the z coordinate of the chosen atom
variable      randzi equal z[1332]                
# if the chosen atom is not a surface atom then restart the loop
if            "${randzi} < $(v_wthick - 0.7)" then "jump MDPBB.in loop"
jump MDPBB.in loop
variable      randni equal round(random(1,${ntwall},$s))  # Pick a random "top" wall atom
variable      randni equal round(random(1,2888,$s))  
variable      randni equal round(random(1,2888,234897))  
variable      randatomi equal ${randni}                   # This is to obtain an integer number for atom-id
variable      randatomi equal 2833                   
variable      randzi equal z[${randatomi}]                # Determine the z coordinate of the chosen atom
variable      randzi equal z[2833]                
# if the chosen atom is not a surface atom then restart the loop
if            "${randzi} < $(v_wthick - 0.7)" then "jump MDPBB.in loop"
jump MDPBB.in loop
variable      randni equal round(random(1,${ntwall},$s))  # Pick a random "top" wall atom
variable      randni equal round(random(1,2888,$s))  
variable      randni equal round(random(1,2888,234897))  
variable      randatomi equal ${randni}                   # This is to obtain an integer number for atom-id
variable      randatomi equal 2217                   
variable      randzi equal z[${randatomi}]                # Determine the z coordinate of the chosen atom
variable      randzi equal z[2217]                
# if the chosen atom is not a surface atom then restart the loop
if            "${randzi} < $(v_wthick - 0.7)" then "jump MDPBB.in loop"
jump MDPBB.in loop
variable      randni equal round(random(1,${ntwall},$s))  # Pick a random "top" wall atom
variable      randni equal round(random(1,2888,$s))  
variable      randni equal round(random(1,2888,234897))  
variable      randatomi equal ${randni}                   # This is to obtain an integer number for atom-id
variable      randatomi equal 2656                   
variable      randzi equal z[${randatomi}]                # Determine the z coordinate of the chosen atom
variable      randzi equal z[2656]                
# if the chosen atom is not a surface atom then restart the loop
if            "${randzi} < $(v_wthick - 0.7)" then "jump MDPBB.in loop"
set           atom ${randatomi} type 4                    # Set this grafted wall atom as a new type
set           atom 2656 type 4                    
  1 settings made for type
group         twg id ${randatomi}                         # Add this atom to a top-wall-grafted group
group         twg id 2656                         
13 atoms in group twg
variable      twgcount equal count(twg)
print         "twg contains ${twgcount}"
twg contains 13
print         "i = $(v_i)"                                # The index i should always be equal to the number of atom in twg
i = 13
variable      x0 equal x[${randatomi}]                    # Determine its x-coord
variable      x0 equal x[2656]                    
variable      y0 equal y[${randatomi}]                    # Determine its y-coord
variable      y0 equal y[2656]                    
variable      check0 equal ${check}                       # Count the number of atoms in the simulation
variable      check0 equal 3248                       
variable      b equal ${check}+1                          # The grafted bead id will be one higher after being inserted
variable      b equal 3248+1                          
if            "${twgcount} != $(v_i)" then "jump MDPBB.in loop"
# Otherwise insert the chain directly above the chosen wall atom pointing perpendicular to the wall
create_atoms  1 single ${x0} ${y0} ${z0} mol bs 24987 units box remap yes rotate 0 0 0 1
create_atoms  1 single 26.9858178834594 ${y0} ${z0} mol bs 24987 units box remap yes rotate 0 0 0 1
create_atoms  1 single 26.9858178834594 24.6047163055071 ${z0} mol bs 24987 units box remap yes rotate 0 0 0 1
create_atoms  1 single 26.9858178834594 24.6047163055071 17 mol bs 24987 units box remap yes rotate 0 0 0 1
Created 30 atoms
  create_atoms CPU = 0.0001266 secs
variable      check1 equal ${check}               # Count the new total number of atoms
variable      check1 equal 3278               
# Check that the molecule has indeed been inserted (This check is no longer an issue).
if            "${check1} != ${check0}" then "create_bonds  single/bond 2 ${randatomi} $b" "next i"
create_bonds  single/bond 2 ${randatomi} $b
create_bonds  single/bond 2 2656 $b
create_bonds  single/bond 2 2656 3249
  2 = max # of 1-2 neighbors
  5 = max # of special neighbors
  special bonds CPU = 0.0030635 secs
next i
jump MDPBB.in loop    # End of the loop
variable      randni equal round(random(1,${ntwall},$s))  # Pick a random "top" wall atom
variable      randni equal round(random(1,2888,$s))  
variable      randni equal round(random(1,2888,234897))  
variable      randatomi equal ${randni}                   # This is to obtain an integer number for atom-id
variable      randatomi equal 2871                   
variable      randzi equal z[${randatomi}]                # Determine the z coordinate of the chosen atom
variable      randzi equal z[2871]                
# if the chosen atom is not a surface atom then restart the loop
if            "${randzi} < $(v_wthick - 0.7)" then "jump MDPBB.in loop"
set           atom ${randatomi} type 4                    # Set this grafted wall atom as a new type
set           atom 2871 type 4                    
  1 settings made for type
group         twg id ${randatomi}                         # Add this atom to a top-wall-grafted group
group         twg id 2871                         
14 atoms in group twg
variable      twgcount equal count(twg)
print         "twg contains ${twgcount}"
twg contains 14
print         "i = $(v_i)"                                # The index i should always be equal to the number of atom in twg
i = 14
variable      x0 equal x[${randatomi}]                    # Determine its x-coord
variable      x0 equal x[2871]                    
variable      y0 equal y[${randatomi}]                    # Determine its y-coord
variable      y0 equal y[2871]                    
variable      check0 equal ${check}                       # Count the number of atoms in the simulation
variable      check0 equal 3278                       
variable      b equal ${check}+1                          # The grafted bead id will be one higher after being inserted
variable      b equal 3278+1                          
if            "${twgcount} != $(v_i)" then "jump MDPBB.in loop"
# Otherwise insert the chain directly above the chosen wall atom pointing perpendicular to the wall
create_atoms  1 single ${x0} ${y0} ${z0} mol bs 24987 units box remap yes rotate 0 0 0 1
create_atoms  1 single 23.0173152535389 ${y0} ${z0} mol bs 24987 units box remap yes rotate 0 0 0 1
create_atoms  1 single 23.0173152535389 28.5732189354276 ${z0} mol bs 24987 units box remap yes rotate 0 0 0 1
create_atoms  1 single 23.0173152535389 28.5732189354276 17 mol bs 24987 units box remap yes rotate 0 0 0 1
Created 30 atoms
  create_atoms CPU = 7.41e-05 secs
variable      check1 equal ${check}               # Count the new total number of atoms
variable      check1 equal 3308               
# Check that the molecule has indeed been inserted (This check is no longer an issue).
if            "${check1} != ${check0}" then "create_bonds  single/bond 2 ${randatomi} $b" "next i"
create_bonds  single/bond 2 ${randatomi} $b
create_bonds  single/bond 2 2871 $b
create_bonds  single/bond 2 2871 3279
  2 = max # of 1-2 neighbors
  5 = max # of special neighbors
  special bonds CPU = 0.0024825 secs
next i
jump MDPBB.in loop    # End of the loop
variable      randni equal round(random(1,${ntwall},$s))  # Pick a random "top" wall atom
variable      randni equal round(random(1,2888,$s))  
variable      randni equal round(random(1,2888,234897))  
variable      randatomi equal ${randni}                   # This is to obtain an integer number for atom-id
variable      randatomi equal 1369                   
variable      randzi equal z[${randatomi}]                # Determine the z coordinate of the chosen atom
variable      randzi equal z[1369]                
# if the chosen atom is not a surface atom then restart the loop
if            "${randzi} < $(v_wthick - 0.7)" then "jump MDPBB.in loop"
jump MDPBB.in loop
variable      randni equal round(random(1,${ntwall},$s))  # Pick a random "top" wall atom
variable      randni equal round(random(1,2888,$s))  
variable      randni equal round(random(1,2888,234897))  
variable      randatomi equal ${randni}                   # This is to obtain an integer number for atom-id
variable      randatomi equal 959                   
variable      randzi equal z[${randatomi}]                # Determine the z coordinate of the chosen atom
variable      randzi equal z[959]                
# if the chosen atom is not a surface atom then restart the loop
if            "${randzi} < $(v_wthick - 0.7)" then "jump MDPBB.in loop"
jump MDPBB.in loop
variable      randni equal round(random(1,${ntwall},$s))  # Pick a random "top" wall atom
variable      randni equal round(random(1,2888,$s))  
variable      randni equal round(random(1,2888,234897))  
variable      randatomi equal ${randni}                   # This is to obtain an integer number for atom-id
variable      randatomi equal 203                   
variable      randzi equal z[${randatomi}]                # Determine the z coordinate of the chosen atom
variable      randzi equal z[203]                
# if the chosen atom is not a surface atom then restart the loop
if            "${randzi} < $(v_wthick - 0.7)" then "jump MDPBB.in loop"
jump MDPBB.in loop
variable      randni equal round(random(1,${ntwall},$s))  # Pick a random "top" wall atom
variable      randni equal round(random(1,2888,$s))  
variable      randni equal round(random(1,2888,234897))  
variable      randatomi equal ${randni}                   # This is to obtain an integer number for atom-id
variable      randatomi equal 747                   
variable      randzi equal z[${randatomi}]                # Determine the z coordinate of the chosen atom
variable      randzi equal z[747]                
# if the chosen atom is not a surface atom then restart the loop
if            "${randzi} < $(v_wthick - 0.7)" then "jump MDPBB.in loop"
jump MDPBB.in loop
variable      randni equal round(random(1,${ntwall},$s))  # Pick a random "top" wall atom
variable      randni equal round(random(1,2888,$s))  
variable      randni equal round(random(1,2888,234897))  
variable      randatomi equal ${randni}                   # This is to obtain an integer number for atom-id
variable      randatomi equal 524                   
variable      randzi equal z[${randatomi}]                # Determine the z coordinate of the chosen atom
variable      randzi equal z[524]                
# if the chosen atom is not a surface atom then restart the loop
if            "${randzi} < $(v_wthick - 0.7)" then "jump MDPBB.in loop"
jump MDPBB.in loop
variable      randni equal round(random(1,${ntwall},$s))  # Pick a random "top" wall atom
variable      randni equal round(random(1,2888,$s))  
variable      randni equal round(random(1,2888,234897))  
variable      randatomi equal ${randni}                   # This is to obtain an integer number for atom-id
variable      randatomi equal 1185                   
variable      randzi equal z[${randatomi}]                # Determine the z coordinate of the chosen atom
variable      randzi equal z[1185]                
# if the chosen atom is not a surface atom then restart the loop
if            "${randzi} < $(v_wthick - 0.7)" then "jump MDPBB.in loop"
jump MDPBB.in loop
variable      randni equal round(random(1,${ntwall},$s))  # Pick a random "top" wall atom
variable      randni equal round(random(1,2888,$s))  
variable      randni equal round(random(1,2888,234897))  
variable      randatomi equal ${randni}                   # This is to obtain an integer number for atom-id
variable      randatomi equal 1726                   
variable      randzi equal z[${randatomi}]                # Determine the z coordinate of the chosen atom
variable      randzi equal z[1726]                
# if the chosen atom is not a surface atom then restart the loop
if            "${randzi} < $(v_wthick - 0.7)" then "jump MDPBB.in loop"
jump MDPBB.in loop
variable      randni equal round(random(1,${ntwall},$s))  # Pick a random "top" wall atom
variable      randni equal round(random(1,2888,$s))  
variable      randni equal round(random(1,2888,234897))  
variable      randatomi equal ${randni}                   # This is to obtain an integer number for atom-id
variable      randatomi equal 1374                   
variable      randzi equal z[${randatomi}]                # Determine the z coordinate of the chosen atom
variable      randzi equal z[1374]                
# if the chosen atom is not a surface atom then restart the loop
if            "${randzi} < $(v_wthick - 0.7)" then "jump MDPBB.in loop"
jump MDPBB.in loop
variable      randni equal round(random(1,${ntwall},$s))  # Pick a random "top" wall atom
variable      randni equal round(random(1,2888,$s))  
variable      randni equal round(random(1,2888,234897))  
variable      randatomi equal ${randni}                   # This is to obtain an integer number for atom-id
variable      randatomi equal 2398                   
variable      randzi equal z[${randatomi}]                # Determine the z coordinate of the chosen atom
variable      randzi equal z[2398]                
# if the chosen atom is not a surface atom then restart the loop
if            "${randzi} < $(v_wthick - 0.7)" then "jump MDPBB.in loop"
jump MDPBB.in loop
variable      randni equal round(random(1,${ntwall},$s))  # Pick a random "top" wall atom
variable      randni equal round(random(1,2888,$s))  
variable      randni equal round(random(1,2888,234897))  
variable      randatomi equal ${randni}                   # This is to obtain an integer number for atom-id
variable      randatomi equal 430                   
variable      randzi equal z[${randatomi}]                # Determine the z coordinate of the chosen atom
variable      randzi equal z[430]                
# if the chosen atom is not a surface atom then restart the loop
if            "${randzi} < $(v_wthick - 0.7)" then "jump MDPBB.in loop"
jump MDPBB.in loop
variable      randni equal round(random(1,${ntwall},$s))  # Pick a random "top" wall atom
variable      randni equal round(random(1,2888,$s))  
variable      randni equal round(random(1,2888,234897))  
variable      randatomi equal ${randni}                   # This is to obtain an integer number for atom-id
variable      randatomi equal 478                   
variable      randzi equal z[${randatomi}]                # Determine the z coordinate of the chosen atom
variable      randzi equal z[478]                
# if the chosen atom is not a surface atom then restart the loop
if            "${randzi} < $(v_wthick - 0.7)" then "jump MDPBB.in loop"
jump MDPBB.in loop
variable      randni equal round(random(1,${ntwall},$s))  # Pick a random "top" wall atom
variable      randni equal round(random(1,2888,$s))  
variable      randni equal round(random(1,2888,234897))  
variable      randatomi equal ${randni}                   # This is to obtain an integer number for atom-id
variable      randatomi equal 2316                   
variable      randzi equal z[${randatomi}]                # Determine the z coordinate of the chosen atom
variable      randzi equal z[2316]                
# if the chosen atom is not a surface atom then restart the loop
if            "${randzi} < $(v_wthick - 0.7)" then "jump MDPBB.in loop"
set           atom ${randatomi} type 4                    # Set this grafted wall atom as a new type
set           atom 2316 type 4                    
  1 settings made for type
group         twg id ${randatomi}                         # Add this atom to a top-wall-grafted group
group         twg id 2316                         
15 atoms in group twg
variable      twgcount equal count(twg)
print         "twg contains ${twgcount}"
twg contains 15
print         "i = $(v_i)"                                # The index i should always be equal to the number of atom in twg
i = 15
variable      x0 equal x[${randatomi}]                    # Determine its x-coord
variable      x0 equal x[2316]                    
variable      y0 equal y[${randatomi}]                    # Determine its y-coord
variable      y0 equal y[2316]                    
variable      check0 equal ${check}                       # Count the number of atoms in the simulation
variable      check0 equal 3308                       
variable      b equal ${check}+1                          # The grafted bead id will be one higher after being inserted
variable      b equal 3308+1                          
if            "${twgcount} != $(v_i)" then "jump MDPBB.in loop"
# Otherwise insert the chain directly above the chosen wall atom pointing perpendicular to the wall
create_atoms  1 single ${x0} ${y0} ${z0} mol bs 24987 units box remap yes rotate 0 0 0 1
create_atoms  1 single 12.6992084157456 ${y0} ${z0} mol bs 24987 units box remap yes rotate 0 0 0 1
create_atoms  1 single 12.6992084157456 18.2551120976343 ${z0} mol bs 24987 units box remap yes rotate 0 0 0 1
create_atoms  1 single 12.6992084157456 18.2551120976343 17 mol bs 24987 units box remap yes rotate 0 0 0 1
Created 30 atoms
  create_atoms CPU = 9.82e-05 secs
variable      check1 equal ${check}               # Count the new total number of atoms
variable      check1 equal 3338               
# Check that the molecule has indeed been inserted (This check is no longer an issue).
if            "${check1} != ${check0}" then "create_bonds  single/bond 2 ${randatomi} $b" "next i"
create_bonds  single/bond 2 ${randatomi} $b
create_bonds  single/bond 2 2316 $b
create_bonds  single/bond 2 2316 3309
  2 = max # of 1-2 neighbors
  5 = max # of special neighbors
  special bonds CPU = 0.0024471 secs
next i
jump MDPBB.in loop    # End of the loop
variable      randni equal round(random(1,${ntwall},$s))  # Pick a random "top" wall atom
variable      randni equal round(random(1,2888,$s))  
variable      randni equal round(random(1,2888,234897))  
variable      randatomi equal ${randni}                   # This is to obtain an integer number for atom-id
variable      randatomi equal 1832                   
variable      randzi equal z[${randatomi}]                # Determine the z coordinate of the chosen atom
variable      randzi equal z[1832]                
# if the chosen atom is not a surface atom then restart the loop
if            "${randzi} < $(v_wthick - 0.7)" then "jump MDPBB.in loop"
set           atom ${randatomi} type 4                    # Set this grafted wall atom as a new type
set           atom 1832 type 4                    
  1 settings made for type
group         twg id ${randatomi}                         # Add this atom to a top-wall-grafted group
group         twg id 1832                         
16 atoms in group twg
variable      twgcount equal count(twg)
print         "twg contains ${twgcount}"
twg contains 16
print         "i = $(v_i)"                                # The index i should always be equal to the number of atom in twg
i = 16
variable      x0 equal x[${randatomi}]                    # Determine its x-coord
variable      x0 equal x[1832]                    
variable      y0 equal y[${randatomi}]                    # Determine its y-coord
variable      y0 equal y[1832]                    
variable      check0 equal ${check}                       # Count the number of atoms in the simulation
variable      check0 equal 3338                       
variable      b equal ${check}+1                          # The grafted bead id will be one higher after being inserted
variable      b equal 3338+1                          
if            "${twgcount} != $(v_i)" then "jump MDPBB.in loop"
# Otherwise insert the chain directly above the chosen wall atom pointing perpendicular to the wall
create_atoms  1 single ${x0} ${y0} ${z0} mol bs 24987 units box remap yes rotate 0 0 0 1
create_atoms  1 single 1.5874010519682 ${y0} ${z0} mol bs 24987 units box remap yes rotate 0 0 0 1
create_atoms  1 single 1.5874010519682 8.7307057858251 ${z0} mol bs 24987 units box remap yes rotate 0 0 0 1
create_atoms  1 single 1.5874010519682 8.7307057858251 17 mol bs 24987 units box remap yes rotate 0 0 0 1
Created 30 atoms
  create_atoms CPU = 0.0001207 secs
variable      check1 equal ${check}               # Count the new total number of atoms
variable      check1 equal 3368               
# Check that the molecule has indeed been inserted (This check is no longer an issue).
if            "${check1} != ${check0}" then "create_bonds  single/bond 2 ${randatomi} $b" "next i"
create_bonds  single/bond 2 ${randatomi} $b
create_bonds  single/bond 2 1832 $b
create_bonds  single/bond 2 1832 3339
  2 = max # of 1-2 neighbors
  5 = max # of special neighbors
  special bonds CPU = 0.0027373 secs
next i
jump MDPBB.in loop    # End of the loop
variable      randni equal round(random(1,${ntwall},$s))  # Pick a random "top" wall atom
variable      randni equal round(random(1,2888,$s))  
variable      randni equal round(random(1,2888,234897))  
variable      randatomi equal ${randni}                   # This is to obtain an integer number for atom-id
variable      randatomi equal 653                   
variable      randzi equal z[${randatomi}]                # Determine the z coordinate of the chosen atom
variable      randzi equal z[653]                
# if the chosen atom is not a surface atom then restart the loop
if            "${randzi} < $(v_wthick - 0.7)" then "jump MDPBB.in loop"
jump MDPBB.in loop
variable      randni equal round(random(1,${ntwall},$s))  # Pick a random "top" wall atom
variable      randni equal round(random(1,2888,$s))  
variable      randni equal round(random(1,2888,234897))  
variable      randatomi equal ${randni}                   # This is to obtain an integer number for atom-id
variable      randatomi equal 931                   
variable      randzi equal z[${randatomi}]                # Determine the z coordinate of the chosen atom
variable      randzi equal z[931]                
# if the chosen atom is not a surface atom then restart the loop
if            "${randzi} < $(v_wthick - 0.7)" then "jump MDPBB.in loop"
jump MDPBB.in loop
variable      randni equal round(random(1,${ntwall},$s))  # Pick a random "top" wall atom
variable      randni equal round(random(1,2888,$s))  
variable      randni equal round(random(1,2888,234897))  
variable      randatomi equal ${randni}                   # This is to obtain an integer number for atom-id
variable      randatomi equal 779                   
variable      randzi equal z[${randatomi}]                # Determine the z coordinate of the chosen atom
variable      randzi equal z[779]                
# if the chosen atom is not a surface atom then restart the loop
if            "${randzi} < $(v_wthick - 0.7)" then "jump MDPBB.in loop"
jump MDPBB.in loop
variable      randni equal round(random(1,${ntwall},$s))  # Pick a random "top" wall atom
variable      randni equal round(random(1,2888,$s))  
variable      randni equal round(random(1,2888,234897))  
variable      randatomi equal ${randni}                   # This is to obtain an integer number for atom-id
variable      randatomi equal 2273                   
variable      randzi equal z[${randatomi}]                # Determine the z coordinate of the chosen atom
variable      randzi equal z[2273]                
# if the chosen atom is not a surface atom then restart the loop
if            "${randzi} < $(v_wthick - 0.7)" then "jump MDPBB.in loop"
jump MDPBB.in loop
variable      randni equal round(random(1,${ntwall},$s))  # Pick a random "top" wall atom
variable      randni equal round(random(1,2888,$s))  
variable      randni equal round(random(1,2888,234897))  
variable      randatomi equal ${randni}                   # This is to obtain an integer number for atom-id
variable      randatomi equal 2515                   
variable      randzi equal z[${randatomi}]                # Determine the z coordinate of the chosen atom
variable      randzi equal z[2515]                
# if the chosen atom is not a surface atom then restart the loop
if            "${randzi} < $(v_wthick - 0.7)" then "jump MDPBB.in loop"
set           atom ${randatomi} type 4                    # Set this grafted wall atom as a new type
set           atom 2515 type 4                    
  1 settings made for type
group         twg id ${randatomi}                         # Add this atom to a top-wall-grafted group
group         twg id 2515                         
16 atoms in group twg
variable      twgcount equal count(twg)
print         "twg contains ${twgcount}"
twg contains 16
print         "i = $(v_i)"                                # The index i should always be equal to the number of atom in twg
i = 17
variable      x0 equal x[${randatomi}]                    # Determine its x-coord
variable      x0 equal x[2515]                    
variable      y0 equal y[${randatomi}]                    # Determine its y-coord
variable      y0 equal y[2515]                    
variable      check0 equal ${check}                       # Count the number of atoms in the simulation
variable      check0 equal 3368                       
variable      b equal ${check}+1                          # The grafted bead id will be one higher after being inserted
variable      b equal 3368+1                          
if            "${twgcount} != $(v_i)" then "jump MDPBB.in loop"
jump MDPBB.in loop
variable      randni equal round(random(1,${ntwall},$s))  # Pick a random "top" wall atom
variable      randni equal round(random(1,2888,$s))  
variable      randni equal round(random(1,2888,234897))  
variable      randatomi equal ${randni}                   # This is to obtain an integer number for atom-id
variable      randatomi equal 1255                   
variable      randzi equal z[${randatomi}]                # Determine the z coordinate of the chosen atom
variable      randzi equal z[1255]                
# if the chosen atom is not a surface atom then restart the loop
if            "${randzi} < $(v_wthick - 0.7)" then "jump MDPBB.in loop"
jump MDPBB.in loop
variable      randni equal round(random(1,${ntwall},$s))  # Pick a random "top" wall atom
variable      randni equal round(random(1,2888,$s))  
variable      randni equal round(random(1,2888,234897))  
variable      randatomi equal ${randni}                   # This is to obtain an integer number for atom-id
variable      randatomi equal 2882                   
variable      randzi equal z[${randatomi}]                # Determine the z coordinate of the chosen atom
variable      randzi equal z[2882]                
# if the chosen atom is not a surface atom then restart the loop
if            "${randzi} < $(v_wthick - 0.7)" then "jump MDPBB.in loop"
jump MDPBB.in loop
variable      randni equal round(random(1,${ntwall},$s))  # Pick a random "top" wall atom
variable      randni equal round(random(1,2888,$s))  
variable      randni equal round(random(1,2888,234897))  
variable      randatomi equal ${randni}                   # This is to obtain an integer number for atom-id
variable      randatomi equal 1883                   
variable      randzi equal z[${randatomi}]                # Determine the z coordinate of the chosen atom
variable      randzi equal z[1883]                
# if the chosen atom is not a surface atom then restart the loop
if            "${randzi} < $(v_wthick - 0.7)" then "jump MDPBB.in loop"
set           atom ${randatomi} type 4                    # Set this grafted wall atom as a new type
set           atom 1883 type 4                    
  1 settings made for type
group         twg id ${randatomi}                         # Add this atom to a top-wall-grafted group
group         twg id 1883                         
17 atoms in group twg
variable      twgcount equal count(twg)
print         "twg contains ${twgcount}"
twg contains 17
print         "i = $(v_i)"                                # The index i should always be equal to the number of atom in twg
i = 17
variable      x0 equal x[${randatomi}]                    # Determine its x-coord
variable      x0 equal x[1883]                    
variable      y0 equal y[${randatomi}]                    # Determine its y-coord
variable      y0 equal y[1883]                    
variable      check0 equal ${check}                       # Count the number of atoms in the simulation
variable      check0 equal 3368                       
variable      b equal ${check}+1                          # The grafted bead id will be one higher after being inserted
variable      b equal 3368+1                          
if            "${twgcount} != $(v_i)" then "jump MDPBB.in loop"
# Otherwise insert the chain directly above the chosen wall atom pointing perpendicular to the wall
create_atoms  1 single ${x0} ${y0} ${z0} mol bs 24987 units box remap yes rotate 0 0 0 1
create_atoms  1 single 23.0173152535389 ${y0} ${z0} mol bs 24987 units box remap yes rotate 0 0 0 1
create_atoms  1 single 23.0173152535389 7.937005259841 ${z0} mol bs 24987 units box remap yes rotate 0 0 0 1
create_atoms  1 single 23.0173152535389 7.937005259841 17 mol bs 24987 units box remap yes rotate 0 0 0 1
Created 30 atoms
  create_atoms CPU = 0.0001006 secs
variable      check1 equal ${check}               # Count the new total number of atoms
variable      check1 equal 3398               
# Check that the molecule has indeed been inserted (This check is no longer an issue).
if            "${check1} != ${check0}" then "create_bonds  single/bond 2 ${randatomi} $b" "next i"
create_bonds  single/bond 2 ${randatomi} $b
create_bonds  single/bond 2 1883 $b
create_bonds  single/bond 2 1883 3369
  2 = max # of 1-2 neighbors
  5 = max # of special neighbors
  special bonds CPU = 0.0037422 secs
next i
jump MDPBB.in loop    # End of the loop
variable      randni equal round(random(1,${ntwall},$s))  # Pick a random "top" wall atom
variable      randni equal round(random(1,2888,$s))  
variable      randni equal round(random(1,2888,234897))  
variable      randatomi equal ${randni}                   # This is to obtain an integer number for atom-id
variable      randatomi equal 2645                   
variable      randzi equal z[${randatomi}]                # Determine the z coordinate of the chosen atom
variable      randzi equal z[2645]                
# if the chosen atom is not a surface atom then restart the loop
if            "${randzi} < $(v_wthick - 0.7)" then "jump MDPBB.in loop"
jump MDPBB.in loop
variable      randni equal round(random(1,${ntwall},$s))  # Pick a random "top" wall atom
variable      randni equal round(random(1,2888,$s))  
variable      randni equal round(random(1,2888,234897))  
variable      randatomi equal ${randni}                   # This is to obtain an integer number for atom-id
variable      randatomi equal 1244                   
variable      randzi equal z[${randatomi}]                # Determine the z coordinate of the chosen atom
variable      randzi equal z[1244]                
# if the chosen atom is not a surface atom then restart the loop
if            "${randzi} < $(v_wthick - 0.7)" then "jump MDPBB.in loop"
jump MDPBB.in loop
variable      randni equal round(random(1,${ntwall},$s))  # Pick a random "top" wall atom
variable      randni equal round(random(1,2888,$s))  
variable      randni equal round(random(1,2888,234897))  
variable      randatomi equal ${randni}                   # This is to obtain an integer number for atom-id
variable      randatomi equal 1566                   
variable      randzi equal z[${randatomi}]                # Determine the z coordinate of the chosen atom
variable      randzi equal z[1566]                
# if the chosen atom is not a surface atom then restart the loop
if            "${randzi} < $(v_wthick - 0.7)" then "jump MDPBB.in loop"
jump MDPBB.in loop
variable      randni equal round(random(1,${ntwall},$s))  # Pick a random "top" wall atom
variable      randni equal round(random(1,2888,$s))  
variable      randni equal round(random(1,2888,234897))  
variable      randatomi equal ${randni}                   # This is to obtain an integer number for atom-id
variable      randatomi equal 2113                   
variable      randzi equal z[${randatomi}]                # Determine the z coordinate of the chosen atom
variable      randzi equal z[2113]                
# if the chosen atom is not a surface atom then restart the loop
if            "${randzi} < $(v_wthick - 0.7)" then "jump MDPBB.in loop"
jump MDPBB.in loop
variable      randni equal round(random(1,${ntwall},$s))  # Pick a random "top" wall atom
variable      randni equal round(random(1,2888,$s))  
variable      randni equal round(random(1,2888,234897))  
variable      randatomi equal ${randni}                   # This is to obtain an integer number for atom-id
variable      randatomi equal 1251                   
variable      randzi equal z[${randatomi}]                # Determine the z coordinate of the chosen atom
variable      randzi equal z[1251]                
# if the chosen atom is not a surface atom then restart the loop
if            "${randzi} < $(v_wthick - 0.7)" then "jump MDPBB.in loop"
jump MDPBB.in loop
variable      randni equal round(random(1,${ntwall},$s))  # Pick a random "top" wall atom
variable      randni equal round(random(1,2888,$s))  
variable      randni equal round(random(1,2888,234897))  
variable      randatomi equal ${randni}                   # This is to obtain an integer number for atom-id
variable      randatomi equal 847                   
variable      randzi equal z[${randatomi}]                # Determine the z coordinate of the chosen atom
variable      randzi equal z[847]                
# if the chosen atom is not a surface atom then restart the loop
if            "${randzi} < $(v_wthick - 0.7)" then "jump MDPBB.in loop"
jump MDPBB.in loop
variable      randni equal round(random(1,${ntwall},$s))  # Pick a random "top" wall atom
variable      randni equal round(random(1,2888,$s))  
variable      randni equal round(random(1,2888,234897))  
variable      randatomi equal ${randni}                   # This is to obtain an integer number for atom-id
variable      randatomi equal 40                   
variable      randzi equal z[${randatomi}]                # Determine the z coordinate of the chosen atom
variable      randzi equal z[40]                
# if the chosen atom is not a surface atom then restart the loop
if            "${randzi} < $(v_wthick - 0.7)" then "jump MDPBB.in loop"
jump MDPBB.in loop
variable      randni equal round(random(1,${ntwall},$s))  # Pick a random "top" wall atom
variable      randni equal round(random(1,2888,$s))  
variable      randni equal round(random(1,2888,234897))  
variable      randatomi equal ${randni}                   # This is to obtain an integer number for atom-id
variable      randatomi equal 434                   
variable      randzi equal z[${randatomi}]                # Determine the z coordinate of the chosen atom
variable      randzi equal z[434]                
# if the chosen atom is not a surface atom then restart the loop
if            "${randzi} < $(v_wthick - 0.7)" then "jump MDPBB.in loop"
jump MDPBB.in loop
variable      randni equal round(random(1,${ntwall},$s))  # Pick a random "top" wall atom
variable      randni equal round(random(1,2888,$s))  
variable      randni equal round(random(1,2888,234897))  
variable      randatomi equal ${randni}                   # This is to obtain an integer number for atom-id
variable      randatomi equal 1664                   
variable      randzi equal z[${randatomi}]                # Determine the z coordinate of the chosen atom
variable      randzi equal z[1664]                
# if the chosen atom is not a surface atom then restart the loop
if            "${randzi} < $(v_wthick - 0.7)" then "jump MDPBB.in loop"
set           atom ${randatomi} type 4                    # Set this grafted wall atom as a new type
set           atom 1664 type 4                    
  1 settings made for type
group         twg id ${randatomi}                         # Add this atom to a top-wall-grafted group
group         twg id 1664                         
18 atoms in group twg
variable      twgcount equal count(twg)
print         "twg contains ${twgcount}"
twg contains 18
print         "i = $(v_i)"                                # The index i should always be equal to the number of atom in twg
i = 18
variable      x0 equal x[${randatomi}]                    # Determine its x-coord
variable      x0 equal x[1664]                    
variable      y0 equal y[${randatomi}]                    # Determine its y-coord
variable      y0 equal y[1664]                    
variable      check0 equal ${check}                       # Count the number of atoms in the simulation
variable      check0 equal 3398                       
variable      b equal ${check}+1                          # The grafted bead id will be one higher after being inserted
variable      b equal 3398+1                          
if            "${twgcount} != $(v_i)" then "jump MDPBB.in loop"
# Otherwise insert the chain directly above the chosen wall atom pointing perpendicular to the wall
create_atoms  1 single ${x0} ${y0} ${z0} mol bs 24987 units box remap yes rotate 0 0 0 1
create_atoms  1 single 25.3984168314912 ${y0} ${z0} mol bs 24987 units box remap yes rotate 0 0 0 1
create_atoms  1 single 25.3984168314912 3.9685026299205 ${z0} mol bs 24987 units box remap yes rotate 0 0 0 1
create_atoms  1 single 25.3984168314912 3.9685026299205 17 mol bs 24987 units box remap yes rotate 0 0 0 1
Created 30 atoms
  create_atoms CPU = 0.0001082 secs
variable      check1 equal ${check}               # Count the new total number of atoms
variable      check1 equal 3428               
# Check that the molecule has indeed been inserted (This check is no longer an issue).
if            "${check1} != ${check0}" then "create_bonds  single/bond 2 ${randatomi} $b" "next i"
create_bonds  single/bond 2 ${randatomi} $b
create_bonds  single/bond 2 1664 $b
create_bonds  single/bond 2 1664 3399
  2 = max # of 1-2 neighbors
  5 = max # of special neighbors
  special bonds CPU = 0.0041039 secs
next i
jump MDPBB.in loop    # End of the loop
variable      randni equal round(random(1,${ntwall},$s))  # Pick a random "top" wall atom
variable      randni equal round(random(1,2888,$s))  
variable      randni equal round(random(1,2888,234897))  
variable      randatomi equal ${randni}                   # This is to obtain an integer number for atom-id
variable      randatomi equal 306                   
variable      randzi equal z[${randatomi}]                # Determine the z coordinate of the chosen atom
variable      randzi equal z[306]                
# if the chosen atom is not a surface atom then restart the loop
if            "${randzi} < $(v_wthick - 0.7)" then "jump MDPBB.in loop"
jump MDPBB.in loop
variable      randni equal round(random(1,${ntwall},$s))  # Pick a random "top" wall atom
variable      randni equal round(random(1,2888,$s))  
variable      randni equal round(random(1,2888,234897))  
variable      randatomi equal ${randni}                   # This is to obtain an integer number for atom-id
variable      randatomi equal 1466                   
variable      randzi equal z[${randatomi}]                # Determine the z coordinate of the chosen atom
variable      randzi equal z[1466]                
# if the chosen atom is not a surface atom then restart the loop
if            "${randzi} < $(v_wthick - 0.7)" then "jump MDPBB.in loop"
jump MDPBB.in loop
variable      randni equal round(random(1,${ntwall},$s))  # Pick a random "top" wall atom
variable      randni equal round(random(1,2888,$s))  
variable      randni equal round(random(1,2888,234897))  
variable      randatomi equal ${randni}                   # This is to obtain an integer number for atom-id
variable      randatomi equal 521                   
variable      randzi equal z[${randatomi}]                # Determine the z coordinate of the chosen atom
variable      randzi equal z[521]                
# if the chosen atom is not a surface atom then restart the loop
if            "${randzi} < $(v_wthick - 0.7)" then "jump MDPBB.in loop"
jump MDPBB.in loop
variable      randni equal round(random(1,${ntwall},$s))  # Pick a random "top" wall atom
variable      randni equal round(random(1,2888,$s))  
variable      randni equal round(random(1,2888,234897))  
variable      randatomi equal ${randni}                   # This is to obtain an integer number for atom-id
variable      randatomi equal 949                   
variable      randzi equal z[${randatomi}]                # Determine the z coordinate of the chosen atom
variable      randzi equal z[949]                
# if the chosen atom is not a surface atom then restart the loop
if            "${randzi} < $(v_wthick - 0.7)" then "jump MDPBB.in loop"
jump MDPBB.in loop
variable      randni equal round(random(1,${ntwall},$s))  # Pick a random "top" wall atom
variable      randni equal round(random(1,2888,$s))  
variable      randni equal round(random(1,2888,234897))  
variable      randatomi equal ${randni}                   # This is to obtain an integer number for atom-id
variable      randatomi equal 111                   
variable      randzi equal z[${randatomi}]                # Determine the z coordinate of the chosen atom
variable      randzi equal z[111]                
# if the chosen atom is not a surface atom then restart the loop
if            "${randzi} < $(v_wthick - 0.7)" then "jump MDPBB.in loop"
jump MDPBB.in loop
variable      randni equal round(random(1,${ntwall},$s))  # Pick a random "top" wall atom
variable      randni equal round(random(1,2888,$s))  
variable      randni equal round(random(1,2888,234897))  
variable      randatomi equal ${randni}                   # This is to obtain an integer number for atom-id
variable      randatomi equal 2713                   
variable      randzi equal z[${randatomi}]                # Determine the z coordinate of the chosen atom
variable      randzi equal z[2713]                
# if the chosen atom is not a surface atom then restart the loop
if            "${randzi} < $(v_wthick - 0.7)" then "jump MDPBB.in loop"
jump MDPBB.in loop
variable      randni equal round(random(1,${ntwall},$s))  # Pick a random "top" wall atom
variable      randni equal round(random(1,2888,$s))  
variable      randni equal round(random(1,2888,234897))  
variable      randatomi equal ${randni}                   # This is to obtain an integer number for atom-id
variable      randatomi equal 993                   
variable      randzi equal z[${randatomi}]                # Determine the z coordinate of the chosen atom
variable      randzi equal z[993]                
# if the chosen atom is not a surface atom then restart the loop
if            "${randzi} < $(v_wthick - 0.7)" then "jump MDPBB.in loop"
jump MDPBB.in loop
variable      randni equal round(random(1,${ntwall},$s))  # Pick a random "top" wall atom
variable      randni equal round(random(1,2888,$s))  
variable      randni equal round(random(1,2888,234897))  
variable      randatomi equal ${randni}                   # This is to obtain an integer number for atom-id
variable      randatomi equal 1043                   
variable      randzi equal z[${randatomi}]                # Determine the z coordinate of the chosen atom
variable      randzi equal z[1043]                
# if the chosen atom is not a surface atom then restart the loop
if            "${randzi} < $(v_wthick - 0.7)" then "jump MDPBB.in loop"
jump MDPBB.in loop
variable      randni equal round(random(1,${ntwall},$s))  # Pick a random "top" wall atom
variable      randni equal round(random(1,2888,$s))  
variable      randni equal round(random(1,2888,234897))  
variable      randatomi equal ${randni}                   # This is to obtain an integer number for atom-id
variable      randatomi equal 1408                   
variable      randzi equal z[${randatomi}]                # Determine the z coordinate of the chosen atom
variable      randzi equal z[1408]                
# if the chosen atom is not a surface atom then restart the loop
if            "${randzi} < $(v_wthick - 0.7)" then "jump MDPBB.in loop"
jump MDPBB.in loop
variable      randni equal round(random(1,${ntwall},$s))  # Pick a random "top" wall atom
variable      randni equal round(random(1,2888,$s))  
variable      randni equal round(random(1,2888,234897))  
variable      randatomi equal ${randni}                   # This is to obtain an integer number for atom-id
variable      randatomi equal 2124                   
variable      randzi equal z[${randatomi}]                # Determine the z coordinate of the chosen atom
variable      randzi equal z[2124]                
# if the chosen atom is not a surface atom then restart the loop
if            "${randzi} < $(v_wthick - 0.7)" then "jump MDPBB.in loop"
set           atom ${randatomi} type 4                    # Set this grafted wall atom as a new type
set           atom 2124 type 4                    
  1 settings made for type
group         twg id ${randatomi}                         # Add this atom to a top-wall-grafted group
group         twg id 2124                         
19 atoms in group twg
variable      twgcount equal count(twg)
print         "twg contains ${twgcount}"
twg contains 19
print         "i = $(v_i)"                                # The index i should always be equal to the number of atom in twg
i = 19
variable      x0 equal x[${randatomi}]                    # Determine its x-coord
variable      x0 equal x[2124]                    
variable      y0 equal y[${randatomi}]                    # Determine its y-coord
variable      y0 equal y[2124]                    
variable      check0 equal ${check}                       # Count the number of atoms in the simulation
variable      check0 equal 3428                       
variable      b equal ${check}+1                          # The grafted bead id will be one higher after being inserted
variable      b equal 3428+1                          
if            "${twgcount} != $(v_i)" then "jump MDPBB.in loop"
# Otherwise insert the chain directly above the chosen wall atom pointing perpendicular to the wall
create_atoms  1 single ${x0} ${y0} ${z0} mol bs 24987 units box remap yes rotate 0 0 0 1
create_atoms  1 single 26.9858178834594 ${y0} ${z0} mol bs 24987 units box remap yes rotate 0 0 0 1
create_atoms  1 single 26.9858178834594 13.4929089417297 ${z0} mol bs 24987 units box remap yes rotate 0 0 0 1
create_atoms  1 single 26.9858178834594 13.4929089417297 17 mol bs 24987 units box remap yes rotate 0 0 0 1
Created 30 atoms
  create_atoms CPU = 0.000135 secs
variable      check1 equal ${check}               # Count the new total number of atoms
variable      check1 equal 3458               
# Check that the molecule has indeed been inserted (This check is no longer an issue).
if            "${check1} != ${check0}" then "create_bonds  single/bond 2 ${randatomi} $b" "next i"
create_bonds  single/bond 2 ${randatomi} $b
create_bonds  single/bond 2 2124 $b
create_bonds  single/bond 2 2124 3429
  2 = max # of 1-2 neighbors
  5 = max # of special neighbors
  special bonds CPU = 0.0032853 secs
next i
jump MDPBB.in loop    # End of the loop
variable      randni equal round(random(1,${ntwall},$s))  # Pick a random "top" wall atom
variable      randni equal round(random(1,2888,$s))  
variable      randni equal round(random(1,2888,234897))  
variable      randatomi equal ${randni}                   # This is to obtain an integer number for atom-id
variable      randatomi equal 530                   
variable      randzi equal z[${randatomi}]                # Determine the z coordinate of the chosen atom
variable      randzi equal z[530]                
# if the chosen atom is not a surface atom then restart the loop
if            "${randzi} < $(v_wthick - 0.7)" then "jump MDPBB.in loop"
jump MDPBB.in loop
variable      randni equal round(random(1,${ntwall},$s))  # Pick a random "top" wall atom
variable      randni equal round(random(1,2888,$s))  
variable      randni equal round(random(1,2888,234897))  
variable      randatomi equal ${randni}                   # This is to obtain an integer number for atom-id
variable      randatomi equal 1460                   
variable      randzi equal z[${randatomi}]                # Determine the z coordinate of the chosen atom
variable      randzi equal z[1460]                
# if the chosen atom is not a surface atom then restart the loop
if            "${randzi} < $(v_wthick - 0.7)" then "jump MDPBB.in loop"
set           atom ${randatomi} type 4                    # Set this grafted wall atom as a new type
set           atom 1460 type 4                    
  1 settings made for type
group         twg id ${randatomi}                         # Add this atom to a top-wall-grafted group
group         twg id 1460                         
20 atoms in group twg
variable      twgcount equal count(twg)
print         "twg contains ${twgcount}"
twg contains 20
print         "i = $(v_i)"                                # The index i should always be equal to the number of atom in twg
i = 20
variable      x0 equal x[${randatomi}]                    # Determine its x-coord
variable      x0 equal x[1460]                    
variable      y0 equal y[${randatomi}]                    # Determine its y-coord
variable      y0 equal y[1460]                    
variable      check0 equal ${check}                       # Count the number of atoms in the simulation
variable      check0 equal 3458                       
variable      b equal ${check}+1                          # The grafted bead id will be one higher after being inserted
variable      b equal 3458+1                          
if            "${twgcount} != $(v_i)" then "jump MDPBB.in loop"
# Otherwise insert the chain directly above the chosen wall atom pointing perpendicular to the wall
create_atoms  1 single ${x0} ${y0} ${z0} mol bs 24987 units box remap yes rotate 0 0 0 1
create_atoms  1 single 4.7622031559046 ${y0} ${z0} mol bs 24987 units box remap yes rotate 0 0 0 1
create_atoms  1 single 4.7622031559046 0.7937005259841 ${z0} mol bs 24987 units box remap yes rotate 0 0 0 1
create_atoms  1 single 4.7622031559046 0.7937005259841 17 mol bs 24987 units box remap yes rotate 0 0 0 1
Created 30 atoms
  create_atoms CPU = 9.74e-05 secs
variable      check1 equal ${check}               # Count the new total number of atoms
variable      check1 equal 3488               
# Check that the molecule has indeed been inserted (This check is no longer an issue).
if            "${check1} != ${check0}" then "create_bonds  single/bond 2 ${randatomi} $b" "next i"
create_bonds  single/bond 2 ${randatomi} $b
create_bonds  single/bond 2 1460 $b
create_bonds  single/bond 2 1460 3459
  2 = max # of 1-2 neighbors
  5 = max # of special neighbors
  special bonds CPU = 0.0048904 secs
next i
jump MDPBB.in loop    # End of the loop
variable      randni equal round(random(1,${ntwall},$s))  # Pick a random "top" wall atom
variable      randni equal round(random(1,2888,$s))  
variable      randni equal round(random(1,2888,234897))  
variable      randatomi equal ${randni}                   # This is to obtain an integer number for atom-id
variable      randatomi equal 1385                   
variable      randzi equal z[${randatomi}]                # Determine the z coordinate of the chosen atom
variable      randzi equal z[1385]                
# if the chosen atom is not a surface atom then restart the loop
if            "${randzi} < $(v_wthick - 0.7)" then "jump MDPBB.in loop"
jump MDPBB.in loop
variable      randni equal round(random(1,${ntwall},$s))  # Pick a random "top" wall atom
variable      randni equal round(random(1,2888,$s))  
variable      randni equal round(random(1,2888,234897))  
variable      randatomi equal ${randni}                   # This is to obtain an integer number for atom-id
variable      randatomi equal 2667                   
variable      randzi equal z[${randatomi}]                # Determine the z coordinate of the chosen atom
variable      randzi equal z[2667]                
# if the chosen atom is not a surface atom then restart the loop
if            "${randzi} < $(v_wthick - 0.7)" then "jump MDPBB.in loop"
set           atom ${randatomi} type 4                    # Set this grafted wall atom as a new type
set           atom 2667 type 4                    
  1 settings made for type
group         twg id ${randatomi}                         # Add this atom to a top-wall-grafted group
group         twg id 2667                         
21 atoms in group twg
variable      twgcount equal count(twg)
print         "twg contains ${twgcount}"
twg contains 21
print         "i = $(v_i)"                                # The index i should always be equal to the number of atom in twg
i = 21
variable      x0 equal x[${randatomi}]                    # Determine its x-coord
variable      x0 equal x[2667]                    
variable      y0 equal y[${randatomi}]                    # Determine its y-coord
variable      y0 equal y[2667]                    
variable      check0 equal ${check}                       # Count the number of atoms in the simulation
variable      check0 equal 3488                       
variable      b equal ${check}+1                          # The grafted bead id will be one higher after being inserted
variable      b equal 3488+1                          
if            "${twgcount} != $(v_i)" then "jump MDPBB.in loop"
# Otherwise insert the chain directly above the chosen wall atom pointing perpendicular to the wall
create_atoms  1 single ${x0} ${y0} ${z0} mol bs 24987 units box remap yes rotate 0 0 0 1
create_atoms  1 single 2.3811015779523 ${y0} ${z0} mol bs 24987 units box remap yes rotate 0 0 0 1
create_atoms  1 single 2.3811015779523 25.3984168314912 ${z0} mol bs 24987 units box remap yes rotate 0 0 0 1
create_atoms  1 single 2.3811015779523 25.3984168314912 17 mol bs 24987 units box remap yes rotate 0 0 0 1
Created 30 atoms
  create_atoms CPU = 0.0001072 secs
variable      check1 equal ${check}               # Count the new total number of atoms
variable      check1 equal 3518               
# Check that the molecule has indeed been inserted (This check is no longer an issue).
if            "${check1} != ${check0}" then "create_bonds  single/bond 2 ${randatomi} $b" "next i"
create_bonds  single/bond 2 ${randatomi} $b
create_bonds  single/bond 2 2667 $b
create_bonds  single/bond 2 2667 3489
  2 = max # of 1-2 neighbors
  5 = max # of special neighbors
  special bonds CPU = 0.0030669 secs
next i
jump MDPBB.in loop    # End of the loop
variable      randni equal round(random(1,${ntwall},$s))  # Pick a random "top" wall atom
variable      randni equal round(random(1,2888,$s))  
variable      randni equal round(random(1,2888,234897))  
variable      randatomi equal ${randni}                   # This is to obtain an integer number for atom-id
variable      randatomi equal 703                   
variable      randzi equal z[${randatomi}]                # Determine the z coordinate of the chosen atom
variable      randzi equal z[703]                
# if the chosen atom is not a surface atom then restart the loop
if            "${randzi} < $(v_wthick - 0.7)" then "jump MDPBB.in loop"
jump MDPBB.in loop
variable      randni equal round(random(1,${ntwall},$s))  # Pick a random "top" wall atom
variable      randni equal round(random(1,2888,$s))  
variable      randni equal round(random(1,2888,234897))  
variable      randatomi equal ${randni}                   # This is to obtain an integer number for atom-id
variable      randatomi equal 1786                   
variable      randzi equal z[${randatomi}]                # Determine the z coordinate of the chosen atom
variable      randzi equal z[1786]                
# if the chosen atom is not a surface atom then restart the loop
if            "${randzi} < $(v_wthick - 0.7)" then "jump MDPBB.in loop"
jump MDPBB.in loop
variable      randni equal round(random(1,${ntwall},$s))  # Pick a random "top" wall atom
variable      randni equal round(random(1,2888,$s))  
variable      randni equal round(random(1,2888,234897))  
variable      randatomi equal ${randni}                   # This is to obtain an integer number for atom-id
variable      randatomi equal 618                   
variable      randzi equal z[${randatomi}]                # Determine the z coordinate of the chosen atom
variable      randzi equal z[618]                
# if the chosen atom is not a surface atom then restart the loop
if            "${randzi} < $(v_wthick - 0.7)" then "jump MDPBB.in loop"
jump MDPBB.in loop
variable      randni equal round(random(1,${ntwall},$s))  # Pick a random "top" wall atom
variable      randni equal round(random(1,2888,$s))  
variable      randni equal round(random(1,2888,234897))  
variable      randatomi equal ${randni}                   # This is to obtain an integer number for atom-id
variable      randatomi equal 2572                   
variable      randzi equal z[${randatomi}]                # Determine the z coordinate of the chosen atom
variable      randzi equal z[2572]                
# if the chosen atom is not a surface atom then restart the loop
if            "${randzi} < $(v_wthick - 0.7)" then "jump MDPBB.in loop"
set           atom ${randatomi} type 4                    # Set this grafted wall atom as a new type
set           atom 2572 type 4                    
  1 settings made for type
group         twg id ${randatomi}                         # Add this atom to a top-wall-grafted group
group         twg id 2572                         
22 atoms in group twg
variable      twgcount equal count(twg)
print         "twg contains ${twgcount}"
twg contains 22
print         "i = $(v_i)"                                # The index i should always be equal to the number of atom in twg
i = 22
variable      x0 equal x[${randatomi}]                    # Determine its x-coord
variable      x0 equal x[2572]                    
variable      y0 equal y[${randatomi}]                    # Determine its y-coord
variable      y0 equal y[2572]                    
variable      check0 equal ${check}                       # Count the number of atoms in the simulation
variable      check0 equal 3518                       
variable      b equal ${check}+1                          # The grafted bead id will be one higher after being inserted
variable      b equal 3518+1                          
if            "${twgcount} != $(v_i)" then "jump MDPBB.in loop"
# Otherwise insert the chain directly above the chosen wall atom pointing perpendicular to the wall
create_atoms  1 single ${x0} ${y0} ${z0} mol bs 24987 units box remap yes rotate 0 0 0 1
create_atoms  1 single 23.811015779523 ${y0} ${z0} mol bs 24987 units box remap yes rotate 0 0 0 1
create_atoms  1 single 23.811015779523 23.0173152535389 ${z0} mol bs 24987 units box remap yes rotate 0 0 0 1
create_atoms  1 single 23.811015779523 23.0173152535389 17 mol bs 24987 units box remap yes rotate 0 0 0 1
Created 30 atoms
  create_atoms CPU = 9.21e-05 secs
variable      check1 equal ${check}               # Count the new total number of atoms
variable      check1 equal 3548               
# Check that the molecule has indeed been inserted (This check is no longer an issue).
if            "${check1} != ${check0}" then "create_bonds  single/bond 2 ${randatomi} $b" "next i"
create_bonds  single/bond 2 ${randatomi} $b
create_bonds  single/bond 2 2572 $b
create_bonds  single/bond 2 2572 3519
  2 = max # of 1-2 neighbors
  5 = max # of special neighbors
  special bonds CPU = 0.0033105 secs
next i
jump MDPBB.in loop    # End of the loop
variable      randni equal round(random(1,${ntwall},$s))  # Pick a random "top" wall atom
variable      randni equal round(random(1,2888,$s))  
variable      randni equal round(random(1,2888,234897))  
variable      randatomi equal ${randni}                   # This is to obtain an integer number for atom-id
variable      randatomi equal 514                   
variable      randzi equal z[${randatomi}]                # Determine the z coordinate of the chosen atom
variable      randzi equal z[514]                
# if the chosen atom is not a surface atom then restart the loop
if            "${randzi} < $(v_wthick - 0.7)" then "jump MDPBB.in loop"
jump MDPBB.in loop
variable      randni equal round(random(1,${ntwall},$s))  # Pick a random "top" wall atom
variable      randni equal round(random(1,2888,$s))  
variable      randni equal round(random(1,2888,234897))  
variable      randatomi equal ${randni}                   # This is to obtain an integer number for atom-id
variable      randatomi equal 917                   
variable      randzi equal z[${randatomi}]                # Determine the z coordinate of the chosen atom
variable      randzi equal z[917]                
# if the chosen atom is not a surface atom then restart the loop
if            "${randzi} < $(v_wthick - 0.7)" then "jump MDPBB.in loop"
jump MDPBB.in loop
variable      randni equal round(random(1,${ntwall},$s))  # Pick a random "top" wall atom
variable      randni equal round(random(1,2888,$s))  
variable      randni equal round(random(1,2888,234897))  
variable      randatomi equal ${randni}                   # This is to obtain an integer number for atom-id
variable      randatomi equal 1098                   
variable      randzi equal z[${randatomi}]                # Determine the z coordinate of the chosen atom
variable      randzi equal z[1098]                
# if the chosen atom is not a surface atom then restart the loop
if            "${randzi} < $(v_wthick - 0.7)" then "jump MDPBB.in loop"
jump MDPBB.in loop
variable      randni equal round(random(1,${ntwall},$s))  # Pick a random "top" wall atom
variable      randni equal round(random(1,2888,$s))  
variable      randni equal round(random(1,2888,234897))  
variable      randatomi equal ${randni}                   # This is to obtain an integer number for atom-id
variable      randatomi equal 1545                   
variable      randzi equal z[${randatomi}]                # Determine the z coordinate of the chosen atom
variable      randzi equal z[1545]                
# if the chosen atom is not a surface atom then restart the loop
if            "${randzi} < $(v_wthick - 0.7)" then "jump MDPBB.in loop"
jump MDPBB.in loop
variable      randni equal round(random(1,${ntwall},$s))  # Pick a random "top" wall atom
variable      randni equal round(random(1,2888,$s))  
variable      randni equal round(random(1,2888,234897))  
variable      randatomi equal ${randni}                   # This is to obtain an integer number for atom-id
variable      randatomi equal 1199                   
variable      randzi equal z[${randatomi}]                # Determine the z coordinate of the chosen atom
variable      randzi equal z[1199]                
# if the chosen atom is not a surface atom then restart the loop
if            "${randzi} < $(v_wthick - 0.7)" then "jump MDPBB.in loop"
jump MDPBB.in loop
variable      randni equal round(random(1,${ntwall},$s))  # Pick a random "top" wall atom
variable      randni equal round(random(1,2888,$s))  
variable      randni equal round(random(1,2888,234897))  
variable      randatomi equal ${randni}                   # This is to obtain an integer number for atom-id
variable      randatomi equal 2297                   
variable      randzi equal z[${randatomi}]                # Determine the z coordinate of the chosen atom
variable      randzi equal z[2297]                
# if the chosen atom is not a surface atom then restart the loop
if            "${randzi} < $(v_wthick - 0.7)" then "jump MDPBB.in loop"
jump MDPBB.in loop
variable      randni equal round(random(1,${ntwall},$s))  # Pick a random "top" wall atom
variable      randni equal round(random(1,2888,$s))  
variable      randni equal round(random(1,2888,234897))  
variable      randatomi equal ${randni}                   # This is to obtain an integer number for atom-id
variable      randatomi equal 1647                   
variable      randzi equal z[${randatomi}]                # Determine the z coordinate of the chosen atom
variable      randzi equal z[1647]                
# if the chosen atom is not a surface atom then restart the loop
if            "${randzi} < $(v_wthick - 0.7)" then "jump MDPBB.in loop"
set           atom ${randatomi} type 4                    # Set this grafted wall atom as a new type
set           atom 1647 type 4                    
  1 settings made for type
group         twg id ${randatomi}                         # Add this atom to a top-wall-grafted group
group         twg id 1647                         
23 atoms in group twg
variable      twgcount equal count(twg)
print         "twg contains ${twgcount}"
twg contains 23
print         "i = $(v_i)"                                # The index i should always be equal to the number of atom in twg
i = 23
variable      x0 equal x[${randatomi}]                    # Determine its x-coord
variable      x0 equal x[1647]                    
variable      y0 equal y[${randatomi}]                    # Determine its y-coord
variable      y0 equal y[1647]                    
variable      check0 equal ${check}                       # Count the number of atoms in the simulation
variable      check0 equal 3548                       
variable      b equal ${check}+1                          # The grafted bead id will be one higher after being inserted
variable      b equal 3548+1                          
if            "${twgcount} != $(v_i)" then "jump MDPBB.in loop"
# Otherwise insert the chain directly above the chosen wall atom pointing perpendicular to the wall
create_atoms  1 single ${x0} ${y0} ${z0} mol bs 24987 units box remap yes rotate 0 0 0 1
create_atoms  1 single 19.8425131496025 ${y0} ${z0} mol bs 24987 units box remap yes rotate 0 0 0 1
create_atoms  1 single 19.8425131496025 3.1748021039364 ${z0} mol bs 24987 units box remap yes rotate 0 0 0 1
create_atoms  1 single 19.8425131496025 3.1748021039364 17 mol bs 24987 units box remap yes rotate 0 0 0 1
Created 30 atoms
  create_atoms CPU = 8.23e-05 secs
variable      check1 equal ${check}               # Count the new total number of atoms
variable      check1 equal 3578               
# Check that the molecule has indeed been inserted (This check is no longer an issue).
if            "${check1} != ${check0}" then "create_bonds  single/bond 2 ${randatomi} $b" "next i"
create_bonds  single/bond 2 ${randatomi} $b
create_bonds  single/bond 2 1647 $b
create_bonds  single/bond 2 1647 3549
  2 = max # of 1-2 neighbors
  5 = max # of special neighbors
  special bonds CPU = 0.0024607 secs
next i
jump MDPBB.in loop    # End of the loop
variable      randni equal round(random(1,${ntwall},$s))  # Pick a random "top" wall atom
variable      randni equal round(random(1,2888,$s))  
variable      randni equal round(random(1,2888,234897))  
variable      randatomi equal ${randni}                   # This is to obtain an integer number for atom-id
variable      randatomi equal 1410                   
variable      randzi equal z[${randatomi}]                # Determine the z coordinate of the chosen atom
variable      randzi equal z[1410]                
# if the chosen atom is not a surface atom then restart the loop
if            "${randzi} < $(v_wthick - 0.7)" then "jump MDPBB.in loop"
jump MDPBB.in loop
variable      randni equal round(random(1,${ntwall},$s))  # Pick a random "top" wall atom
variable      randni equal round(random(1,2888,$s))  
variable      randni equal round(random(1,2888,234897))  
variable      randatomi equal ${randni}                   # This is to obtain an integer number for atom-id
variable      randatomi equal 1682                   
variable      randzi equal z[${randatomi}]                # Determine the z coordinate of the chosen atom
variable      randzi equal z[1682]                
# if the chosen atom is not a surface atom then restart the loop
if            "${randzi} < $(v_wthick - 0.7)" then "jump MDPBB.in loop"
jump MDPBB.in loop
variable      randni equal round(random(1,${ntwall},$s))  # Pick a random "top" wall atom
variable      randni equal round(random(1,2888,$s))  
variable      randni equal round(random(1,2888,234897))  
variable      randatomi equal ${randni}                   # This is to obtain an integer number for atom-id
variable      randatomi equal 186                   
variable      randzi equal z[${randatomi}]                # Determine the z coordinate of the chosen atom
variable      randzi equal z[186]                
# if the chosen atom is not a surface atom then restart the loop
if            "${randzi} < $(v_wthick - 0.7)" then "jump MDPBB.in loop"
jump MDPBB.in loop
variable      randni equal round(random(1,${ntwall},$s))  # Pick a random "top" wall atom
variable      randni equal round(random(1,2888,$s))  
variable      randni equal round(random(1,2888,234897))  
variable      randatomi equal ${randni}                   # This is to obtain an integer number for atom-id
variable      randatomi equal 335                   
variable      randzi equal z[${randatomi}]                # Determine the z coordinate of the chosen atom
variable      randzi equal z[335]                
# if the chosen atom is not a surface atom then restart the loop
if            "${randzi} < $(v_wthick - 0.7)" then "jump MDPBB.in loop"
jump MDPBB.in loop
variable      randni equal round(random(1,${ntwall},$s))  # Pick a random "top" wall atom
variable      randni equal round(random(1,2888,$s))  
variable      randni equal round(random(1,2888,234897))  
variable      randatomi equal ${randni}                   # This is to obtain an integer number for atom-id
variable      randatomi equal 1181                   
variable      randzi equal z[${randatomi}]                # Determine the z coordinate of the chosen atom
variable      randzi equal z[1181]                
# if the chosen atom is not a surface atom then restart the loop
if            "${randzi} < $(v_wthick - 0.7)" then "jump MDPBB.in loop"
jump MDPBB.in loop
variable      randni equal round(random(1,${ntwall},$s))  # Pick a random "top" wall atom
variable      randni equal round(random(1,2888,$s))  
variable      randni equal round(random(1,2888,234897))  
variable      randatomi equal ${randni}                   # This is to obtain an integer number for atom-id
variable      randatomi equal 988                   
variable      randzi equal z[${randatomi}]                # Determine the z coordinate of the chosen atom
variable      randzi equal z[988]                
# if the chosen atom is not a surface atom then restart the loop
if            "${randzi} < $(v_wthick - 0.7)" then "jump MDPBB.in loop"
jump MDPBB.in loop
variable      randni equal round(random(1,${ntwall},$s))  # Pick a random "top" wall atom
variable      randni equal round(random(1,2888,$s))  
variable      randni equal round(random(1,2888,234897))  
variable      randatomi equal ${randni}                   # This is to obtain an integer number for atom-id
variable      randatomi equal 1103                   
variable      randzi equal z[${randatomi}]                # Determine the z coordinate of the chosen atom
variable      randzi equal z[1103]                
# if the chosen atom is not a surface atom then restart the loop
if            "${randzi} < $(v_wthick - 0.7)" then "jump MDPBB.in loop"
jump MDPBB.in loop
variable      randni equal round(random(1,${ntwall},$s))  # Pick a random "top" wall atom
variable      randni equal round(random(1,2888,$s))  
variable      randni equal round(random(1,2888,234897))  
variable      randatomi equal ${randni}                   # This is to obtain an integer number for atom-id
variable      randatomi equal 1432                   
variable      randzi equal z[${randatomi}]                # Determine the z coordinate of the chosen atom
variable      randzi equal z[1432]                
# if the chosen atom is not a surface atom then restart the loop
if            "${randzi} < $(v_wthick - 0.7)" then "jump MDPBB.in loop"
jump MDPBB.in loop
variable      randni equal round(random(1,${ntwall},$s))  # Pick a random "top" wall atom
variable      randni equal round(random(1,2888,$s))  
variable      randni equal round(random(1,2888,234897))  
variable      randatomi equal ${randni}                   # This is to obtain an integer number for atom-id
variable      randatomi equal 2398                   
variable      randzi equal z[${randatomi}]                # Determine the z coordinate of the chosen atom
variable      randzi equal z[2398]                
# if the chosen atom is not a surface atom then restart the loop
if            "${randzi} < $(v_wthick - 0.7)" then "jump MDPBB.in loop"
jump MDPBB.in loop
variable      randni equal round(random(1,${ntwall},$s))  # Pick a random "top" wall atom
variable      randni equal round(random(1,2888,$s))  
variable      randni equal round(random(1,2888,234897))  
variable      randatomi equal ${randni}                   # This is to obtain an integer number for atom-id
variable      randatomi equal 2319                   
variable      randzi equal z[${randatomi}]                # Determine the z coordinate of the chosen atom
variable      randzi equal z[2319]                
# if the chosen atom is not a surface atom then restart the loop
if            "${randzi} < $(v_wthick - 0.7)" then "jump MDPBB.in loop"
set           atom ${randatomi} type 4                    # Set this grafted wall atom as a new type
set           atom 2319 type 4                    
  1 settings made for type
group         twg id ${randatomi}                         # Add this atom to a top-wall-grafted group
group         twg id 2319                         
24 atoms in group twg
variable      twgcount equal count(twg)
print         "twg contains ${twgcount}"
twg contains 24
print         "i = $(v_i)"                                # The index i should always be equal to the number of atom in twg
i = 24
variable      x0 equal x[${randatomi}]                    # Determine its x-coord
variable      x0 equal x[2319]                    
variable      y0 equal y[${randatomi}]                    # Determine its y-coord
variable      y0 equal y[2319]                    
variable      check0 equal ${check}                       # Count the number of atoms in the simulation
variable      check0 equal 3578                       
variable      b equal ${check}+1                          # The grafted bead id will be one higher after being inserted
variable      b equal 3578+1                          
if            "${twgcount} != $(v_i)" then "jump MDPBB.in loop"
# Otherwise insert the chain directly above the chosen wall atom pointing perpendicular to the wall
create_atoms  1 single ${x0} ${y0} ${z0} mol bs 24987 units box remap yes rotate 0 0 0 1
create_atoms  1 single 15.0803099936979 ${y0} ${z0} mol bs 24987 units box remap yes rotate 0 0 0 1
create_atoms  1 single 15.0803099936979 17.4614115716502 ${z0} mol bs 24987 units box remap yes rotate 0 0 0 1
create_atoms  1 single 15.0803099936979 17.4614115716502 17 mol bs 24987 units box remap yes rotate 0 0 0 1
Created 30 atoms
  create_atoms CPU = 0.0001399 secs
variable      check1 equal ${check}               # Count the new total number of atoms
variable      check1 equal 3608               
# Check that the molecule has indeed been inserted (This check is no longer an issue).
if            "${check1} != ${check0}" then "create_bonds  single/bond 2 ${randatomi} $b" "next i"
create_bonds  single/bond 2 ${randatomi} $b
create_bonds  single/bond 2 2319 $b
create_bonds  single/bond 2 2319 3579
  2 = max # of 1-2 neighbors
  5 = max # of special neighbors
  special bonds CPU = 0.0034113 secs
next i
jump MDPBB.in loop    # End of the loop
variable      randni equal round(random(1,${ntwall},$s))  # Pick a random "top" wall atom
variable      randni equal round(random(1,2888,$s))  
variable      randni equal round(random(1,2888,234897))  
variable      randatomi equal ${randni}                   # This is to obtain an integer number for atom-id
variable      randatomi equal 2859                   
variable      randzi equal z[${randatomi}]                # Determine the z coordinate of the chosen atom
variable      randzi equal z[2859]                
# if the chosen atom is not a surface atom then restart the loop
if            "${randzi} < $(v_wthick - 0.7)" then "jump MDPBB.in loop"
set           atom ${randatomi} type 4                    # Set this grafted wall atom as a new type
set           atom 2859 type 4                    
  1 settings made for type
group         twg id ${randatomi}                         # Add this atom to a top-wall-grafted group
group         twg id 2859                         
25 atoms in group twg
variable      twgcount equal count(twg)
print         "twg contains ${twgcount}"
twg contains 25
print         "i = $(v_i)"                                # The index i should always be equal to the number of atom in twg
i = 25
variable      x0 equal x[${randatomi}]                    # Determine its x-coord
variable      x0 equal x[2859]                    
variable      y0 equal y[${randatomi}]                    # Determine its y-coord
variable      y0 equal y[2859]                    
variable      check0 equal ${check}                       # Count the number of atoms in the simulation
variable      check0 equal 3608                       
variable      b equal ${check}+1                          # The grafted bead id will be one higher after being inserted
variable      b equal 3608+1                          
if            "${twgcount} != $(v_i)" then "jump MDPBB.in loop"
# Otherwise insert the chain directly above the chosen wall atom pointing perpendicular to the wall
create_atoms  1 single ${x0} ${y0} ${z0} mol bs 24987 units box remap yes rotate 0 0 0 1
create_atoms  1 single 18.2551120976343 ${y0} ${z0} mol bs 24987 units box remap yes rotate 0 0 0 1
create_atoms  1 single 18.2551120976343 28.5732189354276 ${z0} mol bs 24987 units box remap yes rotate 0 0 0 1
create_atoms  1 single 18.2551120976343 28.5732189354276 17 mol bs 24987 units box remap yes rotate 0 0 0 1
Created 30 atoms
  create_atoms CPU = 9.58e-05 secs
variable      check1 equal ${check}               # Count the new total number of atoms
variable      check1 equal 3638               
# Check that the molecule has indeed been inserted (This check is no longer an issue).
if            "${check1} != ${check0}" then "create_bonds  single/bond 2 ${randatomi} $b" "next i"
create_bonds  single/bond 2 ${randatomi} $b
create_bonds  single/bond 2 2859 $b
create_bonds  single/bond 2 2859 3609
  2 = max # of 1-2 neighbors
  5 = max # of special neighbors
  special bonds CPU = 0.0031518 secs
next i
jump MDPBB.in loop    # End of the loop
variable      randni equal round(random(1,${ntwall},$s))  # Pick a random "top" wall atom
variable      randni equal round(random(1,2888,$s))  
variable      randni equal round(random(1,2888,234897))  
variable      randatomi equal ${randni}                   # This is to obtain an integer number for atom-id
variable      randatomi equal 290                   
variable      randzi equal z[${randatomi}]                # Determine the z coordinate of the chosen atom
variable      randzi equal z[290]                
# if the chosen atom is not a surface atom then restart the loop
if            "${randzi} < $(v_wthick - 0.7)" then "jump MDPBB.in loop"
jump MDPBB.in loop
variable      randni equal round(random(1,${ntwall},$s))  # Pick a random "top" wall atom
variable      randni equal round(random(1,2888,$s))  
variable      randni equal round(random(1,2888,234897))  
variable      randatomi equal ${randni}                   # This is to obtain an integer number for atom-id
variable      randatomi equal 1516                   
variable      randzi equal z[${randatomi}]                # Determine the z coordinate of the chosen atom
variable      randzi equal z[1516]                
# if the chosen atom is not a surface atom then restart the loop
if            "${randzi} < $(v_wthick - 0.7)" then "jump MDPBB.in loop"
set           atom ${randatomi} type 4                    # Set this grafted wall atom as a new type
set           atom 1516 type 4                    
  1 settings made for type
group         twg id ${randatomi}                         # Add this atom to a top-wall-grafted group
group         twg id 1516                         
26 atoms in group twg
variable      twgcount equal count(twg)
print         "twg contains ${twgcount}"
twg contains 26
print         "i = $(v_i)"                                # The index i should always be equal to the number of atom in twg
i = 26
variable      x0 equal x[${randatomi}]                    # Determine its x-coord
variable      x0 equal x[1516]                    
variable      y0 equal y[${randatomi}]                    # Determine its y-coord
variable      y0 equal y[1516]                    
variable      check0 equal ${check}                       # Count the number of atoms in the simulation
variable      check0 equal 3638                       
variable      b equal ${check}+1                          # The grafted bead id will be one higher after being inserted
variable      b equal 3638+1                          
if            "${twgcount} != $(v_i)" then "jump MDPBB.in loop"
# Otherwise insert the chain directly above the chosen wall atom pointing perpendicular to the wall
create_atoms  1 single ${x0} ${y0} ${z0} mol bs 24987 units box remap yes rotate 0 0 0 1
create_atoms  1 single 26.9858178834594 ${y0} ${z0} mol bs 24987 units box remap yes rotate 0 0 0 1
create_atoms  1 single 26.9858178834594 0.7937005259841 ${z0} mol bs 24987 units box remap yes rotate 0 0 0 1
create_atoms  1 single 26.9858178834594 0.7937005259841 17 mol bs 24987 units box remap yes rotate 0 0 0 1
Created 30 atoms
  create_atoms CPU = 7.63e-05 secs
variable      check1 equal ${check}               # Count the new total number of atoms
variable      check1 equal 3668               
# Check that the molecule has indeed been inserted (This check is no longer an issue).
if            "${check1} != ${check0}" then "create_bonds  single/bond 2 ${randatomi} $b" "next i"
create_bonds  single/bond 2 ${randatomi} $b
create_bonds  single/bond 2 1516 $b
create_bonds  single/bond 2 1516 3639
  2 = max # of 1-2 neighbors
  5 = max # of special neighbors
  special bonds CPU = 0.0029735 secs
next i
jump MDPBB.in loop    # End of the loop
variable      randni equal round(random(1,${ntwall},$s))  # Pick a random "top" wall atom
variable      randni equal round(random(1,2888,$s))  
variable      randni equal round(random(1,2888,234897))  
variable      randatomi equal ${randni}                   # This is to obtain an integer number for atom-id
variable      randatomi equal 2473                   
variable      randzi equal z[${randatomi}]                # Determine the z coordinate of the chosen atom
variable      randzi equal z[2473]                
# if the chosen atom is not a surface atom then restart the loop
if            "${randzi} < $(v_wthick - 0.7)" then "jump MDPBB.in loop"
jump MDPBB.in loop
variable      randni equal round(random(1,${ntwall},$s))  # Pick a random "top" wall atom
variable      randni equal round(random(1,2888,$s))  
variable      randni equal round(random(1,2888,234897))  
variable      randatomi equal ${randni}                   # This is to obtain an integer number for atom-id
variable      randatomi equal 2726                   
variable      randzi equal z[${randatomi}]                # Determine the z coordinate of the chosen atom
variable      randzi equal z[2726]                
# if the chosen atom is not a surface atom then restart the loop
if            "${randzi} < $(v_wthick - 0.7)" then "jump MDPBB.in loop"
jump MDPBB.in loop
variable      randni equal round(random(1,${ntwall},$s))  # Pick a random "top" wall atom
variable      randni equal round(random(1,2888,$s))  
variable      randni equal round(random(1,2888,234897))  
variable      randatomi equal ${randni}                   # This is to obtain an integer number for atom-id
variable      randatomi equal 956                   
variable      randzi equal z[${randatomi}]                # Determine the z coordinate of the chosen atom
variable      randzi equal z[956]                
# if the chosen atom is not a surface atom then restart the loop
if            "${randzi} < $(v_wthick - 0.7)" then "jump MDPBB.in loop"
jump MDPBB.in loop
variable      randni equal round(random(1,${ntwall},$s))  # Pick a random "top" wall atom
variable      randni equal round(random(1,2888,$s))  
variable      randni equal round(random(1,2888,234897))  
variable      randatomi equal ${randni}                   # This is to obtain an integer number for atom-id
variable      randatomi equal 1598                   
variable      randzi equal z[${randatomi}]                # Determine the z coordinate of the chosen atom
variable      randzi equal z[1598]                
# if the chosen atom is not a surface atom then restart the loop
if            "${randzi} < $(v_wthick - 0.7)" then "jump MDPBB.in loop"
jump MDPBB.in loop
variable      randni equal round(random(1,${ntwall},$s))  # Pick a random "top" wall atom
variable      randni equal round(random(1,2888,$s))  
variable      randni equal round(random(1,2888,234897))  
variable      randatomi equal ${randni}                   # This is to obtain an integer number for atom-id
variable      randatomi equal 1165                   
variable      randzi equal z[${randatomi}]                # Determine the z coordinate of the chosen atom
variable      randzi equal z[1165]                
# if the chosen atom is not a surface atom then restart the loop
if            "${randzi} < $(v_wthick - 0.7)" then "jump MDPBB.in loop"
jump MDPBB.in loop
variable      randni equal round(random(1,${ntwall},$s))  # Pick a random "top" wall atom
variable      randni equal round(random(1,2888,$s))  
variable      randni equal round(random(1,2888,234897))  
variable      randatomi equal ${randni}                   # This is to obtain an integer number for atom-id
variable      randatomi equal 993                   
variable      randzi equal z[${randatomi}]                # Determine the z coordinate of the chosen atom
variable      randzi equal z[993]                
# if the chosen atom is not a surface atom then restart the loop
if            "${randzi} < $(v_wthick - 0.7)" then "jump MDPBB.in loop"
jump MDPBB.in loop
variable      randni equal round(random(1,${ntwall},$s))  # Pick a random "top" wall atom
variable      randni equal round(random(1,2888,$s))  
variable      randni equal round(random(1,2888,234897))  
variable      randatomi equal ${randni}                   # This is to obtain an integer number for atom-id
variable      randatomi equal 2335                   
variable      randzi equal z[${randatomi}]                # Determine the z coordinate of the chosen atom
variable      randzi equal z[2335]                
# if the chosen atom is not a surface atom then restart the loop
if            "${randzi} < $(v_wthick - 0.7)" then "jump MDPBB.in loop"
set           atom ${randatomi} type 4                    # Set this grafted wall atom as a new type
set           atom 2335 type 4                    
  1 settings made for type
group         twg id ${randatomi}                         # Add this atom to a top-wall-grafted group
group         twg id 2335                         
27 atoms in group twg
variable      twgcount equal count(twg)
print         "twg contains ${twgcount}"
twg contains 27
print         "i = $(v_i)"                                # The index i should always be equal to the number of atom in twg
i = 27
variable      x0 equal x[${randatomi}]                    # Determine its x-coord
variable      x0 equal x[2335]                    
variable      y0 equal y[${randatomi}]                    # Determine its y-coord
variable      y0 equal y[2335]                    
variable      check0 equal ${check}                       # Count the number of atoms in the simulation
variable      check0 equal 3668                       
variable      b equal ${check}+1                          # The grafted bead id will be one higher after being inserted
variable      b equal 3668+1                          
if            "${twgcount} != $(v_i)" then "jump MDPBB.in loop"
# Otherwise insert the chain directly above the chosen wall atom pointing perpendicular to the wall
create_atoms  1 single ${x0} ${y0} ${z0} mol bs 24987 units box remap yes rotate 0 0 0 1
create_atoms  1 single 21.4299142015707 ${y0} ${z0} mol bs 24987 units box remap yes rotate 0 0 0 1
create_atoms  1 single 21.4299142015707 17.4614115716502 ${z0} mol bs 24987 units box remap yes rotate 0 0 0 1
create_atoms  1 single 21.4299142015707 17.4614115716502 17 mol bs 24987 units box remap yes rotate 0 0 0 1
Created 30 atoms
  create_atoms CPU = 0.0001053 secs
variable      check1 equal ${check}               # Count the new total number of atoms
variable      check1 equal 3698               
# Check that the molecule has indeed been inserted (This check is no longer an issue).
if            "${check1} != ${check0}" then "create_bonds  single/bond 2 ${randatomi} $b" "next i"
create_bonds  single/bond 2 ${randatomi} $b
create_bonds  single/bond 2 2335 $b
create_bonds  single/bond 2 2335 3669
  2 = max # of 1-2 neighbors
  5 = max # of special neighbors
  special bonds CPU = 0.0026317 secs
next i
jump MDPBB.in loop    # End of the loop
variable      randni equal round(random(1,${ntwall},$s))  # Pick a random "top" wall atom
variable      randni equal round(random(1,2888,$s))  
variable      randni equal round(random(1,2888,234897))  
variable      randatomi equal ${randni}                   # This is to obtain an integer number for atom-id
variable      randatomi equal 1971                   
variable      randzi equal z[${randatomi}]                # Determine the z coordinate of the chosen atom
variable      randzi equal z[1971]                
# if the chosen atom is not a surface atom then restart the loop
if            "${randzi} < $(v_wthick - 0.7)" then "jump MDPBB.in loop"
set           atom ${randatomi} type 4                    # Set this grafted wall atom as a new type
set           atom 1971 type 4                    
  1 settings made for type
group         twg id ${randatomi}                         # Add this atom to a top-wall-grafted group
group         twg id 1971                         
28 atoms in group twg
variable      twgcount equal count(twg)
print         "twg contains ${twgcount}"
twg contains 28
print         "i = $(v_i)"                                # The index i should always be equal to the number of atom in twg
i = 28
variable      x0 equal x[${randatomi}]                    # Determine its x-coord
variable      x0 equal x[1971]                    
variable      y0 equal y[${randatomi}]                    # Determine its y-coord
variable      y0 equal y[1971]                    
variable      check0 equal ${check}                       # Count the number of atoms in the simulation
variable      check0 equal 3698                       
variable      b equal ${check}+1                          # The grafted bead id will be one higher after being inserted
variable      b equal 3698+1                          
if            "${twgcount} != $(v_i)" then "jump MDPBB.in loop"
# Otherwise insert the chain directly above the chosen wall atom pointing perpendicular to the wall
create_atoms  1 single ${x0} ${y0} ${z0} mol bs 24987 units box remap yes rotate 0 0 0 1
create_atoms  1 single 27.7795184094435 ${y0} ${z0} mol bs 24987 units box remap yes rotate 0 0 0 1
create_atoms  1 single 27.7795184094435 9.5244063118092 ${z0} mol bs 24987 units box remap yes rotate 0 0 0 1
create_atoms  1 single 27.7795184094435 9.5244063118092 17 mol bs 24987 units box remap yes rotate 0 0 0 1
Created 30 atoms
  create_atoms CPU = 0.00011 secs
variable      check1 equal ${check}               # Count the new total number of atoms
variable      check1 equal 3728               
# Check that the molecule has indeed been inserted (This check is no longer an issue).
if            "${check1} != ${check0}" then "create_bonds  single/bond 2 ${randatomi} $b" "next i"
create_bonds  single/bond 2 ${randatomi} $b
create_bonds  single/bond 2 1971 $b
create_bonds  single/bond 2 1971 3699
  2 = max # of 1-2 neighbors
  5 = max # of special neighbors
  special bonds CPU = 0.0031698 secs
next i
jump MDPBB.in loop    # End of the loop
variable      randni equal round(random(1,${ntwall},$s))  # Pick a random "top" wall atom
variable      randni equal round(random(1,2888,$s))  
variable      randni equal round(random(1,2888,234897))  
variable      randatomi equal ${randni}                   # This is to obtain an integer number for atom-id
variable      randatomi equal 2830                   
variable      randzi equal z[${randatomi}]                # Determine the z coordinate of the chosen atom
variable      randzi equal z[2830]                
# if the chosen atom is not a surface atom then restart the loop
if            "${randzi} < $(v_wthick - 0.7)" then "jump MDPBB.in loop"
jump MDPBB.in loop
variable      randni equal round(random(1,${ntwall},$s))  # Pick a random "top" wall atom
variable      randni equal round(random(1,2888,$s))  
variable      randni equal round(random(1,2888,234897))  
variable      randatomi equal ${randni}                   # This is to obtain an integer number for atom-id
variable      randatomi equal 503                   
variable      randzi equal z[${randatomi}]                # Determine the z coordinate of the chosen atom
variable      randzi equal z[503]                
# if the chosen atom is not a surface atom then restart the loop
if            "${randzi} < $(v_wthick - 0.7)" then "jump MDPBB.in loop"
jump MDPBB.in loop
variable      randni equal round(random(1,${ntwall},$s))  # Pick a random "top" wall atom
variable      randni equal round(random(1,2888,$s))  
variable      randni equal round(random(1,2888,234897))  
variable      randatomi equal ${randni}                   # This is to obtain an integer number for atom-id
variable      randatomi equal 426                   
variable      randzi equal z[${randatomi}]                # Determine the z coordinate of the chosen atom
variable      randzi equal z[426]                
# if the chosen atom is not a surface atom then restart the loop
if            "${randzi} < $(v_wthick - 0.7)" then "jump MDPBB.in loop"
jump MDPBB.in loop
variable      randni equal round(random(1,${ntwall},$s))  # Pick a random "top" wall atom
variable      randni equal round(random(1,2888,$s))  
variable      randni equal round(random(1,2888,234897))  
variable      randatomi equal ${randni}                   # This is to obtain an integer number for atom-id
variable      randatomi equal 837                   
variable      randzi equal z[${randatomi}]                # Determine the z coordinate of the chosen atom
variable      randzi equal z[837]                
# if the chosen atom is not a surface atom then restart the loop
if            "${randzi} < $(v_wthick - 0.7)" then "jump MDPBB.in loop"
jump MDPBB.in loop
variable      randni equal round(random(1,${ntwall},$s))  # Pick a random "top" wall atom
variable      randni equal round(random(1,2888,$s))  
variable      randni equal round(random(1,2888,234897))  
variable      randatomi equal ${randni}                   # This is to obtain an integer number for atom-id
variable      randatomi equal 2152                   
variable      randzi equal z[${randatomi}]                # Determine the z coordinate of the chosen atom
variable      randzi equal z[2152]                
# if the chosen atom is not a surface atom then restart the loop
if            "${randzi} < $(v_wthick - 0.7)" then "jump MDPBB.in loop"
set           atom ${randatomi} type 4                    # Set this grafted wall atom as a new type
set           atom 2152 type 4                    
  1 settings made for type
group         twg id ${randatomi}                         # Add this atom to a top-wall-grafted group
group         twg id 2152                         
29 atoms in group twg
variable      twgcount equal count(twg)
print         "twg contains ${twgcount}"
twg contains 29
print         "i = $(v_i)"                                # The index i should always be equal to the number of atom in twg
i = 29
variable      x0 equal x[${randatomi}]                    # Determine its x-coord
variable      x0 equal x[2152]                    
variable      y0 equal y[${randatomi}]                    # Determine its y-coord
variable      y0 equal y[2152]                    
variable      check0 equal ${check}                       # Count the number of atoms in the simulation
variable      check0 equal 3728                       
variable      b equal ${check}+1                          # The grafted bead id will be one higher after being inserted
variable      b equal 3728+1                          
if            "${twgcount} != $(v_i)" then "jump MDPBB.in loop"
# Otherwise insert the chain directly above the chosen wall atom pointing perpendicular to the wall
create_atoms  1 single ${x0} ${y0} ${z0} mol bs 24987 units box remap yes rotate 0 0 0 1
create_atoms  1 single 7.937005259841 ${y0} ${z0} mol bs 24987 units box remap yes rotate 0 0 0 1
create_atoms  1 single 7.937005259841 15.0803099936979 ${z0} mol bs 24987 units box remap yes rotate 0 0 0 1
create_atoms  1 single 7.937005259841 15.0803099936979 17 mol bs 24987 units box remap yes rotate 0 0 0 1
Created 30 atoms
  create_atoms CPU = 0.0001115 secs
variable      check1 equal ${check}               # Count the new total number of atoms
variable      check1 equal 3758               
# Check that the molecule has indeed been inserted (This check is no longer an issue).
if            "${check1} != ${check0}" then "create_bonds  single/bond 2 ${randatomi} $b" "next i"
create_bonds  single/bond 2 ${randatomi} $b
create_bonds  single/bond 2 2152 $b
create_bonds  single/bond 2 2152 3729
  2 = max # of 1-2 neighbors
  5 = max # of special neighbors
  special bonds CPU = 0.002527 secs
next i
jump MDPBB.in loop    # End of the loop
variable      randni equal round(random(1,${ntwall},$s))  # Pick a random "top" wall atom
variable      randni equal round(random(1,2888,$s))  
variable      randni equal round(random(1,2888,234897))  
variable      randatomi equal ${randni}                   # This is to obtain an integer number for atom-id
variable      randatomi equal 2503                   
variable      randzi equal z[${randatomi}]                # Determine the z coordinate of the chosen atom
variable      randzi equal z[2503]                
# if the chosen atom is not a surface atom then restart the loop
if            "${randzi} < $(v_wthick - 0.7)" then "jump MDPBB.in loop"
set           atom ${randatomi} type 4                    # Set this grafted wall atom as a new type
set           atom 2503 type 4                    
  1 settings made for type
group         twg id ${randatomi}                         # Add this atom to a top-wall-grafted group
group         twg id 2503                         
30 atoms in group twg
variable      twgcount equal count(twg)
print         "twg contains ${twgcount}"
twg contains 30
print         "i = $(v_i)"                                # The index i should always be equal to the number of atom in twg
i = 30
variable      x0 equal x[${randatomi}]                    # Determine its x-coord
variable      x0 equal x[2503]                    
variable      y0 equal y[${randatomi}]                    # Determine its y-coord
variable      y0 equal y[2503]                    
variable      check0 equal ${check}                       # Count the number of atoms in the simulation
variable      check0 equal 3758                       
variable      b equal ${check}+1                          # The grafted bead id will be one higher after being inserted
variable      b equal 3758+1                          
if            "${twgcount} != $(v_i)" then "jump MDPBB.in loop"
# Otherwise insert the chain directly above the chosen wall atom pointing perpendicular to the wall
create_atoms  1 single ${x0} ${y0} ${z0} mol bs 24987 units box remap yes rotate 0 0 0 1
create_atoms  1 single 27.7795184094435 ${y0} ${z0} mol bs 24987 units box remap yes rotate 0 0 0 1
create_atoms  1 single 27.7795184094435 20.6362136755866 ${z0} mol bs 24987 units box remap yes rotate 0 0 0 1
create_atoms  1 single 27.7795184094435 20.6362136755866 17 mol bs 24987 units box remap yes rotate 0 0 0 1
Created 30 atoms
  create_atoms CPU = 0.0001384 secs
variable      check1 equal ${check}               # Count the new total number of atoms
variable      check1 equal 3788               
# Check that the molecule has indeed been inserted (This check is no longer an issue).
if            "${check1} != ${check0}" then "create_bonds  single/bond 2 ${randatomi} $b" "next i"
create_bonds  single/bond 2 ${randatomi} $b
create_bonds  single/bond 2 2503 $b
create_bonds  single/bond 2 2503 3759
  2 = max # of 1-2 neighbors
  5 = max # of special neighbors
  special bonds CPU = 0.0031801 secs
next i
jump MDPBB.in loop    # End of the loop
variable      randni equal round(random(1,${ntwall},$s))  # Pick a random "top" wall atom
variable      randni equal round(random(1,2888,$s))  
variable      randni equal round(random(1,2888,234897))  
variable      randatomi equal ${randni}                   # This is to obtain an integer number for atom-id
variable      randatomi equal 88                   
variable      randzi equal z[${randatomi}]                # Determine the z coordinate of the chosen atom
variable      randzi equal z[88]                
# if the chosen atom is not a surface atom then restart the loop
if            "${randzi} < $(v_wthick - 0.7)" then "jump MDPBB.in loop"
jump MDPBB.in loop
variable      randni equal round(random(1,${ntwall},$s))  # Pick a random "top" wall atom
variable      randni equal round(random(1,2888,$s))  
variable      randni equal round(random(1,2888,234897))  
variable      randatomi equal ${randni}                   # This is to obtain an integer number for atom-id
variable      randatomi equal 56                   
variable      randzi equal z[${randatomi}]                # Determine the z coordinate of the chosen atom
variable      randzi equal z[56]                
# if the chosen atom is not a surface atom then restart the loop
if            "${randzi} < $(v_wthick - 0.7)" then "jump MDPBB.in loop"
jump MDPBB.in loop
variable      randni equal round(random(1,${ntwall},$s))  # Pick a random "top" wall atom
variable      randni equal round(random(1,2888,$s))  
variable      randni equal round(random(1,2888,234897))  
variable      randatomi equal ${randni}                   # This is to obtain an integer number for atom-id
variable      randatomi equal 1079                   
variable      randzi equal z[${randatomi}]                # Determine the z coordinate of the chosen atom
variable      randzi equal z[1079]                
# if the chosen atom is not a surface atom then restart the loop
if            "${randzi} < $(v_wthick - 0.7)" then "jump MDPBB.in loop"
jump MDPBB.in loop
variable      randni equal round(random(1,${ntwall},$s))  # Pick a random "top" wall atom
variable      randni equal round(random(1,2888,$s))  
variable      randni equal round(random(1,2888,234897))  
variable      randatomi equal ${randni}                   # This is to obtain an integer number for atom-id
variable      randatomi equal 1596                   
variable      randzi equal z[${randatomi}]                # Determine the z coordinate of the chosen atom
variable      randzi equal z[1596]                
# if the chosen atom is not a surface atom then restart the loop
if            "${randzi} < $(v_wthick - 0.7)" then "jump MDPBB.in loop"
set           atom ${randatomi} type 4                    # Set this grafted wall atom as a new type
set           atom 1596 type 4                    
  1 settings made for type
group         twg id ${randatomi}                         # Add this atom to a top-wall-grafted group
group         twg id 1596                         
31 atoms in group twg
variable      twgcount equal count(twg)
print         "twg contains ${twgcount}"
twg contains 31
print         "i = $(v_i)"                                # The index i should always be equal to the number of atom in twg
i = 31
variable      x0 equal x[${randatomi}]                    # Determine its x-coord
variable      x0 equal x[1596]                    
variable      y0 equal y[${randatomi}]                    # Determine its y-coord
variable      y0 equal y[1596]                    
variable      check0 equal ${check}                       # Count the number of atoms in the simulation
variable      check0 equal 3788                       
variable      b equal ${check}+1                          # The grafted bead id will be one higher after being inserted
variable      b equal 3788+1                          
if            "${twgcount} != $(v_i)" then "jump MDPBB.in loop"
# Otherwise insert the chain directly above the chosen wall atom pointing perpendicular to the wall
create_atoms  1 single ${x0} ${y0} ${z0} mol bs 24987 units box remap yes rotate 0 0 0 1
create_atoms  1 single 28.5732189354276 ${y0} ${z0} mol bs 24987 units box remap yes rotate 0 0 0 1
create_atoms  1 single 28.5732189354276 2.3811015779523 ${z0} mol bs 24987 units box remap yes rotate 0 0 0 1
create_atoms  1 single 28.5732189354276 2.3811015779523 17 mol bs 24987 units box remap yes rotate 0 0 0 1
Created 30 atoms
  create_atoms CPU = 0.0001133 secs
variable      check1 equal ${check}               # Count the new total number of atoms
variable      check1 equal 3818               
# Check that the molecule has indeed been inserted (This check is no longer an issue).
if            "${check1} != ${check0}" then "create_bonds  single/bond 2 ${randatomi} $b" "next i"
create_bonds  single/bond 2 ${randatomi} $b
create_bonds  single/bond 2 1596 $b
create_bonds  single/bond 2 1596 3789
  2 = max # of 1-2 neighbors
  5 = max # of special neighbors
  special bonds CPU = 0.0039944 secs
next i
jump MDPBB.in loop    # End of the loop
variable      randni equal round(random(1,${ntwall},$s))  # Pick a random "top" wall atom
variable      randni equal round(random(1,2888,$s))  
variable      randni equal round(random(1,2888,234897))  
variable      randatomi equal ${randni}                   # This is to obtain an integer number for atom-id
variable      randatomi equal 2287                   
variable      randzi equal z[${randatomi}]                # Determine the z coordinate of the chosen atom
variable      randzi equal z[2287]                
# if the chosen atom is not a surface atom then restart the loop
if            "${randzi} < $(v_wthick - 0.7)" then "jump MDPBB.in loop"
set           atom ${randatomi} type 4                    # Set this grafted wall atom as a new type
set           atom 2287 type 4                    
  1 settings made for type
group         twg id ${randatomi}                         # Add this atom to a top-wall-grafted group
group         twg id 2287                         
32 atoms in group twg
variable      twgcount equal count(twg)
print         "twg contains ${twgcount}"
twg contains 32
print         "i = $(v_i)"                                # The index i should always be equal to the number of atom in twg
i = 32
variable      x0 equal x[${randatomi}]                    # Determine its x-coord
variable      x0 equal x[2287]                    
variable      y0 equal y[${randatomi}]                    # Determine its y-coord
variable      y0 equal y[2287]                    
variable      check0 equal ${check}                       # Count the number of atoms in the simulation
variable      check0 equal 3818                       
variable      b equal ${check}+1                          # The grafted bead id will be one higher after being inserted
variable      b equal 3818+1                          
if            "${twgcount} != $(v_i)" then "jump MDPBB.in loop"
# Otherwise insert the chain directly above the chosen wall atom pointing perpendicular to the wall
create_atoms  1 single ${x0} ${y0} ${z0} mol bs 24987 units box remap yes rotate 0 0 0 1
create_atoms  1 single 2.3811015779523 ${y0} ${z0} mol bs 24987 units box remap yes rotate 0 0 0 1
create_atoms  1 single 2.3811015779523 17.4614115716502 ${z0} mol bs 24987 units box remap yes rotate 0 0 0 1
create_atoms  1 single 2.3811015779523 17.4614115716502 17 mol bs 24987 units box remap yes rotate 0 0 0 1
Created 30 atoms
  create_atoms CPU = 0.0001041 secs
variable      check1 equal ${check}               # Count the new total number of atoms
variable      check1 equal 3848               
# Check that the molecule has indeed been inserted (This check is no longer an issue).
if            "${check1} != ${check0}" then "create_bonds  single/bond 2 ${randatomi} $b" "next i"
create_bonds  single/bond 2 ${randatomi} $b
create_bonds  single/bond 2 2287 $b
create_bonds  single/bond 2 2287 3819
  2 = max # of 1-2 neighbors
  5 = max # of special neighbors
  special bonds CPU = 0.0024936 secs
next i
jump MDPBB.in loop    # End of the loop
variable      randni equal round(random(1,${ntwall},$s))  # Pick a random "top" wall atom
variable      randni equal round(random(1,2888,$s))  
variable      randni equal round(random(1,2888,234897))  
variable      randatomi equal ${randni}                   # This is to obtain an integer number for atom-id
variable      randatomi equal 1166                   
variable      randzi equal z[${randatomi}]                # Determine the z coordinate of the chosen atom
variable      randzi equal z[1166]                
# if the chosen atom is not a surface atom then restart the loop
if            "${randzi} < $(v_wthick - 0.7)" then "jump MDPBB.in loop"
jump MDPBB.in loop
variable      randni equal round(random(1,${ntwall},$s))  # Pick a random "top" wall atom
variable      randni equal round(random(1,2888,$s))  
variable      randni equal round(random(1,2888,234897))  
variable      randatomi equal ${randni}                   # This is to obtain an integer number for atom-id
variable      randatomi equal 2130                   
variable      randzi equal z[${randatomi}]                # Determine the z coordinate of the chosen atom
variable      randzi equal z[2130]                
# if the chosen atom is not a surface atom then restart the loop
if            "${randzi} < $(v_wthick - 0.7)" then "jump MDPBB.in loop"
jump MDPBB.in loop
variable      randni equal round(random(1,${ntwall},$s))  # Pick a random "top" wall atom
variable      randni equal round(random(1,2888,$s))  
variable      randni equal round(random(1,2888,234897))  
variable      randatomi equal ${randni}                   # This is to obtain an integer number for atom-id
variable      randatomi equal 1309                   
variable      randzi equal z[${randatomi}]                # Determine the z coordinate of the chosen atom
variable      randzi equal z[1309]                
# if the chosen atom is not a surface atom then restart the loop
if            "${randzi} < $(v_wthick - 0.7)" then "jump MDPBB.in loop"
jump MDPBB.in loop
variable      randni equal round(random(1,${ntwall},$s))  # Pick a random "top" wall atom
variable      randni equal round(random(1,2888,$s))  
variable      randni equal round(random(1,2888,234897))  
variable      randatomi equal ${randni}                   # This is to obtain an integer number for atom-id
variable      randatomi equal 88                   
variable      randzi equal z[${randatomi}]                # Determine the z coordinate of the chosen atom
variable      randzi equal z[88]                
# if the chosen atom is not a surface atom then restart the loop
if            "${randzi} < $(v_wthick - 0.7)" then "jump MDPBB.in loop"
jump MDPBB.in loop
variable      randni equal round(random(1,${ntwall},$s))  # Pick a random "top" wall atom
variable      randni equal round(random(1,2888,$s))  
variable      randni equal round(random(1,2888,234897))  
variable      randatomi equal ${randni}                   # This is to obtain an integer number for atom-id
variable      randatomi equal 390                   
variable      randzi equal z[${randatomi}]                # Determine the z coordinate of the chosen atom
variable      randzi equal z[390]                
# if the chosen atom is not a surface atom then restart the loop
if            "${randzi} < $(v_wthick - 0.7)" then "jump MDPBB.in loop"
jump MDPBB.in loop
variable      randni equal round(random(1,${ntwall},$s))  # Pick a random "top" wall atom
variable      randni equal round(random(1,2888,$s))  
variable      randni equal round(random(1,2888,234897))  
variable      randatomi equal ${randni}                   # This is to obtain an integer number for atom-id
variable      randatomi equal 2532                   
variable      randzi equal z[${randatomi}]                # Determine the z coordinate of the chosen atom
variable      randzi equal z[2532]                
# if the chosen atom is not a surface atom then restart the loop
if            "${randzi} < $(v_wthick - 0.7)" then "jump MDPBB.in loop"
set           atom ${randatomi} type 4                    # Set this grafted wall atom as a new type
set           atom 2532 type 4                    
  1 settings made for type
group         twg id ${randatomi}                         # Add this atom to a top-wall-grafted group
group         twg id 2532                         
33 atoms in group twg
variable      twgcount equal count(twg)
print         "twg contains ${twgcount}"
twg contains 33
print         "i = $(v_i)"                                # The index i should always be equal to the number of atom in twg
i = 33
variable      x0 equal x[${randatomi}]                    # Determine its x-coord
variable      x0 equal x[2532]                    
variable      y0 equal y[${randatomi}]                    # Determine its y-coord
variable      y0 equal y[2532]                    
variable      check0 equal ${check}                       # Count the number of atoms in the simulation
variable      check0 equal 3848                       
variable      b equal ${check}+1                          # The grafted bead id will be one higher after being inserted
variable      b equal 3848+1                          
if            "${twgcount} != $(v_i)" then "jump MDPBB.in loop"
# Otherwise insert the chain directly above the chosen wall atom pointing perpendicular to the wall
create_atoms  1 single ${x0} ${y0} ${z0} mol bs 24987 units box remap yes rotate 0 0 0 1
create_atoms  1 single 7.937005259841 ${y0} ${z0} mol bs 24987 units box remap yes rotate 0 0 0 1
create_atoms  1 single 7.937005259841 23.0173152535389 ${z0} mol bs 24987 units box remap yes rotate 0 0 0 1
create_atoms  1 single 7.937005259841 23.0173152535389 17 mol bs 24987 units box remap yes rotate 0 0 0 1
Created 30 atoms
  create_atoms CPU = 9.98e-05 secs
variable      check1 equal ${check}               # Count the new total number of atoms
variable      check1 equal 3878               
# Check that the molecule has indeed been inserted (This check is no longer an issue).
if            "${check1} != ${check0}" then "create_bonds  single/bond 2 ${randatomi} $b" "next i"
create_bonds  single/bond 2 ${randatomi} $b
create_bonds  single/bond 2 2532 $b
create_bonds  single/bond 2 2532 3849
  2 = max # of 1-2 neighbors
  5 = max # of special neighbors
  special bonds CPU = 0.0031174 secs
next i
jump MDPBB.in loop    # End of the loop
variable      randni equal round(random(1,${ntwall},$s))  # Pick a random "top" wall atom
variable      randni equal round(random(1,2888,$s))  
variable      randni equal round(random(1,2888,234897))  
variable      randatomi equal ${randni}                   # This is to obtain an integer number for atom-id
variable      randatomi equal 2656                   
variable      randzi equal z[${randatomi}]                # Determine the z coordinate of the chosen atom
variable      randzi equal z[2656]                
# if the chosen atom is not a surface atom then restart the loop
if            "${randzi} < $(v_wthick - 0.7)" then "jump MDPBB.in loop"
set           atom ${randatomi} type 4                    # Set this grafted wall atom as a new type
set           atom 2656 type 4                    
  1 settings made for type
group         twg id ${randatomi}                         # Add this atom to a top-wall-grafted group
group         twg id 2656                         
33 atoms in group twg
variable      twgcount equal count(twg)
print         "twg contains ${twgcount}"
twg contains 33
print         "i = $(v_i)"                                # The index i should always be equal to the number of atom in twg
i = 34
variable      x0 equal x[${randatomi}]                    # Determine its x-coord
variable      x0 equal x[2656]                    
variable      y0 equal y[${randatomi}]                    # Determine its y-coord
variable      y0 equal y[2656]                    
variable      check0 equal ${check}                       # Count the number of atoms in the simulation
variable      check0 equal 3878                       
variable      b equal ${check}+1                          # The grafted bead id will be one higher after being inserted
variable      b equal 3878+1                          
if            "${twgcount} != $(v_i)" then "jump MDPBB.in loop"
jump MDPBB.in loop
variable      randni equal round(random(1,${ntwall},$s))  # Pick a random "top" wall atom
variable      randni equal round(random(1,2888,$s))  
variable      randni equal round(random(1,2888,234897))  
variable      randatomi equal ${randni}                   # This is to obtain an integer number for atom-id
variable      randatomi equal 355                   
variable      randzi equal z[${randatomi}]                # Determine the z coordinate of the chosen atom
variable      randzi equal z[355]                
# if the chosen atom is not a surface atom then restart the loop
if            "${randzi} < $(v_wthick - 0.7)" then "jump MDPBB.in loop"
jump MDPBB.in loop
variable      randni equal round(random(1,${ntwall},$s))  # Pick a random "top" wall atom
variable      randni equal round(random(1,2888,$s))  
variable      randni equal round(random(1,2888,234897))  
variable      randatomi equal ${randni}                   # This is to obtain an integer number for atom-id
variable      randatomi equal 1783                   
variable      randzi equal z[${randatomi}]                # Determine the z coordinate of the chosen atom
variable      randzi equal z[1783]                
# if the chosen atom is not a surface atom then restart the loop
if            "${randzi} < $(v_wthick - 0.7)" then "jump MDPBB.in loop"
set           atom ${randatomi} type 4                    # Set this grafted wall atom as a new type
set           atom 1783 type 4                    
  1 settings made for type
group         twg id ${randatomi}                         # Add this atom to a top-wall-grafted group
group         twg id 1783                         
34 atoms in group twg
variable      twgcount equal count(twg)
print         "twg contains ${twgcount}"
twg contains 34
print         "i = $(v_i)"                                # The index i should always be equal to the number of atom in twg
i = 34
variable      x0 equal x[${randatomi}]                    # Determine its x-coord
variable      x0 equal x[1783]                    
variable      y0 equal y[${randatomi}]                    # Determine its y-coord
variable      y0 equal y[1783]                    
variable      check0 equal ${check}                       # Count the number of atoms in the simulation
variable      check0 equal 3878                       
variable      b equal ${check}+1                          # The grafted bead id will be one higher after being inserted
variable      b equal 3878+1                          
if            "${twgcount} != $(v_i)" then "jump MDPBB.in loop"
# Otherwise insert the chain directly above the chosen wall atom pointing perpendicular to the wall
create_atoms  1 single ${x0} ${y0} ${z0} mol bs 24987 units box remap yes rotate 0 0 0 1
create_atoms  1 single 13.4929089417297 ${y0} ${z0} mol bs 24987 units box remap yes rotate 0 0 0 1
create_atoms  1 single 13.4929089417297 6.3496042078728 ${z0} mol bs 24987 units box remap yes rotate 0 0 0 1
create_atoms  1 single 13.4929089417297 6.3496042078728 17 mol bs 24987 units box remap yes rotate 0 0 0 1
Created 30 atoms
  create_atoms CPU = 8.93e-05 secs
variable      check1 equal ${check}               # Count the new total number of atoms
variable      check1 equal 3908               
# Check that the molecule has indeed been inserted (This check is no longer an issue).
if            "${check1} != ${check0}" then "create_bonds  single/bond 2 ${randatomi} $b" "next i"
create_bonds  single/bond 2 ${randatomi} $b
create_bonds  single/bond 2 1783 $b
create_bonds  single/bond 2 1783 3879
  2 = max # of 1-2 neighbors
  5 = max # of special neighbors
  special bonds CPU = 0.0022442 secs
next i
jump MDPBB.in loop    # End of the loop
variable      randni equal round(random(1,${ntwall},$s))  # Pick a random "top" wall atom
variable      randni equal round(random(1,2888,$s))  
variable      randni equal round(random(1,2888,234897))  
variable      randatomi equal ${randni}                   # This is to obtain an integer number for atom-id
variable      randatomi equal 2349                   
variable      randzi equal z[${randatomi}]                # Determine the z coordinate of the chosen atom
variable      randzi equal z[2349]                
# if the chosen atom is not a surface atom then restart the loop
if            "${randzi} < $(v_wthick - 0.7)" then "jump MDPBB.in loop"
jump MDPBB.in loop
variable      randni equal round(random(1,${ntwall},$s))  # Pick a random "top" wall atom
variable      randni equal round(random(1,2888,$s))  
variable      randni equal round(random(1,2888,234897))  
variable      randatomi equal ${randni}                   # This is to obtain an integer number for atom-id
variable      randatomi equal 2243                   
variable      randzi equal z[${randatomi}]                # Determine the z coordinate of the chosen atom
variable      randzi equal z[2243]                
# if the chosen atom is not a surface atom then restart the loop
if            "${randzi} < $(v_wthick - 0.7)" then "jump MDPBB.in loop"
set           atom ${randatomi} type 4                    # Set this grafted wall atom as a new type
set           atom 2243 type 4                    
  1 settings made for type
group         twg id ${randatomi}                         # Add this atom to a top-wall-grafted group
group         twg id 2243                         
35 atoms in group twg
variable      twgcount equal count(twg)
print         "twg contains ${twgcount}"
twg contains 35
print         "i = $(v_i)"                                # The index i should always be equal to the number of atom in twg
i = 35
variable      x0 equal x[${randatomi}]                    # Determine its x-coord
variable      x0 equal x[2243]                    
variable      y0 equal y[${randatomi}]                    # Determine its y-coord
variable      y0 equal y[2243]                    
variable      check0 equal ${check}                       # Count the number of atoms in the simulation
variable      check0 equal 3908                       
variable      b equal ${check}+1                          # The grafted bead id will be one higher after being inserted
variable      b equal 3908+1                          
if            "${twgcount} != $(v_i)" then "jump MDPBB.in loop"
# Otherwise insert the chain directly above the chosen wall atom pointing perpendicular to the wall
create_atoms  1 single ${x0} ${y0} ${z0} mol bs 24987 units box remap yes rotate 0 0 0 1
create_atoms  1 single 15.0803099936979 ${y0} ${z0} mol bs 24987 units box remap yes rotate 0 0 0 1
create_atoms  1 single 15.0803099936979 15.874010519682 ${z0} mol bs 24987 units box remap yes rotate 0 0 0 1
create_atoms  1 single 15.0803099936979 15.874010519682 17 mol bs 24987 units box remap yes rotate 0 0 0 1
Created 30 atoms
  create_atoms CPU = 0.0001554 secs
variable      check1 equal ${check}               # Count the new total number of atoms
variable      check1 equal 3938               
# Check that the molecule has indeed been inserted (This check is no longer an issue).
if            "${check1} != ${check0}" then "create_bonds  single/bond 2 ${randatomi} $b" "next i"
create_bonds  single/bond 2 ${randatomi} $b
create_bonds  single/bond 2 2243 $b
create_bonds  single/bond 2 2243 3909
  2 = max # of 1-2 neighbors
  5 = max # of special neighbors
  special bonds CPU = 0.0029356 secs
next i
jump MDPBB.in loop    # End of the loop
variable      randni equal round(random(1,${ntwall},$s))  # Pick a random "top" wall atom
variable      randni equal round(random(1,2888,$s))  
variable      randni equal round(random(1,2888,234897))  
variable      randatomi equal ${randni}                   # This is to obtain an integer number for atom-id
variable      randatomi equal 2610                   
variable      randzi equal z[${randatomi}]                # Determine the z coordinate of the chosen atom
variable      randzi equal z[2610]                
# if the chosen atom is not a surface atom then restart the loop
if            "${randzi} < $(v_wthick - 0.7)" then "jump MDPBB.in loop"
jump MDPBB.in loop
variable      randni equal round(random(1,${ntwall},$s))  # Pick a random "top" wall atom
variable      randni equal round(random(1,2888,$s))  
variable      randni equal round(random(1,2888,234897))  
variable      randatomi equal ${randni}                   # This is to obtain an integer number for atom-id
variable      randatomi equal 2853                   
variable      randzi equal z[${randatomi}]                # Determine the z coordinate of the chosen atom
variable      randzi equal z[2853]                
# if the chosen atom is not a surface atom then restart the loop
if            "${randzi} < $(v_wthick - 0.7)" then "jump MDPBB.in loop"
jump MDPBB.in loop
variable      randni equal round(random(1,${ntwall},$s))  # Pick a random "top" wall atom
variable      randni equal round(random(1,2888,$s))  
variable      randni equal round(random(1,2888,234897))  
variable      randatomi equal ${randni}                   # This is to obtain an integer number for atom-id
variable      randatomi equal 601                   
variable      randzi equal z[${randatomi}]                # Determine the z coordinate of the chosen atom
variable      randzi equal z[601]                
# if the chosen atom is not a surface atom then restart the loop
if            "${randzi} < $(v_wthick - 0.7)" then "jump MDPBB.in loop"
jump MDPBB.in loop
variable      randni equal round(random(1,${ntwall},$s))  # Pick a random "top" wall atom
variable      randni equal round(random(1,2888,$s))  
variable      randni equal round(random(1,2888,234897))  
variable      randatomi equal ${randni}                   # This is to obtain an integer number for atom-id
variable      randatomi equal 738                   
variable      randzi equal z[${randatomi}]                # Determine the z coordinate of the chosen atom
variable      randzi equal z[738]                
# if the chosen atom is not a surface atom then restart the loop
if            "${randzi} < $(v_wthick - 0.7)" then "jump MDPBB.in loop"
jump MDPBB.in loop
variable      randni equal round(random(1,${ntwall},$s))  # Pick a random "top" wall atom
variable      randni equal round(random(1,2888,$s))  
variable      randni equal round(random(1,2888,234897))  
variable      randatomi equal ${randni}                   # This is to obtain an integer number for atom-id
variable      randatomi equal 2463                   
variable      randzi equal z[${randatomi}]                # Determine the z coordinate of the chosen atom
variable      randzi equal z[2463]                
# if the chosen atom is not a surface atom then restart the loop
if            "${randzi} < $(v_wthick - 0.7)" then "jump MDPBB.in loop"
set           atom ${randatomi} type 4                    # Set this grafted wall atom as a new type
set           atom 2463 type 4                    
  1 settings made for type
group         twg id ${randatomi}                         # Add this atom to a top-wall-grafted group
group         twg id 2463                         
36 atoms in group twg
variable      twgcount equal count(twg)
print         "twg contains ${twgcount}"
twg contains 36
print         "i = $(v_i)"                                # The index i should always be equal to the number of atom in twg
i = 36
variable      x0 equal x[${randatomi}]                    # Determine its x-coord
variable      x0 equal x[2463]                    
variable      y0 equal y[${randatomi}]                    # Determine its y-coord
variable      y0 equal y[2463]                    
variable      check0 equal ${check}                       # Count the number of atoms in the simulation
variable      check0 equal 3938                       
variable      b equal ${check}+1                          # The grafted bead id will be one higher after being inserted
variable      b equal 3938+1                          
if            "${twgcount} != $(v_i)" then "jump MDPBB.in loop"
# Otherwise insert the chain directly above the chosen wall atom pointing perpendicular to the wall
create_atoms  1 single ${x0} ${y0} ${z0} mol bs 24987 units box remap yes rotate 0 0 0 1
create_atoms  1 single 11.9055078897615 ${y0} ${z0} mol bs 24987 units box remap yes rotate 0 0 0 1
create_atoms  1 single 11.9055078897615 20.6362136755866 ${z0} mol bs 24987 units box remap yes rotate 0 0 0 1
create_atoms  1 single 11.9055078897615 20.6362136755866 17 mol bs 24987 units box remap yes rotate 0 0 0 1
Created 30 atoms
  create_atoms CPU = 0.0001129 secs
variable      check1 equal ${check}               # Count the new total number of atoms
variable      check1 equal 3968               
# Check that the molecule has indeed been inserted (This check is no longer an issue).
if            "${check1} != ${check0}" then "create_bonds  single/bond 2 ${randatomi} $b" "next i"
create_bonds  single/bond 2 ${randatomi} $b
create_bonds  single/bond 2 2463 $b
create_bonds  single/bond 2 2463 3939
  2 = max # of 1-2 neighbors
  5 = max # of special neighbors
  special bonds CPU = 0.0034854 secs
next i
jump MDPBB.in loop    # End of the loop
variable      randni equal round(random(1,${ntwall},$s))  # Pick a random "top" wall atom
variable      randni equal round(random(1,2888,$s))  
variable      randni equal round(random(1,2888,234897))  
variable      randatomi equal ${randni}                   # This is to obtain an integer number for atom-id
variable      randatomi equal 318                   
variable      randzi equal z[${randatomi}]                # Determine the z coordinate of the chosen atom
variable      randzi equal z[318]                
# if the chosen atom is not a surface atom then restart the loop
if            "${randzi} < $(v_wthick - 0.7)" then "jump MDPBB.in loop"
jump MDPBB.in loop
variable      randni equal round(random(1,${ntwall},$s))  # Pick a random "top" wall atom
variable      randni equal round(random(1,2888,$s))  
variable      randni equal round(random(1,2888,234897))  
variable      randatomi equal ${randni}                   # This is to obtain an integer number for atom-id
variable      randatomi equal 641                   
variable      randzi equal z[${randatomi}]                # Determine the z coordinate of the chosen atom
variable      randzi equal z[641]                
# if the chosen atom is not a surface atom then restart the loop
if            "${randzi} < $(v_wthick - 0.7)" then "jump MDPBB.in loop"
jump MDPBB.in loop
variable      randni equal round(random(1,${ntwall},$s))  # Pick a random "top" wall atom
variable      randni equal round(random(1,2888,$s))  
variable      randni equal round(random(1,2888,234897))  
variable      randatomi equal ${randni}                   # This is to obtain an integer number for atom-id
variable      randatomi equal 529                   
variable      randzi equal z[${randatomi}]                # Determine the z coordinate of the chosen atom
variable      randzi equal z[529]                
# if the chosen atom is not a surface atom then restart the loop
if            "${randzi} < $(v_wthick - 0.7)" then "jump MDPBB.in loop"
jump MDPBB.in loop
variable      randni equal round(random(1,${ntwall},$s))  # Pick a random "top" wall atom
variable      randni equal round(random(1,2888,$s))  
variable      randni equal round(random(1,2888,234897))  
variable      randatomi equal ${randni}                   # This is to obtain an integer number for atom-id
variable      randatomi equal 49                   
variable      randzi equal z[${randatomi}]                # Determine the z coordinate of the chosen atom
variable      randzi equal z[49]                
# if the chosen atom is not a surface atom then restart the loop
if            "${randzi} < $(v_wthick - 0.7)" then "jump MDPBB.in loop"
jump MDPBB.in loop
variable      randni equal round(random(1,${ntwall},$s))  # Pick a random "top" wall atom
variable      randni equal round(random(1,2888,$s))  
variable      randni equal round(random(1,2888,234897))  
variable      randatomi equal ${randni}                   # This is to obtain an integer number for atom-id
variable      randatomi equal 73                   
variable      randzi equal z[${randatomi}]                # Determine the z coordinate of the chosen atom
variable      randzi equal z[73]                
# if the chosen atom is not a surface atom then restart the loop
if            "${randzi} < $(v_wthick - 0.7)" then "jump MDPBB.in loop"
jump MDPBB.in loop
variable      randni equal round(random(1,${ntwall},$s))  # Pick a random "top" wall atom
variable      randni equal round(random(1,2888,$s))  
variable      randni equal round(random(1,2888,234897))  
variable      randatomi equal ${randni}                   # This is to obtain an integer number for atom-id
variable      randatomi equal 704                   
variable      randzi equal z[${randatomi}]                # Determine the z coordinate of the chosen atom
variable      randzi equal z[704]                
# if the chosen atom is not a surface atom then restart the loop
if            "${randzi} < $(v_wthick - 0.7)" then "jump MDPBB.in loop"
jump MDPBB.in loop
variable      randni equal round(random(1,${ntwall},$s))  # Pick a random "top" wall atom
variable      randni equal round(random(1,2888,$s))  
variable      randni equal round(random(1,2888,234897))  
variable      randatomi equal ${randni}                   # This is to obtain an integer number for atom-id
variable      randatomi equal 678                   
variable      randzi equal z[${randatomi}]                # Determine the z coordinate of the chosen atom
variable      randzi equal z[678]                
# if the chosen atom is not a surface atom then restart the loop
if            "${randzi} < $(v_wthick - 0.7)" then "jump MDPBB.in loop"
jump MDPBB.in loop
variable      randni equal round(random(1,${ntwall},$s))  # Pick a random "top" wall atom
variable      randni equal round(random(1,2888,$s))  
variable      randni equal round(random(1,2888,234897))  
variable      randatomi equal ${randni}                   # This is to obtain an integer number for atom-id
variable      randatomi equal 257                   
variable      randzi equal z[${randatomi}]                # Determine the z coordinate of the chosen atom
variable      randzi equal z[257]                
# if the chosen atom is not a surface atom then restart the loop
if            "${randzi} < $(v_wthick - 0.7)" then "jump MDPBB.in loop"
jump MDPBB.in loop
variable      randni equal round(random(1,${ntwall},$s))  # Pick a random "top" wall atom
variable      randni equal round(random(1,2888,$s))  
variable      randni equal round(random(1,2888,234897))  
variable      randatomi equal ${randni}                   # This is to obtain an integer number for atom-id
variable      randatomi equal 1929                   
variable      randzi equal z[${randatomi}]                # Determine the z coordinate of the chosen atom
variable      randzi equal z[1929]                
# if the chosen atom is not a surface atom then restart the loop
if            "${randzi} < $(v_wthick - 0.7)" then "jump MDPBB.in loop"
jump MDPBB.in loop
variable      randni equal round(random(1,${ntwall},$s))  # Pick a random "top" wall atom
variable      randni equal round(random(1,2888,$s))  
variable      randni equal round(random(1,2888,234897))  
variable      randatomi equal ${randni}                   # This is to obtain an integer number for atom-id
variable      randatomi equal 2683                   
variable      randzi equal z[${randatomi}]                # Determine the z coordinate of the chosen atom
variable      randzi equal z[2683]                
# if the chosen atom is not a surface atom then restart the loop
if            "${randzi} < $(v_wthick - 0.7)" then "jump MDPBB.in loop"
set           atom ${randatomi} type 4                    # Set this grafted wall atom as a new type
set           atom 2683 type 4                    
  1 settings made for type
group         twg id ${randatomi}                         # Add this atom to a top-wall-grafted group
group         twg id 2683                         
37 atoms in group twg
variable      twgcount equal count(twg)
print         "twg contains ${twgcount}"
twg contains 37
print         "i = $(v_i)"                                # The index i should always be equal to the number of atom in twg
i = 37
variable      x0 equal x[${randatomi}]                    # Determine its x-coord
variable      x0 equal x[2683]                    
variable      y0 equal y[${randatomi}]                    # Determine its y-coord
variable      y0 equal y[2683]                    
variable      check0 equal ${check}                       # Count the number of atoms in the simulation
variable      check0 equal 3968                       
variable      b equal ${check}+1                          # The grafted bead id will be one higher after being inserted
variable      b equal 3968+1                          
if            "${twgcount} != $(v_i)" then "jump MDPBB.in loop"
# Otherwise insert the chain directly above the chosen wall atom pointing perpendicular to the wall
create_atoms  1 single ${x0} ${y0} ${z0} mol bs 24987 units box remap yes rotate 0 0 0 1
create_atoms  1 single 8.7307057858251 ${y0} ${z0} mol bs 24987 units box remap yes rotate 0 0 0 1
create_atoms  1 single 8.7307057858251 25.3984168314912 ${z0} mol bs 24987 units box remap yes rotate 0 0 0 1
create_atoms  1 single 8.7307057858251 25.3984168314912 17 mol bs 24987 units box remap yes rotate 0 0 0 1
Created 30 atoms
  create_atoms CPU = 8.87e-05 secs
variable      check1 equal ${check}               # Count the new total number of atoms
variable      check1 equal 3998               
# Check that the molecule has indeed been inserted (This check is no longer an issue).
if            "${check1} != ${check0}" then "create_bonds  single/bond 2 ${randatomi} $b" "next i"
create_bonds  single/bond 2 ${randatomi} $b
create_bonds  single/bond 2 2683 $b
create_bonds  single/bond 2 2683 3969
  2 = max # of 1-2 neighbors
  5 = max # of special neighbors
  special bonds CPU = 0.0026449 secs
next i
jump MDPBB.in loop    # End of the loop
variable      randni equal round(random(1,${ntwall},$s))  # Pick a random "top" wall atom
variable      randni equal round(random(1,2888,$s))  
variable      randni equal round(random(1,2888,234897))  
variable      randatomi equal ${randni}                   # This is to obtain an integer number for atom-id
variable      randatomi equal 1292                   
variable      randzi equal z[${randatomi}]                # Determine the z coordinate of the chosen atom
variable      randzi equal z[1292]                
# if the chosen atom is not a surface atom then restart the loop
if            "${randzi} < $(v_wthick - 0.7)" then "jump MDPBB.in loop"
jump MDPBB.in loop
variable      randni equal round(random(1,${ntwall},$s))  # Pick a random "top" wall atom
variable      randni equal round(random(1,2888,$s))  
variable      randni equal round(random(1,2888,234897))  
variable      randatomi equal ${randni}                   # This is to obtain an integer number for atom-id
variable      randatomi equal 2501                   
variable      randzi equal z[${randatomi}]                # Determine the z coordinate of the chosen atom
variable      randzi equal z[2501]                
# if the chosen atom is not a surface atom then restart the loop
if            "${randzi} < $(v_wthick - 0.7)" then "jump MDPBB.in loop"
jump MDPBB.in loop
variable      randni equal round(random(1,${ntwall},$s))  # Pick a random "top" wall atom
variable      randni equal round(random(1,2888,$s))  
variable      randni equal round(random(1,2888,234897))  
variable      randatomi equal ${randni}                   # This is to obtain an integer number for atom-id
variable      randatomi equal 2086                   
variable      randzi equal z[${randatomi}]                # Determine the z coordinate of the chosen atom
variable      randzi equal z[2086]                
# if the chosen atom is not a surface atom then restart the loop
if            "${randzi} < $(v_wthick - 0.7)" then "jump MDPBB.in loop"
jump MDPBB.in loop
variable      randni equal round(random(1,${ntwall},$s))  # Pick a random "top" wall atom
variable      randni equal round(random(1,2888,$s))  
variable      randni equal round(random(1,2888,234897))  
variable      randatomi equal ${randni}                   # This is to obtain an integer number for atom-id
variable      randatomi equal 2175                   
variable      randzi equal z[${randatomi}]                # Determine the z coordinate of the chosen atom
variable      randzi equal z[2175]                
# if the chosen atom is not a surface atom then restart the loop
if            "${randzi} < $(v_wthick - 0.7)" then "jump MDPBB.in loop"
set           atom ${randatomi} type 4                    # Set this grafted wall atom as a new type
set           atom 2175 type 4                    
  1 settings made for type
group         twg id ${randatomi}                         # Add this atom to a top-wall-grafted group
group         twg id 2175                         
38 atoms in group twg
variable      twgcount equal count(twg)
print         "twg contains ${twgcount}"
twg contains 38
print         "i = $(v_i)"                                # The index i should always be equal to the number of atom in twg
i = 38
variable      x0 equal x[${randatomi}]                    # Determine its x-coord
variable      x0 equal x[2175]                    
variable      y0 equal y[${randatomi}]                    # Determine its y-coord
variable      y0 equal y[2175]                    
variable      check0 equal ${check}                       # Count the number of atoms in the simulation
variable      check0 equal 3998                       
variable      b equal ${check}+1                          # The grafted bead id will be one higher after being inserted
variable      b equal 3998+1                          
if            "${twgcount} != $(v_i)" then "jump MDPBB.in loop"
# Otherwise insert the chain directly above the chosen wall atom pointing perpendicular to the wall
create_atoms  1 single ${x0} ${y0} ${z0} mol bs 24987 units box remap yes rotate 0 0 0 1
create_atoms  1 single 18.2551120976343 ${y0} ${z0} mol bs 24987 units box remap yes rotate 0 0 0 1
create_atoms  1 single 18.2551120976343 14.2866094677138 ${z0} mol bs 24987 units box remap yes rotate 0 0 0 1
create_atoms  1 single 18.2551120976343 14.2866094677138 17 mol bs 24987 units box remap yes rotate 0 0 0 1
Created 30 atoms
  create_atoms CPU = 0.0001047 secs
variable      check1 equal ${check}               # Count the new total number of atoms
variable      check1 equal 4028               
# Check that the molecule has indeed been inserted (This check is no longer an issue).
if            "${check1} != ${check0}" then "create_bonds  single/bond 2 ${randatomi} $b" "next i"
create_bonds  single/bond 2 ${randatomi} $b
create_bonds  single/bond 2 2175 $b
create_bonds  single/bond 2 2175 3999
  2 = max # of 1-2 neighbors
  5 = max # of special neighbors
  special bonds CPU = 0.0039776 secs
next i
jump MDPBB.in loop    # End of the loop
variable      randni equal round(random(1,${ntwall},$s))  # Pick a random "top" wall atom
variable      randni equal round(random(1,2888,$s))  
variable      randni equal round(random(1,2888,234897))  
variable      randatomi equal ${randni}                   # This is to obtain an integer number for atom-id
variable      randatomi equal 1470                   
variable      randzi equal z[${randatomi}]                # Determine the z coordinate of the chosen atom
variable      randzi equal z[1470]                
# if the chosen atom is not a surface atom then restart the loop
if            "${randzi} < $(v_wthick - 0.7)" then "jump MDPBB.in loop"
jump MDPBB.in loop
variable      randni equal round(random(1,${ntwall},$s))  # Pick a random "top" wall atom
variable      randni equal round(random(1,2888,$s))  
variable      randni equal round(random(1,2888,234897))  
variable      randatomi equal ${randni}                   # This is to obtain an integer number for atom-id
variable      randatomi equal 146                   
variable      randzi equal z[${randatomi}]                # Determine the z coordinate of the chosen atom
variable      randzi equal z[146]                
# if the chosen atom is not a surface atom then restart the loop
if            "${randzi} < $(v_wthick - 0.7)" then "jump MDPBB.in loop"
jump MDPBB.in loop
variable      randni equal round(random(1,${ntwall},$s))  # Pick a random "top" wall atom
variable      randni equal round(random(1,2888,$s))  
variable      randni equal round(random(1,2888,234897))  
variable      randatomi equal ${randni}                   # This is to obtain an integer number for atom-id
variable      randatomi equal 2257                   
variable      randzi equal z[${randatomi}]                # Determine the z coordinate of the chosen atom
variable      randzi equal z[2257]                
# if the chosen atom is not a surface atom then restart the loop
if            "${randzi} < $(v_wthick - 0.7)" then "jump MDPBB.in loop"
jump MDPBB.in loop
variable      randni equal round(random(1,${ntwall},$s))  # Pick a random "top" wall atom
variable      randni equal round(random(1,2888,$s))  
variable      randni equal round(random(1,2888,234897))  
variable      randatomi equal ${randni}                   # This is to obtain an integer number for atom-id
variable      randatomi equal 2131                   
variable      randzi equal z[${randatomi}]                # Determine the z coordinate of the chosen atom
variable      randzi equal z[2131]                
# if the chosen atom is not a surface atom then restart the loop
if            "${randzi} < $(v_wthick - 0.7)" then "jump MDPBB.in loop"
set           atom ${randatomi} type 4                    # Set this grafted wall atom as a new type
set           atom 2131 type 4                    
  1 settings made for type
group         twg id ${randatomi}                         # Add this atom to a top-wall-grafted group
group         twg id 2131                         
39 atoms in group twg
variable      twgcount equal count(twg)
print         "twg contains ${twgcount}"
twg contains 39
print         "i = $(v_i)"                                # The index i should always be equal to the number of atom in twg
i = 39
variable      x0 equal x[${randatomi}]                    # Determine its x-coord
variable      x0 equal x[2131]                    
variable      y0 equal y[${randatomi}]                    # Determine its y-coord
variable      y0 equal y[2131]                    
variable      check0 equal ${check}                       # Count the number of atoms in the simulation
variable      check0 equal 4028                       
variable      b equal ${check}+1                          # The grafted bead id will be one higher after being inserted
variable      b equal 4028+1                          
if            "${twgcount} != $(v_i)" then "jump MDPBB.in loop"
# Otherwise insert the chain directly above the chosen wall atom pointing perpendicular to the wall
create_atoms  1 single ${x0} ${y0} ${z0} mol bs 24987 units box remap yes rotate 0 0 0 1
create_atoms  1 single 0.7937005259841 ${y0} ${z0} mol bs 24987 units box remap yes rotate 0 0 0 1
create_atoms  1 single 0.7937005259841 14.2866094677138 ${z0} mol bs 24987 units box remap yes rotate 0 0 0 1
create_atoms  1 single 0.7937005259841 14.2866094677138 17 mol bs 24987 units box remap yes rotate 0 0 0 1
Created 30 atoms
  create_atoms CPU = 0.0001138 secs
variable      check1 equal ${check}               # Count the new total number of atoms
variable      check1 equal 4058               
# Check that the molecule has indeed been inserted (This check is no longer an issue).
if            "${check1} != ${check0}" then "create_bonds  single/bond 2 ${randatomi} $b" "next i"
create_bonds  single/bond 2 ${randatomi} $b
create_bonds  single/bond 2 2131 $b
create_bonds  single/bond 2 2131 4029
  2 = max # of 1-2 neighbors
  5 = max # of special neighbors
  special bonds CPU = 0.0043503 secs
next i
jump MDPBB.in loop    # End of the loop
variable      randni equal round(random(1,${ntwall},$s))  # Pick a random "top" wall atom
variable      randni equal round(random(1,2888,$s))  
variable      randni equal round(random(1,2888,234897))  
variable      randatomi equal ${randni}                   # This is to obtain an integer number for atom-id
variable      randatomi equal 143                   
variable      randzi equal z[${randatomi}]                # Determine the z coordinate of the chosen atom
variable      randzi equal z[143]                
# if the chosen atom is not a surface atom then restart the loop
if            "${randzi} < $(v_wthick - 0.7)" then "jump MDPBB.in loop"
jump MDPBB.in loop
variable      randni equal round(random(1,${ntwall},$s))  # Pick a random "top" wall atom
variable      randni equal round(random(1,2888,$s))  
variable      randni equal round(random(1,2888,234897))  
variable      randatomi equal ${randni}                   # This is to obtain an integer number for atom-id
variable      randatomi equal 1419                   
variable      randzi equal z[${randatomi}]                # Determine the z coordinate of the chosen atom
variable      randzi equal z[1419]                
# if the chosen atom is not a surface atom then restart the loop
if            "${randzi} < $(v_wthick - 0.7)" then "jump MDPBB.in loop"
jump MDPBB.in loop
variable      randni equal round(random(1,${ntwall},$s))  # Pick a random "top" wall atom
variable      randni equal round(random(1,2888,$s))  
variable      randni equal round(random(1,2888,234897))  
variable      randatomi equal ${randni}                   # This is to obtain an integer number for atom-id
variable      randatomi equal 666                   
variable      randzi equal z[${randatomi}]                # Determine the z coordinate of the chosen atom
variable      randzi equal z[666]                
# if the chosen atom is not a surface atom then restart the loop
if            "${randzi} < $(v_wthick - 0.7)" then "jump MDPBB.in loop"
jump MDPBB.in loop
variable      randni equal round(random(1,${ntwall},$s))  # Pick a random "top" wall atom
variable      randni equal round(random(1,2888,$s))  
variable      randni equal round(random(1,2888,234897))  
variable      randatomi equal ${randni}                   # This is to obtain an integer number for atom-id
variable      randatomi equal 875                   
variable      randzi equal z[${randatomi}]                # Determine the z coordinate of the chosen atom
variable      randzi equal z[875]                
# if the chosen atom is not a surface atom then restart the loop
if            "${randzi} < $(v_wthick - 0.7)" then "jump MDPBB.in loop"
jump MDPBB.in loop
variable      randni equal round(random(1,${ntwall},$s))  # Pick a random "top" wall atom
variable      randni equal round(random(1,2888,$s))  
variable      randni equal round(random(1,2888,234897))  
variable      randatomi equal ${randni}                   # This is to obtain an integer number for atom-id
variable      randatomi equal 444                   
variable      randzi equal z[${randatomi}]                # Determine the z coordinate of the chosen atom
variable      randzi equal z[444]                
# if the chosen atom is not a surface atom then restart the loop
if            "${randzi} < $(v_wthick - 0.7)" then "jump MDPBB.in loop"
jump MDPBB.in loop
variable      randni equal round(random(1,${ntwall},$s))  # Pick a random "top" wall atom
variable      randni equal round(random(1,2888,$s))  
variable      randni equal round(random(1,2888,234897))  
variable      randatomi equal ${randni}                   # This is to obtain an integer number for atom-id
variable      randatomi equal 2867                   
variable      randzi equal z[${randatomi}]                # Determine the z coordinate of the chosen atom
variable      randzi equal z[2867]                
# if the chosen atom is not a surface atom then restart the loop
if            "${randzi} < $(v_wthick - 0.7)" then "jump MDPBB.in loop"
set           atom ${randatomi} type 4                    # Set this grafted wall atom as a new type
set           atom 2867 type 4                    
  1 settings made for type
group         twg id ${randatomi}                         # Add this atom to a top-wall-grafted group
group         twg id 2867                         
40 atoms in group twg
variable      twgcount equal count(twg)
print         "twg contains ${twgcount}"
twg contains 40
print         "i = $(v_i)"                                # The index i should always be equal to the number of atom in twg
i = 40
variable      x0 equal x[${randatomi}]                    # Determine its x-coord
variable      x0 equal x[2867]                    
variable      y0 equal y[${randatomi}]                    # Determine its y-coord
variable      y0 equal y[2867]                    
variable      check0 equal ${check}                       # Count the number of atoms in the simulation
variable      check0 equal 4058                       
variable      b equal ${check}+1                          # The grafted bead id will be one higher after being inserted
variable      b equal 4058+1                          
if            "${twgcount} != $(v_i)" then "jump MDPBB.in loop"
# Otherwise insert the chain directly above the chosen wall atom pointing perpendicular to the wall
create_atoms  1 single ${x0} ${y0} ${z0} mol bs 24987 units box remap yes rotate 0 0 0 1
create_atoms  1 single 21.4299142015707 ${y0} ${z0} mol bs 24987 units box remap yes rotate 0 0 0 1
create_atoms  1 single 21.4299142015707 28.5732189354276 ${z0} mol bs 24987 units box remap yes rotate 0 0 0 1
create_atoms  1 single 21.4299142015707 28.5732189354276 17 mol bs 24987 units box remap yes rotate 0 0 0 1
Created 30 atoms
  create_atoms CPU = 8.05e-05 secs
variable      check1 equal ${check}               # Count the new total number of atoms
variable      check1 equal 4088               
# Check that the molecule has indeed been inserted (This check is no longer an issue).
if            "${check1} != ${check0}" then "create_bonds  single/bond 2 ${randatomi} $b" "next i"
create_bonds  single/bond 2 ${randatomi} $b
create_bonds  single/bond 2 2867 $b
create_bonds  single/bond 2 2867 4059
  2 = max # of 1-2 neighbors
  5 = max # of special neighbors
  special bonds CPU = 0.0023753 secs
next i
jump MDPBB.in loop    # End of the loop
variable      randni equal round(random(1,${ntwall},$s))  # Pick a random "top" wall atom
variable      randni equal round(random(1,2888,$s))  
variable      randni equal round(random(1,2888,234897))  
variable      randatomi equal ${randni}                   # This is to obtain an integer number for atom-id
variable      randatomi equal 2240                   
variable      randzi equal z[${randatomi}]                # Determine the z coordinate of the chosen atom
variable      randzi equal z[2240]                
# if the chosen atom is not a surface atom then restart the loop
if            "${randzi} < $(v_wthick - 0.7)" then "jump MDPBB.in loop"
set           atom ${randatomi} type 4                    # Set this grafted wall atom as a new type
set           atom 2240 type 4                    
  1 settings made for type
group         twg id ${randatomi}                         # Add this atom to a top-wall-grafted group
group         twg id 2240                         
41 atoms in group twg
variable      twgcount equal count(twg)
print         "twg contains ${twgcount}"
twg contains 41
print         "i = $(v_i)"                                # The index i should always be equal to the number of atom in twg
i = 41
variable      x0 equal x[${randatomi}]                    # Determine its x-coord
variable      x0 equal x[2240]                    
variable      y0 equal y[${randatomi}]                    # Determine its y-coord
variable      y0 equal y[2240]                    
variable      check0 equal ${check}                       # Count the number of atoms in the simulation
variable      check0 equal 4088                       
variable      b equal ${check}+1                          # The grafted bead id will be one higher after being inserted
variable      b equal 4088+1                          
if            "${twgcount} != $(v_i)" then "jump MDPBB.in loop"
# Otherwise insert the chain directly above the chosen wall atom pointing perpendicular to the wall
create_atoms  1 single ${x0} ${y0} ${z0} mol bs 24987 units box remap yes rotate 0 0 0 1
create_atoms  1 single 12.6992084157456 ${y0} ${z0} mol bs 24987 units box remap yes rotate 0 0 0 1
create_atoms  1 single 12.6992084157456 16.6677110456661 ${z0} mol bs 24987 units box remap yes rotate 0 0 0 1
create_atoms  1 single 12.6992084157456 16.6677110456661 17 mol bs 24987 units box remap yes rotate 0 0 0 1
Created 30 atoms
  create_atoms CPU = 0.0001362 secs
variable      check1 equal ${check}               # Count the new total number of atoms
variable      check1 equal 4118               
# Check that the molecule has indeed been inserted (This check is no longer an issue).
if            "${check1} != ${check0}" then "create_bonds  single/bond 2 ${randatomi} $b" "next i"
create_bonds  single/bond 2 ${randatomi} $b
create_bonds  single/bond 2 2240 $b
create_bonds  single/bond 2 2240 4089
  2 = max # of 1-2 neighbors
  5 = max # of special neighbors
  special bonds CPU = 0.003444 secs
next i
jump MDPBB.in loop    # End of the loop
variable      randni equal round(random(1,${ntwall},$s))  # Pick a random "top" wall atom
variable      randni equal round(random(1,2888,$s))  
variable      randni equal round(random(1,2888,234897))  
variable      randatomi equal ${randni}                   # This is to obtain an integer number for atom-id
variable      randatomi equal 402                   
variable      randzi equal z[${randatomi}]                # Determine the z coordinate of the chosen atom
variable      randzi equal z[402]                
# if the chosen atom is not a surface atom then restart the loop
if            "${randzi} < $(v_wthick - 0.7)" then "jump MDPBB.in loop"
jump MDPBB.in loop
variable      randni equal round(random(1,${ntwall},$s))  # Pick a random "top" wall atom
variable      randni equal round(random(1,2888,$s))  
variable      randni equal round(random(1,2888,234897))  
variable      randatomi equal ${randni}                   # This is to obtain an integer number for atom-id
variable      randatomi equal 208                   
variable      randzi equal z[${randatomi}]                # Determine the z coordinate of the chosen atom
variable      randzi equal z[208]                
# if the chosen atom is not a surface atom then restart the loop
if            "${randzi} < $(v_wthick - 0.7)" then "jump MDPBB.in loop"
jump MDPBB.in loop
variable      randni equal round(random(1,${ntwall},$s))  # Pick a random "top" wall atom
variable      randni equal round(random(1,2888,$s))  
variable      randni equal round(random(1,2888,234897))  
variable      randatomi equal ${randni}                   # This is to obtain an integer number for atom-id
variable      randatomi equal 2060                   
variable      randzi equal z[${randatomi}]                # Determine the z coordinate of the chosen atom
variable      randzi equal z[2060]                
# if the chosen atom is not a surface atom then restart the loop
if            "${randzi} < $(v_wthick - 0.7)" then "jump MDPBB.in loop"
set           atom ${randatomi} type 4                    # Set this grafted wall atom as a new type
set           atom 2060 type 4                    
  1 settings made for type
group         twg id ${randatomi}                         # Add this atom to a top-wall-grafted group
group         twg id 2060                         
42 atoms in group twg
variable      twgcount equal count(twg)
print         "twg contains ${twgcount}"
twg contains 42
print         "i = $(v_i)"                                # The index i should always be equal to the number of atom in twg
i = 42
variable      x0 equal x[${randatomi}]                    # Determine its x-coord
variable      x0 equal x[2060]                    
variable      y0 equal y[${randatomi}]                    # Determine its y-coord
variable      y0 equal y[2060]                    
variable      check0 equal ${check}                       # Count the number of atoms in the simulation
variable      check0 equal 4118                       
variable      b equal ${check}+1                          # The grafted bead id will be one higher after being inserted
variable      b equal 4118+1                          
if            "${twgcount} != $(v_i)" then "jump MDPBB.in loop"
# Otherwise insert the chain directly above the chosen wall atom pointing perpendicular to the wall
create_atoms  1 single ${x0} ${y0} ${z0} mol bs 24987 units box remap yes rotate 0 0 0 1
create_atoms  1 single 1.5874010519682 ${y0} ${z0} mol bs 24987 units box remap yes rotate 0 0 0 1
create_atoms  1 single 1.5874010519682 13.4929089417297 ${z0} mol bs 24987 units box remap yes rotate 0 0 0 1
create_atoms  1 single 1.5874010519682 13.4929089417297 17 mol bs 24987 units box remap yes rotate 0 0 0 1
Created 30 atoms
  create_atoms CPU = 9.62e-05 secs
variable      check1 equal ${check}               # Count the new total number of atoms
variable      check1 equal 4148               
# Check that the molecule has indeed been inserted (This check is no longer an issue).
if            "${check1} != ${check0}" then "create_bonds  single/bond 2 ${randatomi} $b" "next i"
create_bonds  single/bond 2 ${randatomi} $b
create_bonds  single/bond 2 2060 $b
create_bonds  single/bond 2 2060 4119
  2 = max # of 1-2 neighbors
  5 = max # of special neighbors
  special bonds CPU = 0.0027554 secs
next i
jump MDPBB.in loop    # End of the loop
variable      randni equal round(random(1,${ntwall},$s))  # Pick a random "top" wall atom
variable      randni equal round(random(1,2888,$s))  
variable      randni equal round(random(1,2888,234897))  
variable      randatomi equal ${randni}                   # This is to obtain an integer number for atom-id
variable      randatomi equal 2173                   
variable      randzi equal z[${randatomi}]                # Determine the z coordinate of the chosen atom
variable      randzi equal z[2173]                
# if the chosen atom is not a surface atom then restart the loop
if            "${randzi} < $(v_wthick - 0.7)" then "jump MDPBB.in loop"
jump MDPBB.in loop
variable      randni equal round(random(1,${ntwall},$s))  # Pick a random "top" wall atom
variable      randni equal round(random(1,2888,$s))  
variable      randni equal round(random(1,2888,234897))  
variable      randatomi equal ${randni}                   # This is to obtain an integer number for atom-id
variable      randatomi equal 74                   
variable      randzi equal z[${randatomi}]                # Determine the z coordinate of the chosen atom
variable      randzi equal z[74]                
# if the chosen atom is not a surface atom then restart the loop
if            "${randzi} < $(v_wthick - 0.7)" then "jump MDPBB.in loop"
jump MDPBB.in loop
variable      randni equal round(random(1,${ntwall},$s))  # Pick a random "top" wall atom
variable      randni equal round(random(1,2888,$s))  
variable      randni equal round(random(1,2888,234897))  
variable      randatomi equal ${randni}                   # This is to obtain an integer number for atom-id
variable      randatomi equal 1924                   
variable      randzi equal z[${randatomi}]                # Determine the z coordinate of the chosen atom
variable      randzi equal z[1924]                
# if the chosen atom is not a surface atom then restart the loop
if            "${randzi} < $(v_wthick - 0.7)" then "jump MDPBB.in loop"
set           atom ${randatomi} type 4                    # Set this grafted wall atom as a new type
set           atom 1924 type 4                    
  1 settings made for type
group         twg id ${randatomi}                         # Add this atom to a top-wall-grafted group
group         twg id 1924                         
43 atoms in group twg
variable      twgcount equal count(twg)
print         "twg contains ${twgcount}"
twg contains 43
print         "i = $(v_i)"                                # The index i should always be equal to the number of atom in twg
i = 43
variable      x0 equal x[${randatomi}]                    # Determine its x-coord
variable      x0 equal x[1924]                    
variable      y0 equal y[${randatomi}]                    # Determine its y-coord
variable      y0 equal y[1924]                    
variable      check0 equal ${check}                       # Count the number of atoms in the simulation
variable      check0 equal 4148                       
variable      b equal ${check}+1                          # The grafted bead id will be one higher after being inserted
variable      b equal 4148+1                          
if            "${twgcount} != $(v_i)" then "jump MDPBB.in loop"
# Otherwise insert the chain directly above the chosen wall atom pointing perpendicular to the wall
create_atoms  1 single ${x0} ${y0} ${z0} mol bs 24987 units box remap yes rotate 0 0 0 1
create_atoms  1 single 7.937005259841 ${y0} ${z0} mol bs 24987 units box remap yes rotate 0 0 0 1
create_atoms  1 single 7.937005259841 10.3181068377933 ${z0} mol bs 24987 units box remap yes rotate 0 0 0 1
create_atoms  1 single 7.937005259841 10.3181068377933 17 mol bs 24987 units box remap yes rotate 0 0 0 1
Created 30 atoms
  create_atoms CPU = 0.0001201 secs
variable      check1 equal ${check}               # Count the new total number of atoms
variable      check1 equal 4178               
# Check that the molecule has indeed been inserted (This check is no longer an issue).
if            "${check1} != ${check0}" then "create_bonds  single/bond 2 ${randatomi} $b" "next i"
create_bonds  single/bond 2 ${randatomi} $b
create_bonds  single/bond 2 1924 $b
create_bonds  single/bond 2 1924 4149
  2 = max # of 1-2 neighbors
  5 = max # of special neighbors
  special bonds CPU = 0.0025528 secs
next i
jump MDPBB.in loop    # End of the loop
variable      randni equal round(random(1,${ntwall},$s))  # Pick a random "top" wall atom
variable      randni equal round(random(1,2888,$s))  
variable      randni equal round(random(1,2888,234897))  
variable      randatomi equal ${randni}                   # This is to obtain an integer number for atom-id
variable      randatomi equal 266                   
variable      randzi equal z[${randatomi}]                # Determine the z coordinate of the chosen atom
variable      randzi equal z[266]                
# if the chosen atom is not a surface atom then restart the loop
if            "${randzi} < $(v_wthick - 0.7)" then "jump MDPBB.in loop"
jump MDPBB.in loop
variable      randni equal round(random(1,${ntwall},$s))  # Pick a random "top" wall atom
variable      randni equal round(random(1,2888,$s))  
variable      randni equal round(random(1,2888,234897))  
variable      randatomi equal ${randni}                   # This is to obtain an integer number for atom-id
variable      randatomi equal 223                   
variable      randzi equal z[${randatomi}]                # Determine the z coordinate of the chosen atom
variable      randzi equal z[223]                
# if the chosen atom is not a surface atom then restart the loop
if            "${randzi} < $(v_wthick - 0.7)" then "jump MDPBB.in loop"
jump MDPBB.in loop
variable      randni equal round(random(1,${ntwall},$s))  # Pick a random "top" wall atom
variable      randni equal round(random(1,2888,$s))  
variable      randni equal round(random(1,2888,234897))  
variable      randatomi equal ${randni}                   # This is to obtain an integer number for atom-id
variable      randatomi equal 1515                   
variable      randzi equal z[${randatomi}]                # Determine the z coordinate of the chosen atom
variable      randzi equal z[1515]                
# if the chosen atom is not a surface atom then restart the loop
if            "${randzi} < $(v_wthick - 0.7)" then "jump MDPBB.in loop"
set           atom ${randatomi} type 4                    # Set this grafted wall atom as a new type
set           atom 1515 type 4                    
  1 settings made for type
group         twg id ${randatomi}                         # Add this atom to a top-wall-grafted group
group         twg id 1515                         
44 atoms in group twg
variable      twgcount equal count(twg)
print         "twg contains ${twgcount}"
twg contains 44
print         "i = $(v_i)"                                # The index i should always be equal to the number of atom in twg
i = 44
variable      x0 equal x[${randatomi}]                    # Determine its x-coord
variable      x0 equal x[1515]                    
variable      y0 equal y[${randatomi}]                    # Determine its y-coord
variable      y0 equal y[1515]                    
variable      check0 equal ${check}                       # Count the number of atoms in the simulation
variable      check0 equal 4178                       
variable      b equal ${check}+1                          # The grafted bead id will be one higher after being inserted
variable      b equal 4178+1                          
if            "${twgcount} != $(v_i)" then "jump MDPBB.in loop"
# Otherwise insert the chain directly above the chosen wall atom pointing perpendicular to the wall
create_atoms  1 single ${x0} ${y0} ${z0} mol bs 24987 units box remap yes rotate 0 0 0 1
create_atoms  1 single 27.7795184094435 ${y0} ${z0} mol bs 24987 units box remap yes rotate 0 0 0 1
create_atoms  1 single 27.7795184094435 0 ${z0} mol bs 24987 units box remap yes rotate 0 0 0 1
create_atoms  1 single 27.7795184094435 0 17 mol bs 24987 units box remap yes rotate 0 0 0 1
Created 30 atoms
  create_atoms CPU = 0.000113 secs
variable      check1 equal ${check}               # Count the new total number of atoms
variable      check1 equal 4208               
# Check that the molecule has indeed been inserted (This check is no longer an issue).
if            "${check1} != ${check0}" then "create_bonds  single/bond 2 ${randatomi} $b" "next i"
create_bonds  single/bond 2 ${randatomi} $b
create_bonds  single/bond 2 1515 $b
create_bonds  single/bond 2 1515 4179
  2 = max # of 1-2 neighbors
  5 = max # of special neighbors
  special bonds CPU = 0.0026295 secs
next i
jump MDPBB.in loop    # End of the loop
variable      randni equal round(random(1,${ntwall},$s))  # Pick a random "top" wall atom
variable      randni equal round(random(1,2888,$s))  
variable      randni equal round(random(1,2888,234897))  
variable      randatomi equal ${randni}                   # This is to obtain an integer number for atom-id
variable      randatomi equal 915                   
variable      randzi equal z[${randatomi}]                # Determine the z coordinate of the chosen atom
variable      randzi equal z[915]                
# if the chosen atom is not a surface atom then restart the loop
if            "${randzi} < $(v_wthick - 0.7)" then "jump MDPBB.in loop"
jump MDPBB.in loop
variable      randni equal round(random(1,${ntwall},$s))  # Pick a random "top" wall atom
variable      randni equal round(random(1,2888,$s))  
variable      randni equal round(random(1,2888,234897))  
variable      randatomi equal ${randni}                   # This is to obtain an integer number for atom-id
variable      randatomi equal 387                   
variable      randzi equal z[${randatomi}]                # Determine the z coordinate of the chosen atom
variable      randzi equal z[387]                
# if the chosen atom is not a surface atom then restart the loop
if            "${randzi} < $(v_wthick - 0.7)" then "jump MDPBB.in loop"
jump MDPBB.in loop
variable      randni equal round(random(1,${ntwall},$s))  # Pick a random "top" wall atom
variable      randni equal round(random(1,2888,$s))  
variable      randni equal round(random(1,2888,234897))  
variable      randatomi equal ${randni}                   # This is to obtain an integer number for atom-id
variable      randatomi equal 2109                   
variable      randzi equal z[${randatomi}]                # Determine the z coordinate of the chosen atom
variable      randzi equal z[2109]                
# if the chosen atom is not a surface atom then restart the loop
if            "${randzi} < $(v_wthick - 0.7)" then "jump MDPBB.in loop"
jump MDPBB.in loop
variable      randni equal round(random(1,${ntwall},$s))  # Pick a random "top" wall atom
variable      randni equal round(random(1,2888,$s))  
variable      randni equal round(random(1,2888,234897))  
variable      randatomi equal ${randni}                   # This is to obtain an integer number for atom-id
variable      randatomi equal 1796                   
variable      randzi equal z[${randatomi}]                # Determine the z coordinate of the chosen atom
variable      randzi equal z[1796]                
# if the chosen atom is not a surface atom then restart the loop
if            "${randzi} < $(v_wthick - 0.7)" then "jump MDPBB.in loop"
set           atom ${randatomi} type 4                    # Set this grafted wall atom as a new type
set           atom 1796 type 4                    
  1 settings made for type
group         twg id ${randatomi}                         # Add this atom to a top-wall-grafted group
group         twg id 1796                         
45 atoms in group twg
variable      twgcount equal count(twg)
print         "twg contains ${twgcount}"
twg contains 45
print         "i = $(v_i)"                                # The index i should always be equal to the number of atom in twg
i = 45
variable      x0 equal x[${randatomi}]                    # Determine its x-coord
variable      x0 equal x[1796]                    
variable      y0 equal y[${randatomi}]                    # Determine its y-coord
variable      y0 equal y[1796]                    
variable      check0 equal ${check}                       # Count the number of atoms in the simulation
variable      check0 equal 4208                       
variable      b equal ${check}+1                          # The grafted bead id will be one higher after being inserted
variable      b equal 4208+1                          
if            "${twgcount} != $(v_i)" then "jump MDPBB.in loop"
# Otherwise insert the chain directly above the chosen wall atom pointing perpendicular to the wall
create_atoms  1 single ${x0} ${y0} ${z0} mol bs 24987 units box remap yes rotate 0 0 0 1
create_atoms  1 single 17.4614115716502 ${y0} ${z0} mol bs 24987 units box remap yes rotate 0 0 0 1
create_atoms  1 single 17.4614115716502 7.1433047338569 ${z0} mol bs 24987 units box remap yes rotate 0 0 0 1
create_atoms  1 single 17.4614115716502 7.1433047338569 17 mol bs 24987 units box remap yes rotate 0 0 0 1
Created 30 atoms
  create_atoms CPU = 0.0002624 secs
variable      check1 equal ${check}               # Count the new total number of atoms
variable      check1 equal 4238               
# Check that the molecule has indeed been inserted (This check is no longer an issue).
if            "${check1} != ${check0}" then "create_bonds  single/bond 2 ${randatomi} $b" "next i"
create_bonds  single/bond 2 ${randatomi} $b
create_bonds  single/bond 2 1796 $b
create_bonds  single/bond 2 1796 4209
  2 = max # of 1-2 neighbors
  5 = max # of special neighbors
  special bonds CPU = 0.0025695 secs
next i
jump MDPBB.in loop    # End of the loop
variable      randni equal round(random(1,${ntwall},$s))  # Pick a random "top" wall atom
variable      randni equal round(random(1,2888,$s))  
variable      randni equal round(random(1,2888,234897))  
variable      randatomi equal ${randni}                   # This is to obtain an integer number for atom-id
variable      randatomi equal 518                   
variable      randzi equal z[${randatomi}]                # Determine the z coordinate of the chosen atom
variable      randzi equal z[518]                
# if the chosen atom is not a surface atom then restart the loop
if            "${randzi} < $(v_wthick - 0.7)" then "jump MDPBB.in loop"
jump MDPBB.in loop
variable      randni equal round(random(1,${ntwall},$s))  # Pick a random "top" wall atom
variable      randni equal round(random(1,2888,$s))  
variable      randni equal round(random(1,2888,234897))  
variable      randatomi equal ${randni}                   # This is to obtain an integer number for atom-id
variable      randatomi equal 58                   
variable      randzi equal z[${randatomi}]                # Determine the z coordinate of the chosen atom
variable      randzi equal z[58]                
# if the chosen atom is not a surface atom then restart the loop
if            "${randzi} < $(v_wthick - 0.7)" then "jump MDPBB.in loop"
jump MDPBB.in loop
variable      randni equal round(random(1,${ntwall},$s))  # Pick a random "top" wall atom
variable      randni equal round(random(1,2888,$s))  
variable      randni equal round(random(1,2888,234897))  
variable      randatomi equal ${randni}                   # This is to obtain an integer number for atom-id
variable      randatomi equal 629                   
variable      randzi equal z[${randatomi}]                # Determine the z coordinate of the chosen atom
variable      randzi equal z[629]                
# if the chosen atom is not a surface atom then restart the loop
if            "${randzi} < $(v_wthick - 0.7)" then "jump MDPBB.in loop"
jump MDPBB.in loop
variable      randni equal round(random(1,${ntwall},$s))  # Pick a random "top" wall atom
variable      randni equal round(random(1,2888,$s))  
variable      randni equal round(random(1,2888,234897))  
variable      randatomi equal ${randni}                   # This is to obtain an integer number for atom-id
variable      randatomi equal 2228                   
variable      randzi equal z[${randatomi}]                # Determine the z coordinate of the chosen atom
variable      randzi equal z[2228]                
# if the chosen atom is not a surface atom then restart the loop
if            "${randzi} < $(v_wthick - 0.7)" then "jump MDPBB.in loop"
set           atom ${randatomi} type 4                    # Set this grafted wall atom as a new type
set           atom 2228 type 4                    
  1 settings made for type
group         twg id ${randatomi}                         # Add this atom to a top-wall-grafted group
group         twg id 2228                         
46 atoms in group twg
variable      twgcount equal count(twg)
print         "twg contains ${twgcount}"
twg contains 46
print         "i = $(v_i)"                                # The index i should always be equal to the number of atom in twg
i = 46
variable      x0 equal x[${randatomi}]                    # Determine its x-coord
variable      x0 equal x[2228]                    
variable      y0 equal y[${randatomi}]                    # Determine its y-coord
variable      y0 equal y[2228]                    
variable      check0 equal ${check}                       # Count the number of atoms in the simulation
variable      check0 equal 4238                       
variable      b equal ${check}+1                          # The grafted bead id will be one higher after being inserted
variable      b equal 4238+1                          
if            "${twgcount} != $(v_i)" then "jump MDPBB.in loop"
# Otherwise insert the chain directly above the chosen wall atom pointing perpendicular to the wall
create_atoms  1 single ${x0} ${y0} ${z0} mol bs 24987 units box remap yes rotate 0 0 0 1
create_atoms  1 single 7.937005259841 ${y0} ${z0} mol bs 24987 units box remap yes rotate 0 0 0 1
create_atoms  1 single 7.937005259841 16.6677110456661 ${z0} mol bs 24987 units box remap yes rotate 0 0 0 1
create_atoms  1 single 7.937005259841 16.6677110456661 17 mol bs 24987 units box remap yes rotate 0 0 0 1
Created 30 atoms
  create_atoms CPU = 0.0001197 secs
variable      check1 equal ${check}               # Count the new total number of atoms
variable      check1 equal 4268               
# Check that the molecule has indeed been inserted (This check is no longer an issue).
if            "${check1} != ${check0}" then "create_bonds  single/bond 2 ${randatomi} $b" "next i"
create_bonds  single/bond 2 ${randatomi} $b
create_bonds  single/bond 2 2228 $b
create_bonds  single/bond 2 2228 4239
  2 = max # of 1-2 neighbors
  5 = max # of special neighbors
  special bonds CPU = 0.0023895 secs
next i
jump MDPBB.in loop    # End of the loop
variable      randni equal round(random(1,${ntwall},$s))  # Pick a random "top" wall atom
variable      randni equal round(random(1,2888,$s))  
variable      randni equal round(random(1,2888,234897))  
variable      randatomi equal ${randni}                   # This is to obtain an integer number for atom-id
variable      randatomi equal 732                   
variable      randzi equal z[${randatomi}]                # Determine the z coordinate of the chosen atom
variable      randzi equal z[732]                
# if the chosen atom is not a surface atom then restart the loop
if            "${randzi} < $(v_wthick - 0.7)" then "jump MDPBB.in loop"
jump MDPBB.in loop
variable      randni equal round(random(1,${ntwall},$s))  # Pick a random "top" wall atom
variable      randni equal round(random(1,2888,$s))  
variable      randni equal round(random(1,2888,234897))  
variable      randatomi equal ${randni}                   # This is to obtain an integer number for atom-id
variable      randatomi equal 957                   
variable      randzi equal z[${randatomi}]                # Determine the z coordinate of the chosen atom
variable      randzi equal z[957]                
# if the chosen atom is not a surface atom then restart the loop
if            "${randzi} < $(v_wthick - 0.7)" then "jump MDPBB.in loop"
jump MDPBB.in loop
variable      randni equal round(random(1,${ntwall},$s))  # Pick a random "top" wall atom
variable      randni equal round(random(1,2888,$s))  
variable      randni equal round(random(1,2888,234897))  
variable      randatomi equal ${randni}                   # This is to obtain an integer number for atom-id
variable      randatomi equal 1247                   
variable      randzi equal z[${randatomi}]                # Determine the z coordinate of the chosen atom
variable      randzi equal z[1247]                
# if the chosen atom is not a surface atom then restart the loop
if            "${randzi} < $(v_wthick - 0.7)" then "jump MDPBB.in loop"
jump MDPBB.in loop
variable      randni equal round(random(1,${ntwall},$s))  # Pick a random "top" wall atom
variable      randni equal round(random(1,2888,$s))  
variable      randni equal round(random(1,2888,234897))  
variable      randatomi equal ${randni}                   # This is to obtain an integer number for atom-id
variable      randatomi equal 539                   
variable      randzi equal z[${randatomi}]                # Determine the z coordinate of the chosen atom
variable      randzi equal z[539]                
# if the chosen atom is not a surface atom then restart the loop
if            "${randzi} < $(v_wthick - 0.7)" then "jump MDPBB.in loop"
jump MDPBB.in loop
variable      randni equal round(random(1,${ntwall},$s))  # Pick a random "top" wall atom
variable      randni equal round(random(1,2888,$s))  
variable      randni equal round(random(1,2888,234897))  
variable      randatomi equal ${randni}                   # This is to obtain an integer number for atom-id
variable      randatomi equal 1420                   
variable      randzi equal z[${randatomi}]                # Determine the z coordinate of the chosen atom
variable      randzi equal z[1420]                
# if the chosen atom is not a surface atom then restart the loop
if            "${randzi} < $(v_wthick - 0.7)" then "jump MDPBB.in loop"
jump MDPBB.in loop
variable      randni equal round(random(1,${ntwall},$s))  # Pick a random "top" wall atom
variable      randni equal round(random(1,2888,$s))  
variable      randni equal round(random(1,2888,234897))  
variable      randatomi equal ${randni}                   # This is to obtain an integer number for atom-id
variable      randatomi equal 1653                   
variable      randzi equal z[${randatomi}]                # Determine the z coordinate of the chosen atom
variable      randzi equal z[1653]                
# if the chosen atom is not a surface atom then restart the loop
if            "${randzi} < $(v_wthick - 0.7)" then "jump MDPBB.in loop"
jump MDPBB.in loop
variable      randni equal round(random(1,${ntwall},$s))  # Pick a random "top" wall atom
variable      randni equal round(random(1,2888,$s))  
variable      randni equal round(random(1,2888,234897))  
variable      randatomi equal ${randni}                   # This is to obtain an integer number for atom-id
variable      randatomi equal 758                   
variable      randzi equal z[${randatomi}]                # Determine the z coordinate of the chosen atom
variable      randzi equal z[758]                
# if the chosen atom is not a surface atom then restart the loop
if            "${randzi} < $(v_wthick - 0.7)" then "jump MDPBB.in loop"
jump MDPBB.in loop
variable      randni equal round(random(1,${ntwall},$s))  # Pick a random "top" wall atom
variable      randni equal round(random(1,2888,$s))  
variable      randni equal round(random(1,2888,234897))  
variable      randatomi equal ${randni}                   # This is to obtain an integer number for atom-id
variable      randatomi equal 2614                   
variable      randzi equal z[${randatomi}]                # Determine the z coordinate of the chosen atom
variable      randzi equal z[2614]                
# if the chosen atom is not a surface atom then restart the loop
if            "${randzi} < $(v_wthick - 0.7)" then "jump MDPBB.in loop"
jump MDPBB.in loop
variable      randni equal round(random(1,${ntwall},$s))  # Pick a random "top" wall atom
variable      randni equal round(random(1,2888,$s))  
variable      randni equal round(random(1,2888,234897))  
variable      randatomi equal ${randni}                   # This is to obtain an integer number for atom-id
variable      randatomi equal 1442                   
variable      randzi equal z[${randatomi}]                # Determine the z coordinate of the chosen atom
variable      randzi equal z[1442]                
# if the chosen atom is not a surface atom then restart the loop
if            "${randzi} < $(v_wthick - 0.7)" then "jump MDPBB.in loop"
jump MDPBB.in loop
variable      randni equal round(random(1,${ntwall},$s))  # Pick a random "top" wall atom
variable      randni equal round(random(1,2888,$s))  
variable      randni equal round(random(1,2888,234897))  
variable      randatomi equal ${randni}                   # This is to obtain an integer number for atom-id
variable      randatomi equal 364                   
variable      randzi equal z[${randatomi}]                # Determine the z coordinate of the chosen atom
variable      randzi equal z[364]                
# if the chosen atom is not a surface atom then restart the loop
if            "${randzi} < $(v_wthick - 0.7)" then "jump MDPBB.in loop"
jump MDPBB.in loop
variable      randni equal round(random(1,${ntwall},$s))  # Pick a random "top" wall atom
variable      randni equal round(random(1,2888,$s))  
variable      randni equal round(random(1,2888,234897))  
variable      randatomi equal ${randni}                   # This is to obtain an integer number for atom-id
variable      randatomi equal 554                   
variable      randzi equal z[${randatomi}]                # Determine the z coordinate of the chosen atom
variable      randzi equal z[554]                
# if the chosen atom is not a surface atom then restart the loop
if            "${randzi} < $(v_wthick - 0.7)" then "jump MDPBB.in loop"
jump MDPBB.in loop
variable      randni equal round(random(1,${ntwall},$s))  # Pick a random "top" wall atom
variable      randni equal round(random(1,2888,$s))  
variable      randni equal round(random(1,2888,234897))  
variable      randatomi equal ${randni}                   # This is to obtain an integer number for atom-id
variable      randatomi equal 583                   
variable      randzi equal z[${randatomi}]                # Determine the z coordinate of the chosen atom
variable      randzi equal z[583]                
# if the chosen atom is not a surface atom then restart the loop
if            "${randzi} < $(v_wthick - 0.7)" then "jump MDPBB.in loop"
jump MDPBB.in loop
variable      randni equal round(random(1,${ntwall},$s))  # Pick a random "top" wall atom
variable      randni equal round(random(1,2888,$s))  
variable      randni equal round(random(1,2888,234897))  
variable      randatomi equal ${randni}                   # This is to obtain an integer number for atom-id
variable      randatomi equal 1500                   
variable      randzi equal z[${randatomi}]                # Determine the z coordinate of the chosen atom
variable      randzi equal z[1500]                
# if the chosen atom is not a surface atom then restart the loop
if            "${randzi} < $(v_wthick - 0.7)" then "jump MDPBB.in loop"
set           atom ${randatomi} type 4                    # Set this grafted wall atom as a new type
set           atom 1500 type 4                    
  1 settings made for type
group         twg id ${randatomi}                         # Add this atom to a top-wall-grafted group
group         twg id 1500                         
47 atoms in group twg
variable      twgcount equal count(twg)
print         "twg contains ${twgcount}"
twg contains 47
print         "i = $(v_i)"                                # The index i should always be equal to the number of atom in twg
i = 47
variable      x0 equal x[${randatomi}]                    # Determine its x-coord
variable      x0 equal x[1500]                    
variable      y0 equal y[${randatomi}]                    # Determine its y-coord
variable      y0 equal y[1500]                    
variable      check0 equal ${check}                       # Count the number of atoms in the simulation
variable      check0 equal 4268                       
variable      b equal ${check}+1                          # The grafted bead id will be one higher after being inserted
variable      b equal 4268+1                          
if            "${twgcount} != $(v_i)" then "jump MDPBB.in loop"
# Otherwise insert the chain directly above the chosen wall atom pointing perpendicular to the wall
create_atoms  1 single ${x0} ${y0} ${z0} mol bs 24987 units box remap yes rotate 0 0 0 1
create_atoms  1 single 20.6362136755866 ${y0} ${z0} mol bs 24987 units box remap yes rotate 0 0 0 1
create_atoms  1 single 20.6362136755866 0.7937005259841 ${z0} mol bs 24987 units box remap yes rotate 0 0 0 1
create_atoms  1 single 20.6362136755866 0.7937005259841 17 mol bs 24987 units box remap yes rotate 0 0 0 1
Created 30 atoms
  create_atoms CPU = 0.0001273 secs
variable      check1 equal ${check}               # Count the new total number of atoms
variable      check1 equal 4298               
# Check that the molecule has indeed been inserted (This check is no longer an issue).
if            "${check1} != ${check0}" then "create_bonds  single/bond 2 ${randatomi} $b" "next i"
create_bonds  single/bond 2 ${randatomi} $b
create_bonds  single/bond 2 1500 $b
create_bonds  single/bond 2 1500 4269
  2 = max # of 1-2 neighbors
  5 = max # of special neighbors
  special bonds CPU = 0.0026268 secs
next i
jump MDPBB.in loop    # End of the loop
variable      randni equal round(random(1,${ntwall},$s))  # Pick a random "top" wall atom
variable      randni equal round(random(1,2888,$s))  
variable      randni equal round(random(1,2888,234897))  
variable      randatomi equal ${randni}                   # This is to obtain an integer number for atom-id
variable      randatomi equal 475                   
variable      randzi equal z[${randatomi}]                # Determine the z coordinate of the chosen atom
variable      randzi equal z[475]                
# if the chosen atom is not a surface atom then restart the loop
if            "${randzi} < $(v_wthick - 0.7)" then "jump MDPBB.in loop"
jump MDPBB.in loop
variable      randni equal round(random(1,${ntwall},$s))  # Pick a random "top" wall atom
variable      randni equal round(random(1,2888,$s))  
variable      randni equal round(random(1,2888,234897))  
variable      randatomi equal ${randni}                   # This is to obtain an integer number for atom-id
variable      randatomi equal 2585                   
variable      randzi equal z[${randatomi}]                # Determine the z coordinate of the chosen atom
variable      randzi equal z[2585]                
# if the chosen atom is not a surface atom then restart the loop
if            "${randzi} < $(v_wthick - 0.7)" then "jump MDPBB.in loop"
jump MDPBB.in loop
variable      randni equal round(random(1,${ntwall},$s))  # Pick a random "top" wall atom
variable      randni equal round(random(1,2888,$s))  
variable      randni equal round(random(1,2888,234897))  
variable      randatomi equal ${randni}                   # This is to obtain an integer number for atom-id
variable      randatomi equal 2608                   
variable      randzi equal z[${randatomi}]                # Determine the z coordinate of the chosen atom
variable      randzi equal z[2608]                
# if the chosen atom is not a surface atom then restart the loop
if            "${randzi} < $(v_wthick - 0.7)" then "jump MDPBB.in loop"
set           atom ${randatomi} type 4                    # Set this grafted wall atom as a new type
set           atom 2608 type 4                    
  1 settings made for type
group         twg id ${randatomi}                         # Add this atom to a top-wall-grafted group
group         twg id 2608                         
48 atoms in group twg
variable      twgcount equal count(twg)
print         "twg contains ${twgcount}"
twg contains 48
print         "i = $(v_i)"                                # The index i should always be equal to the number of atom in twg
i = 48
variable      x0 equal x[${randatomi}]                    # Determine its x-coord
variable      x0 equal x[2608]                    
variable      y0 equal y[${randatomi}]                    # Determine its y-coord
variable      y0 equal y[2608]                    
variable      check0 equal ${check}                       # Count the number of atoms in the simulation
variable      check0 equal 4298                       
variable      b equal ${check}+1                          # The grafted bead id will be one higher after being inserted
variable      b equal 4298+1                          
if            "${twgcount} != $(v_i)" then "jump MDPBB.in loop"
# Otherwise insert the chain directly above the chosen wall atom pointing perpendicular to the wall
create_atoms  1 single ${x0} ${y0} ${z0} mol bs 24987 units box remap yes rotate 0 0 0 1
create_atoms  1 single 7.937005259841 ${y0} ${z0} mol bs 24987 units box remap yes rotate 0 0 0 1
create_atoms  1 single 7.937005259841 24.6047163055071 ${z0} mol bs 24987 units box remap yes rotate 0 0 0 1
create_atoms  1 single 7.937005259841 24.6047163055071 17 mol bs 24987 units box remap yes rotate 0 0 0 1
Created 30 atoms
  create_atoms CPU = 0.0001273 secs
variable      check1 equal ${check}               # Count the new total number of atoms
variable      check1 equal 4328               
# Check that the molecule has indeed been inserted (This check is no longer an issue).
if            "${check1} != ${check0}" then "create_bonds  single/bond 2 ${randatomi} $b" "next i"
create_bonds  single/bond 2 ${randatomi} $b
create_bonds  single/bond 2 2608 $b
create_bonds  single/bond 2 2608 4299
  2 = max # of 1-2 neighbors
  5 = max # of special neighbors
  special bonds CPU = 0.0029691 secs
next i
jump MDPBB.in loop    # End of the loop
variable      randni equal round(random(1,${ntwall},$s))  # Pick a random "top" wall atom
variable      randni equal round(random(1,2888,$s))  
variable      randni equal round(random(1,2888,234897))  
variable      randatomi equal ${randni}                   # This is to obtain an integer number for atom-id
variable      randatomi equal 2797                   
variable      randzi equal z[${randatomi}]                # Determine the z coordinate of the chosen atom
variable      randzi equal z[2797]                
# if the chosen atom is not a surface atom then restart the loop
if            "${randzi} < $(v_wthick - 0.7)" then "jump MDPBB.in loop"
jump MDPBB.in loop
variable      randni equal round(random(1,${ntwall},$s))  # Pick a random "top" wall atom
variable      randni equal round(random(1,2888,$s))  
variable      randni equal round(random(1,2888,234897))  
variable      randatomi equal ${randni}                   # This is to obtain an integer number for atom-id
variable      randatomi equal 1961                   
variable      randzi equal z[${randatomi}]                # Determine the z coordinate of the chosen atom
variable      randzi equal z[1961]                
# if the chosen atom is not a surface atom then restart the loop
if            "${randzi} < $(v_wthick - 0.7)" then "jump MDPBB.in loop"
jump MDPBB.in loop
variable      randni equal round(random(1,${ntwall},$s))  # Pick a random "top" wall atom
variable      randni equal round(random(1,2888,$s))  
variable      randni equal round(random(1,2888,234897))  
variable      randatomi equal ${randni}                   # This is to obtain an integer number for atom-id
variable      randatomi equal 1745                   
variable      randzi equal z[${randatomi}]                # Determine the z coordinate of the chosen atom
variable      randzi equal z[1745]                
# if the chosen atom is not a surface atom then restart the loop
if            "${randzi} < $(v_wthick - 0.7)" then "jump MDPBB.in loop"
jump MDPBB.in loop
variable      randni equal round(random(1,${ntwall},$s))  # Pick a random "top" wall atom
variable      randni equal round(random(1,2888,$s))  
variable      randni equal round(random(1,2888,234897))  
variable      randatomi equal ${randni}                   # This is to obtain an integer number for atom-id
variable      randatomi equal 1288                   
variable      randzi equal z[${randatomi}]                # Determine the z coordinate of the chosen atom
variable      randzi equal z[1288]                
# if the chosen atom is not a surface atom then restart the loop
if            "${randzi} < $(v_wthick - 0.7)" then "jump MDPBB.in loop"
jump MDPBB.in loop
variable      randni equal round(random(1,${ntwall},$s))  # Pick a random "top" wall atom
variable      randni equal round(random(1,2888,$s))  
variable      randni equal round(random(1,2888,234897))  
variable      randatomi equal ${randni}                   # This is to obtain an integer number for atom-id
variable      randatomi equal 2773                   
variable      randzi equal z[${randatomi}]                # Determine the z coordinate of the chosen atom
variable      randzi equal z[2773]                
# if the chosen atom is not a surface atom then restart the loop
if            "${randzi} < $(v_wthick - 0.7)" then "jump MDPBB.in loop"
jump MDPBB.in loop
variable      randni equal round(random(1,${ntwall},$s))  # Pick a random "top" wall atom
variable      randni equal round(random(1,2888,$s))  
variable      randni equal round(random(1,2888,234897))  
variable      randatomi equal ${randni}                   # This is to obtain an integer number for atom-id
variable      randatomi equal 2495                   
variable      randzi equal z[${randatomi}]                # Determine the z coordinate of the chosen atom
variable      randzi equal z[2495]                
# if the chosen atom is not a surface atom then restart the loop
if            "${randzi} < $(v_wthick - 0.7)" then "jump MDPBB.in loop"
set           atom ${randatomi} type 4                    # Set this grafted wall atom as a new type
set           atom 2495 type 4                    
  1 settings made for type
group         twg id ${randatomi}                         # Add this atom to a top-wall-grafted group
group         twg id 2495                         
49 atoms in group twg
variable      twgcount equal count(twg)
print         "twg contains ${twgcount}"
twg contains 49
print         "i = $(v_i)"                                # The index i should always be equal to the number of atom in twg
i = 49
variable      x0 equal x[${randatomi}]                    # Determine its x-coord
variable      x0 equal x[2495]                    
variable      y0 equal y[${randatomi}]                    # Determine its y-coord
variable      y0 equal y[2495]                    
variable      check0 equal ${check}                       # Count the number of atoms in the simulation
variable      check0 equal 4328                       
variable      b equal ${check}+1                          # The grafted bead id will be one higher after being inserted
variable      b equal 4328+1                          
if            "${twgcount} != $(v_i)" then "jump MDPBB.in loop"
# Otherwise insert the chain directly above the chosen wall atom pointing perpendicular to the wall
create_atoms  1 single ${x0} ${y0} ${z0} mol bs 24987 units box remap yes rotate 0 0 0 1
create_atoms  1 single 24.6047163055071 ${y0} ${z0} mol bs 24987 units box remap yes rotate 0 0 0 1
create_atoms  1 single 24.6047163055071 20.6362136755866 ${z0} mol bs 24987 units box remap yes rotate 0 0 0 1
create_atoms  1 single 24.6047163055071 20.6362136755866 17 mol bs 24987 units box remap yes rotate 0 0 0 1
Created 30 atoms
  create_atoms CPU = 0.0001025 secs
variable      check1 equal ${check}               # Count the new total number of atoms
variable      check1 equal 4358               
# Check that the molecule has indeed been inserted (This check is no longer an issue).
if            "${check1} != ${check0}" then "create_bonds  single/bond 2 ${randatomi} $b" "next i"
create_bonds  single/bond 2 ${randatomi} $b
create_bonds  single/bond 2 2495 $b
create_bonds  single/bond 2 2495 4329
  2 = max # of 1-2 neighbors
  5 = max # of special neighbors
  special bonds CPU = 0.0025052 secs
next i
jump MDPBB.in loop    # End of the loop
variable      randni equal round(random(1,${ntwall},$s))  # Pick a random "top" wall atom
variable      randni equal round(random(1,2888,$s))  
variable      randni equal round(random(1,2888,234897))  
variable      randatomi equal ${randni}                   # This is to obtain an integer number for atom-id
variable      randatomi equal 812                   
variable      randzi equal z[${randatomi}]                # Determine the z coordinate of the chosen atom
variable      randzi equal z[812]                
# if the chosen atom is not a surface atom then restart the loop
if            "${randzi} < $(v_wthick - 0.7)" then "jump MDPBB.in loop"
jump MDPBB.in loop
variable      randni equal round(random(1,${ntwall},$s))  # Pick a random "top" wall atom
variable      randni equal round(random(1,2888,$s))  
variable      randni equal round(random(1,2888,234897))  
variable      randatomi equal ${randni}                   # This is to obtain an integer number for atom-id
variable      randatomi equal 2814                   
variable      randzi equal z[${randatomi}]                # Determine the z coordinate of the chosen atom
variable      randzi equal z[2814]                
# if the chosen atom is not a surface atom then restart the loop
if            "${randzi} < $(v_wthick - 0.7)" then "jump MDPBB.in loop"
jump MDPBB.in loop
variable      randni equal round(random(1,${ntwall},$s))  # Pick a random "top" wall atom
variable      randni equal round(random(1,2888,$s))  
variable      randni equal round(random(1,2888,234897))  
variable      randatomi equal ${randni}                   # This is to obtain an integer number for atom-id
variable      randatomi equal 2406                   
variable      randzi equal z[${randatomi}]                # Determine the z coordinate of the chosen atom
variable      randzi equal z[2406]                
# if the chosen atom is not a surface atom then restart the loop
if            "${randzi} < $(v_wthick - 0.7)" then "jump MDPBB.in loop"
jump MDPBB.in loop
variable      randni equal round(random(1,${ntwall},$s))  # Pick a random "top" wall atom
variable      randni equal round(random(1,2888,$s))  
variable      randni equal round(random(1,2888,234897))  
variable      randatomi equal ${randni}                   # This is to obtain an integer number for atom-id
variable      randatomi equal 1265                   
variable      randzi equal z[${randatomi}]                # Determine the z coordinate of the chosen atom
variable      randzi equal z[1265]                
# if the chosen atom is not a surface atom then restart the loop
if            "${randzi} < $(v_wthick - 0.7)" then "jump MDPBB.in loop"
jump MDPBB.in loop
variable      randni equal round(random(1,${ntwall},$s))  # Pick a random "top" wall atom
variable      randni equal round(random(1,2888,$s))  
variable      randni equal round(random(1,2888,234897))  
variable      randatomi equal ${randni}                   # This is to obtain an integer number for atom-id
variable      randatomi equal 1564                   
variable      randzi equal z[${randatomi}]                # Determine the z coordinate of the chosen atom
variable      randzi equal z[1564]                
# if the chosen atom is not a surface atom then restart the loop
if            "${randzi} < $(v_wthick - 0.7)" then "jump MDPBB.in loop"
set           atom ${randatomi} type 4                    # Set this grafted wall atom as a new type
set           atom 1564 type 4                    
  1 settings made for type
group         twg id ${randatomi}                         # Add this atom to a top-wall-grafted group
group         twg id 1564                         
50 atoms in group twg
variable      twgcount equal count(twg)
print         "twg contains ${twgcount}"
twg contains 50
print         "i = $(v_i)"                                # The index i should always be equal to the number of atom in twg
i = 50
variable      x0 equal x[${randatomi}]                    # Determine its x-coord
variable      x0 equal x[1564]                    
variable      y0 equal y[${randatomi}]                    # Determine its y-coord
variable      y0 equal y[1564]                    
variable      check0 equal ${check}                       # Count the number of atoms in the simulation
variable      check0 equal 4358                       
variable      b equal ${check}+1                          # The grafted bead id will be one higher after being inserted
variable      b equal 4358+1                          
if            "${twgcount} != $(v_i)" then "jump MDPBB.in loop"
# Otherwise insert the chain directly above the chosen wall atom pointing perpendicular to the wall
create_atoms  1 single ${x0} ${y0} ${z0} mol bs 24987 units box remap yes rotate 0 0 0 1
create_atoms  1 single 15.874010519682 ${y0} ${z0} mol bs 24987 units box remap yes rotate 0 0 0 1
create_atoms  1 single 15.874010519682 2.3811015779523 ${z0} mol bs 24987 units box remap yes rotate 0 0 0 1
create_atoms  1 single 15.874010519682 2.3811015779523 17 mol bs 24987 units box remap yes rotate 0 0 0 1
Created 30 atoms
  create_atoms CPU = 9.04e-05 secs
variable      check1 equal ${check}               # Count the new total number of atoms
variable      check1 equal 4388               
# Check that the molecule has indeed been inserted (This check is no longer an issue).
if            "${check1} != ${check0}" then "create_bonds  single/bond 2 ${randatomi} $b" "next i"
create_bonds  single/bond 2 ${randatomi} $b
create_bonds  single/bond 2 1564 $b
create_bonds  single/bond 2 1564 4359
  2 = max # of 1-2 neighbors
  5 = max # of special neighbors
  special bonds CPU = 0.0024472 secs
next i
jump MDPBB.in loop    # End of the loop
variable      randni equal round(random(1,${ntwall},$s))  # Pick a random "top" wall atom
variable      randni equal round(random(1,2888,$s))  
variable      randni equal round(random(1,2888,234897))  
variable      randatomi equal ${randni}                   # This is to obtain an integer number for atom-id
variable      randatomi equal 796                   
variable      randzi equal z[${randatomi}]                # Determine the z coordinate of the chosen atom
variable      randzi equal z[796]                
# if the chosen atom is not a surface atom then restart the loop
if            "${randzi} < $(v_wthick - 0.7)" then "jump MDPBB.in loop"
jump MDPBB.in loop
variable      randni equal round(random(1,${ntwall},$s))  # Pick a random "top" wall atom
variable      randni equal round(random(1,2888,$s))  
variable      randni equal round(random(1,2888,234897))  
variable      randatomi equal ${randni}                   # This is to obtain an integer number for atom-id
variable      randatomi equal 398                   
variable      randzi equal z[${randatomi}]                # Determine the z coordinate of the chosen atom
variable      randzi equal z[398]                
# if the chosen atom is not a surface atom then restart the loop
if            "${randzi} < $(v_wthick - 0.7)" then "jump MDPBB.in loop"
jump MDPBB.in loop
variable      randni equal round(random(1,${ntwall},$s))  # Pick a random "top" wall atom
variable      randni equal round(random(1,2888,$s))  
variable      randni equal round(random(1,2888,234897))  
variable      randatomi equal ${randni}                   # This is to obtain an integer number for atom-id
variable      randatomi equal 666                   
variable      randzi equal z[${randatomi}]                # Determine the z coordinate of the chosen atom
variable      randzi equal z[666]                
# if the chosen atom is not a surface atom then restart the loop
if            "${randzi} < $(v_wthick - 0.7)" then "jump MDPBB.in loop"
jump MDPBB.in loop
variable      randni equal round(random(1,${ntwall},$s))  # Pick a random "top" wall atom
variable      randni equal round(random(1,2888,$s))  
variable      randni equal round(random(1,2888,234897))  
variable      randatomi equal ${randni}                   # This is to obtain an integer number for atom-id
variable      randatomi equal 2366                   
variable      randzi equal z[${randatomi}]                # Determine the z coordinate of the chosen atom
variable      randzi equal z[2366]                
# if the chosen atom is not a surface atom then restart the loop
if            "${randzi} < $(v_wthick - 0.7)" then "jump MDPBB.in loop"
jump MDPBB.in loop
variable      randni equal round(random(1,${ntwall},$s))  # Pick a random "top" wall atom
variable      randni equal round(random(1,2888,$s))  
variable      randni equal round(random(1,2888,234897))  
variable      randatomi equal ${randni}                   # This is to obtain an integer number for atom-id
variable      randatomi equal 636                   
variable      randzi equal z[${randatomi}]                # Determine the z coordinate of the chosen atom
variable      randzi equal z[636]                
# if the chosen atom is not a surface atom then restart the loop
if            "${randzi} < $(v_wthick - 0.7)" then "jump MDPBB.in loop"
jump MDPBB.in loop
variable      randni equal round(random(1,${ntwall},$s))  # Pick a random "top" wall atom
variable      randni equal round(random(1,2888,$s))  
variable      randni equal round(random(1,2888,234897))  
variable      randatomi equal ${randni}                   # This is to obtain an integer number for atom-id
variable      randatomi equal 1669                   
variable      randzi equal z[${randatomi}]                # Determine the z coordinate of the chosen atom
variable      randzi equal z[1669]                
# if the chosen atom is not a surface atom then restart the loop
if            "${randzi} < $(v_wthick - 0.7)" then "jump MDPBB.in loop"
jump MDPBB.in loop
variable      randni equal round(random(1,${ntwall},$s))  # Pick a random "top" wall atom
variable      randni equal round(random(1,2888,$s))  
variable      randni equal round(random(1,2888,234897))  
variable      randatomi equal ${randni}                   # This is to obtain an integer number for atom-id
variable      randatomi equal 1946                   
variable      randzi equal z[${randatomi}]                # Determine the z coordinate of the chosen atom
variable      randzi equal z[1946]                
# if the chosen atom is not a surface atom then restart the loop
if            "${randzi} < $(v_wthick - 0.7)" then "jump MDPBB.in loop"
jump MDPBB.in loop
variable      randni equal round(random(1,${ntwall},$s))  # Pick a random "top" wall atom
variable      randni equal round(random(1,2888,$s))  
variable      randni equal round(random(1,2888,234897))  
variable      randatomi equal ${randni}                   # This is to obtain an integer number for atom-id
variable      randatomi equal 624                   
variable      randzi equal z[${randatomi}]                # Determine the z coordinate of the chosen atom
variable      randzi equal z[624]                
# if the chosen atom is not a surface atom then restart the loop
if            "${randzi} < $(v_wthick - 0.7)" then "jump MDPBB.in loop"
jump MDPBB.in loop
variable      randni equal round(random(1,${ntwall},$s))  # Pick a random "top" wall atom
variable      randni equal round(random(1,2888,$s))  
variable      randni equal round(random(1,2888,234897))  
variable      randatomi equal ${randni}                   # This is to obtain an integer number for atom-id
variable      randatomi equal 1619                   
variable      randzi equal z[${randatomi}]                # Determine the z coordinate of the chosen atom
variable      randzi equal z[1619]                
# if the chosen atom is not a surface atom then restart the loop
if            "${randzi} < $(v_wthick - 0.7)" then "jump MDPBB.in loop"
set           atom ${randatomi} type 4                    # Set this grafted wall atom as a new type
set           atom 1619 type 4                    
  1 settings made for type
group         twg id ${randatomi}                         # Add this atom to a top-wall-grafted group
group         twg id 1619                         
51 atoms in group twg
variable      twgcount equal count(twg)
print         "twg contains ${twgcount}"
twg contains 51
print         "i = $(v_i)"                                # The index i should always be equal to the number of atom in twg
i = 51
variable      x0 equal x[${randatomi}]                    # Determine its x-coord
variable      x0 equal x[1619]                    
variable      y0 equal y[${randatomi}]                    # Determine its y-coord
variable      y0 equal y[1619]                    
variable      check0 equal ${check}                       # Count the number of atoms in the simulation
variable      check0 equal 4388                       
variable      b equal ${check}+1                          # The grafted bead id will be one higher after being inserted
variable      b equal 4388+1                          
if            "${twgcount} != $(v_i)" then "jump MDPBB.in loop"
# Otherwise insert the chain directly above the chosen wall atom pointing perpendicular to the wall
create_atoms  1 single ${x0} ${y0} ${z0} mol bs 24987 units box remap yes rotate 0 0 0 1
create_atoms  1 single 8.7307057858251 ${y0} ${z0} mol bs 24987 units box remap yes rotate 0 0 0 1
create_atoms  1 single 8.7307057858251 3.1748021039364 ${z0} mol bs 24987 units box remap yes rotate 0 0 0 1
create_atoms  1 single 8.7307057858251 3.1748021039364 17 mol bs 24987 units box remap yes rotate 0 0 0 1
Created 30 atoms
  create_atoms CPU = 8.73e-05 secs
variable      check1 equal ${check}               # Count the new total number of atoms
variable      check1 equal 4418               
# Check that the molecule has indeed been inserted (This check is no longer an issue).
if            "${check1} != ${check0}" then "create_bonds  single/bond 2 ${randatomi} $b" "next i"
create_bonds  single/bond 2 ${randatomi} $b
create_bonds  single/bond 2 1619 $b
create_bonds  single/bond 2 1619 4389
  2 = max # of 1-2 neighbors
  5 = max # of special neighbors
  special bonds CPU = 0.0026195 secs
next i
jump MDPBB.in loop    # End of the loop
variable      randni equal round(random(1,${ntwall},$s))  # Pick a random "top" wall atom
variable      randni equal round(random(1,2888,$s))  
variable      randni equal round(random(1,2888,234897))  
variable      randatomi equal ${randni}                   # This is to obtain an integer number for atom-id
variable      randatomi equal 1780                   
variable      randzi equal z[${randatomi}]                # Determine the z coordinate of the chosen atom
variable      randzi equal z[1780]                
# if the chosen atom is not a surface atom then restart the loop
if            "${randzi} < $(v_wthick - 0.7)" then "jump MDPBB.in loop"
set           atom ${randatomi} type 4                    # Set this grafted wall atom as a new type
set           atom 1780 type 4                    
  1 settings made for type
group         twg id ${randatomi}                         # Add this atom to a top-wall-grafted group
group         twg id 1780                         
52 atoms in group twg
variable      twgcount equal count(twg)
print         "twg contains ${twgcount}"
twg contains 52
print         "i = $(v_i)"                                # The index i should always be equal to the number of atom in twg
i = 52
variable      x0 equal x[${randatomi}]                    # Determine its x-coord
variable      x0 equal x[1780]                    
variable      y0 equal y[${randatomi}]                    # Determine its y-coord
variable      y0 equal y[1780]                    
variable      check0 equal ${check}                       # Count the number of atoms in the simulation
variable      check0 equal 4418                       
variable      b equal ${check}+1                          # The grafted bead id will be one higher after being inserted
variable      b equal 4418+1                          
if            "${twgcount} != $(v_i)" then "jump MDPBB.in loop"
# Otherwise insert the chain directly above the chosen wall atom pointing perpendicular to the wall
create_atoms  1 single ${x0} ${y0} ${z0} mol bs 24987 units box remap yes rotate 0 0 0 1
create_atoms  1 single 11.1118073637774 ${y0} ${z0} mol bs 24987 units box remap yes rotate 0 0 0 1
create_atoms  1 single 11.1118073637774 7.1433047338569 ${z0} mol bs 24987 units box remap yes rotate 0 0 0 1
create_atoms  1 single 11.1118073637774 7.1433047338569 17 mol bs 24987 units box remap yes rotate 0 0 0 1
Created 30 atoms
  create_atoms CPU = 0.0001205 secs
variable      check1 equal ${check}               # Count the new total number of atoms
variable      check1 equal 4448               
# Check that the molecule has indeed been inserted (This check is no longer an issue).
if            "${check1} != ${check0}" then "create_bonds  single/bond 2 ${randatomi} $b" "next i"
create_bonds  single/bond 2 ${randatomi} $b
create_bonds  single/bond 2 1780 $b
create_bonds  single/bond 2 1780 4419
  2 = max # of 1-2 neighbors
  5 = max # of special neighbors
  special bonds CPU = 0.003502 secs
next i
jump MDPBB.in loop    # End of the loop
variable      randni equal round(random(1,${ntwall},$s))  # Pick a random "top" wall atom
variable      randni equal round(random(1,2888,$s))  
variable      randni equal round(random(1,2888,234897))  
variable      randatomi equal ${randni}                   # This is to obtain an integer number for atom-id
variable      randatomi equal 2733                   
variable      randzi equal z[${randatomi}]                # Determine the z coordinate of the chosen atom
variable      randzi equal z[2733]                
# if the chosen atom is not a surface atom then restart the loop
if            "${randzi} < $(v_wthick - 0.7)" then "jump MDPBB.in loop"
jump MDPBB.in loop
variable      randni equal round(random(1,${ntwall},$s))  # Pick a random "top" wall atom
variable      randni equal round(random(1,2888,$s))  
variable      randni equal round(random(1,2888,234897))  
variable      randatomi equal ${randni}                   # This is to obtain an integer number for atom-id
variable      randatomi equal 1621                   
variable      randzi equal z[${randatomi}]                # Determine the z coordinate of the chosen atom
variable      randzi equal z[1621]                
# if the chosen atom is not a surface atom then restart the loop
if            "${randzi} < $(v_wthick - 0.7)" then "jump MDPBB.in loop"
jump MDPBB.in loop
variable      randni equal round(random(1,${ntwall},$s))  # Pick a random "top" wall atom
variable      randni equal round(random(1,2888,$s))  
variable      randni equal round(random(1,2888,234897))  
variable      randatomi equal ${randni}                   # This is to obtain an integer number for atom-id
variable      randatomi equal 2712                   
variable      randzi equal z[${randatomi}]                # Determine the z coordinate of the chosen atom
variable      randzi equal z[2712]                
# if the chosen atom is not a surface atom then restart the loop
if            "${randzi} < $(v_wthick - 0.7)" then "jump MDPBB.in loop"
set           atom ${randatomi} type 4                    # Set this grafted wall atom as a new type
set           atom 2712 type 4                    
  1 settings made for type
group         twg id ${randatomi}                         # Add this atom to a top-wall-grafted group
group         twg id 2712                         
53 atoms in group twg
variable      twgcount equal count(twg)
print         "twg contains ${twgcount}"
twg contains 53
print         "i = $(v_i)"                                # The index i should always be equal to the number of atom in twg
i = 53
variable      x0 equal x[${randatomi}]                    # Determine its x-coord
variable      x0 equal x[2712]                    
variable      y0 equal y[${randatomi}]                    # Determine its y-coord
variable      y0 equal y[2712]                    
variable      check0 equal ${check}                       # Count the number of atoms in the simulation
variable      check0 equal 4448                       
variable      b equal ${check}+1                          # The grafted bead id will be one higher after being inserted
variable      b equal 4448+1                          
if            "${twgcount} != $(v_i)" then "jump MDPBB.in loop"
# Otherwise insert the chain directly above the chosen wall atom pointing perpendicular to the wall
create_atoms  1 single ${x0} ${y0} ${z0} mol bs 24987 units box remap yes rotate 0 0 0 1
create_atoms  1 single 19.0488126236184 ${y0} ${z0} mol bs 24987 units box remap yes rotate 0 0 0 1
create_atoms  1 single 19.0488126236184 26.1921173574753 ${z0} mol bs 24987 units box remap yes rotate 0 0 0 1
create_atoms  1 single 19.0488126236184 26.1921173574753 17 mol bs 24987 units box remap yes rotate 0 0 0 1
Created 30 atoms
  create_atoms CPU = 9.66e-05 secs
variable      check1 equal ${check}               # Count the new total number of atoms
variable      check1 equal 4478               
# Check that the molecule has indeed been inserted (This check is no longer an issue).
if            "${check1} != ${check0}" then "create_bonds  single/bond 2 ${randatomi} $b" "next i"
create_bonds  single/bond 2 ${randatomi} $b
create_bonds  single/bond 2 2712 $b
create_bonds  single/bond 2 2712 4449
  2 = max # of 1-2 neighbors
  5 = max # of special neighbors
  special bonds CPU = 0.0039062 secs
next i
jump MDPBB.in loop    # End of the loop
variable      randni equal round(random(1,${ntwall},$s))  # Pick a random "top" wall atom
variable      randni equal round(random(1,2888,$s))  
variable      randni equal round(random(1,2888,234897))  
variable      randatomi equal ${randni}                   # This is to obtain an integer number for atom-id
variable      randatomi equal 251                   
variable      randzi equal z[${randatomi}]                # Determine the z coordinate of the chosen atom
variable      randzi equal z[251]                
# if the chosen atom is not a surface atom then restart the loop
if            "${randzi} < $(v_wthick - 0.7)" then "jump MDPBB.in loop"
jump MDPBB.in loop
variable      randni equal round(random(1,${ntwall},$s))  # Pick a random "top" wall atom
variable      randni equal round(random(1,2888,$s))  
variable      randni equal round(random(1,2888,234897))  
variable      randatomi equal ${randni}                   # This is to obtain an integer number for atom-id
variable      randatomi equal 1920                   
variable      randzi equal z[${randatomi}]                # Determine the z coordinate of the chosen atom
variable      randzi equal z[1920]                
# if the chosen atom is not a surface atom then restart the loop
if            "${randzi} < $(v_wthick - 0.7)" then "jump MDPBB.in loop"
set           atom ${randatomi} type 4                    # Set this grafted wall atom as a new type
set           atom 1920 type 4                    
  1 settings made for type
group         twg id ${randatomi}                         # Add this atom to a top-wall-grafted group
group         twg id 1920                         
54 atoms in group twg
variable      twgcount equal count(twg)
print         "twg contains ${twgcount}"
twg contains 54
print         "i = $(v_i)"                                # The index i should always be equal to the number of atom in twg
i = 54
variable      x0 equal x[${randatomi}]                    # Determine its x-coord
variable      x0 equal x[1920]                    
variable      y0 equal y[${randatomi}]                    # Determine its y-coord
variable      y0 equal y[1920]                    
variable      check0 equal ${check}                       # Count the number of atoms in the simulation
variable      check0 equal 4478                       
variable      b equal ${check}+1                          # The grafted bead id will be one higher after being inserted
variable      b equal 4478+1                          
if            "${twgcount} != $(v_i)" then "jump MDPBB.in loop"
# Otherwise insert the chain directly above the chosen wall atom pointing perpendicular to the wall
create_atoms  1 single ${x0} ${y0} ${z0} mol bs 24987 units box remap yes rotate 0 0 0 1
create_atoms  1 single 6.3496042078728 ${y0} ${z0} mol bs 24987 units box remap yes rotate 0 0 0 1
create_atoms  1 single 6.3496042078728 10.3181068377933 ${z0} mol bs 24987 units box remap yes rotate 0 0 0 1
create_atoms  1 single 6.3496042078728 10.3181068377933 17 mol bs 24987 units box remap yes rotate 0 0 0 1
Created 30 atoms
  create_atoms CPU = 0.0001023 secs
variable      check1 equal ${check}               # Count the new total number of atoms
variable      check1 equal 4508               
# Check that the molecule has indeed been inserted (This check is no longer an issue).
if            "${check1} != ${check0}" then "create_bonds  single/bond 2 ${randatomi} $b" "next i"
create_bonds  single/bond 2 ${randatomi} $b
create_bonds  single/bond 2 1920 $b
create_bonds  single/bond 2 1920 4479
  2 = max # of 1-2 neighbors
  5 = max # of special neighbors
  special bonds CPU = 0.0028 secs
next i
jump MDPBB.in loop    # End of the loop
variable      randni equal round(random(1,${ntwall},$s))  # Pick a random "top" wall atom
variable      randni equal round(random(1,2888,$s))  
variable      randni equal round(random(1,2888,234897))  
variable      randatomi equal ${randni}                   # This is to obtain an integer number for atom-id
variable      randatomi equal 206                   
variable      randzi equal z[${randatomi}]                # Determine the z coordinate of the chosen atom
variable      randzi equal z[206]                
# if the chosen atom is not a surface atom then restart the loop
if            "${randzi} < $(v_wthick - 0.7)" then "jump MDPBB.in loop"
jump MDPBB.in loop
variable      randni equal round(random(1,${ntwall},$s))  # Pick a random "top" wall atom
variable      randni equal round(random(1,2888,$s))  
variable      randni equal round(random(1,2888,234897))  
variable      randatomi equal ${randni}                   # This is to obtain an integer number for atom-id
variable      randatomi equal 1636                   
variable      randzi equal z[${randatomi}]                # Determine the z coordinate of the chosen atom
variable      randzi equal z[1636]                
# if the chosen atom is not a surface atom then restart the loop
if            "${randzi} < $(v_wthick - 0.7)" then "jump MDPBB.in loop"
set           atom ${randatomi} type 4                    # Set this grafted wall atom as a new type
set           atom 1636 type 4                    
  1 settings made for type
group         twg id ${randatomi}                         # Add this atom to a top-wall-grafted group
group         twg id 1636                         
55 atoms in group twg
variable      twgcount equal count(twg)
print         "twg contains ${twgcount}"
twg contains 55
print         "i = $(v_i)"                                # The index i should always be equal to the number of atom in twg
i = 55
variable      x0 equal x[${randatomi}]                    # Determine its x-coord
variable      x0 equal x[1636]                    
variable      y0 equal y[${randatomi}]                    # Determine its y-coord
variable      y0 equal y[1636]                    
variable      check0 equal ${check}                       # Count the number of atoms in the simulation
variable      check0 equal 4508                       
variable      b equal ${check}+1                          # The grafted bead id will be one higher after being inserted
variable      b equal 4508+1                          
if            "${twgcount} != $(v_i)" then "jump MDPBB.in loop"
# Otherwise insert the chain directly above the chosen wall atom pointing perpendicular to the wall
create_atoms  1 single ${x0} ${y0} ${z0} mol bs 24987 units box remap yes rotate 0 0 0 1
create_atoms  1 single 14.2866094677138 ${y0} ${z0} mol bs 24987 units box remap yes rotate 0 0 0 1
create_atoms  1 single 14.2866094677138 3.9685026299205 ${z0} mol bs 24987 units box remap yes rotate 0 0 0 1
create_atoms  1 single 14.2866094677138 3.9685026299205 17 mol bs 24987 units box remap yes rotate 0 0 0 1
Created 30 atoms
  create_atoms CPU = 0.0001178 secs
variable      check1 equal ${check}               # Count the new total number of atoms
variable      check1 equal 4538               
# Check that the molecule has indeed been inserted (This check is no longer an issue).
if            "${check1} != ${check0}" then "create_bonds  single/bond 2 ${randatomi} $b" "next i"
create_bonds  single/bond 2 ${randatomi} $b
create_bonds  single/bond 2 1636 $b
create_bonds  single/bond 2 1636 4509
  2 = max # of 1-2 neighbors
  5 = max # of special neighbors
  special bonds CPU = 0.0026165 secs
next i
jump MDPBB.in loop    # End of the loop
variable      randni equal round(random(1,${ntwall},$s))  # Pick a random "top" wall atom
variable      randni equal round(random(1,2888,$s))  
variable      randni equal round(random(1,2888,234897))  
variable      randatomi equal ${randni}                   # This is to obtain an integer number for atom-id
variable      randatomi equal 2178                   
variable      randzi equal z[${randatomi}]                # Determine the z coordinate of the chosen atom
variable      randzi equal z[2178]                
# if the chosen atom is not a surface atom then restart the loop
if            "${randzi} < $(v_wthick - 0.7)" then "jump MDPBB.in loop"
jump MDPBB.in loop
variable      randni equal round(random(1,${ntwall},$s))  # Pick a random "top" wall atom
variable      randni equal round(random(1,2888,$s))  
variable      randni equal round(random(1,2888,234897))  
variable      randatomi equal ${randni}                   # This is to obtain an integer number for atom-id
variable      randatomi equal 2703                   
variable      randzi equal z[${randatomi}]                # Determine the z coordinate of the chosen atom
variable      randzi equal z[2703]                
# if the chosen atom is not a surface atom then restart the loop
if            "${randzi} < $(v_wthick - 0.7)" then "jump MDPBB.in loop"
set           atom ${randatomi} type 4                    # Set this grafted wall atom as a new type
set           atom 2703 type 4                    
  1 settings made for type
group         twg id ${randatomi}                         # Add this atom to a top-wall-grafted group
group         twg id 2703                         
56 atoms in group twg
variable      twgcount equal count(twg)
print         "twg contains ${twgcount}"
twg contains 56
print         "i = $(v_i)"                                # The index i should always be equal to the number of atom in twg
i = 56
variable      x0 equal x[${randatomi}]                    # Determine its x-coord
variable      x0 equal x[2703]                    
variable      y0 equal y[${randatomi}]                    # Determine its y-coord
variable      y0 equal y[2703]                    
variable      check0 equal ${check}                       # Count the number of atoms in the simulation
variable      check0 equal 4538                       
variable      b equal ${check}+1                          # The grafted bead id will be one higher after being inserted
variable      b equal 4538+1                          
if            "${twgcount} != $(v_i)" then "jump MDPBB.in loop"
# Otherwise insert the chain directly above the chosen wall atom pointing perpendicular to the wall
create_atoms  1 single ${x0} ${y0} ${z0} mol bs 24987 units box remap yes rotate 0 0 0 1
create_atoms  1 single 16.6677110456661 ${y0} ${z0} mol bs 24987 units box remap yes rotate 0 0 0 1
create_atoms  1 single 16.6677110456661 25.3984168314912 ${z0} mol bs 24987 units box remap yes rotate 0 0 0 1
create_atoms  1 single 16.6677110456661 25.3984168314912 17 mol bs 24987 units box remap yes rotate 0 0 0 1
Created 30 atoms
  create_atoms CPU = 0.0001013 secs
variable      check1 equal ${check}               # Count the new total number of atoms
variable      check1 equal 4568               
# Check that the molecule has indeed been inserted (This check is no longer an issue).
if            "${check1} != ${check0}" then "create_bonds  single/bond 2 ${randatomi} $b" "next i"
create_bonds  single/bond 2 ${randatomi} $b
create_bonds  single/bond 2 2703 $b
create_bonds  single/bond 2 2703 4539
  2 = max # of 1-2 neighbors
  5 = max # of special neighbors
  special bonds CPU = 0.0026043 secs
next i
jump MDPBB.in loop    # End of the loop
variable      randni equal round(random(1,${ntwall},$s))  # Pick a random "top" wall atom
variable      randni equal round(random(1,2888,$s))  
variable      randni equal round(random(1,2888,234897))  
variable      randatomi equal ${randni}                   # This is to obtain an integer number for atom-id
variable      randatomi equal 2744                   
variable      randzi equal z[${randatomi}]                # Determine the z coordinate of the chosen atom
variable      randzi equal z[2744]                
# if the chosen atom is not a surface atom then restart the loop
if            "${randzi} < $(v_wthick - 0.7)" then "jump MDPBB.in loop"
set           atom ${randatomi} type 4                    # Set this grafted wall atom as a new type
set           atom 2744 type 4                    
  1 settings made for type
group         twg id ${randatomi}                         # Add this atom to a top-wall-grafted group
group         twg id 2744                         
57 atoms in group twg
variable      twgcount equal count(twg)
print         "twg contains ${twgcount}"
twg contains 57
print         "i = $(v_i)"                                # The index i should always be equal to the number of atom in twg
i = 57
variable      x0 equal x[${randatomi}]                    # Determine its x-coord
variable      x0 equal x[2744]                    
variable      y0 equal y[${randatomi}]                    # Determine its y-coord
variable      y0 equal y[2744]                    
variable      check0 equal ${check}                       # Count the number of atoms in the simulation
variable      check0 equal 4568                       
variable      b equal ${check}+1                          # The grafted bead id will be one higher after being inserted
variable      b equal 4568+1                          
if            "${twgcount} != $(v_i)" then "jump MDPBB.in loop"
# Otherwise insert the chain directly above the chosen wall atom pointing perpendicular to the wall
create_atoms  1 single ${x0} ${y0} ${z0} mol bs 24987 units box remap yes rotate 0 0 0 1
create_atoms  1 single 1.5874010519682 ${y0} ${z0} mol bs 24987 units box remap yes rotate 0 0 0 1
create_atoms  1 single 1.5874010519682 27.7795184094435 ${z0} mol bs 24987 units box remap yes rotate 0 0 0 1
create_atoms  1 single 1.5874010519682 27.7795184094435 17 mol bs 24987 units box remap yes rotate 0 0 0 1
Created 30 atoms
  create_atoms CPU = 0.0001079 secs
variable      check1 equal ${check}               # Count the new total number of atoms
variable      check1 equal 4598               
# Check that the molecule has indeed been inserted (This check is no longer an issue).
if            "${check1} != ${check0}" then "create_bonds  single/bond 2 ${randatomi} $b" "next i"
create_bonds  single/bond 2 ${randatomi} $b
create_bonds  single/bond 2 2744 $b
create_bonds  single/bond 2 2744 4569
  2 = max # of 1-2 neighbors
  5 = max # of special neighbors
  special bonds CPU = 0.0028745 secs
next i
jump MDPBB.in loop    # End of the loop
variable      randni equal round(random(1,${ntwall},$s))  # Pick a random "top" wall atom
variable      randni equal round(random(1,2888,$s))  
variable      randni equal round(random(1,2888,234897))  
variable      randatomi equal ${randni}                   # This is to obtain an integer number for atom-id
variable      randatomi equal 492                   
variable      randzi equal z[${randatomi}]                # Determine the z coordinate of the chosen atom
variable      randzi equal z[492]                
# if the chosen atom is not a surface atom then restart the loop
if            "${randzi} < $(v_wthick - 0.7)" then "jump MDPBB.in loop"
jump MDPBB.in loop
variable      randni equal round(random(1,${ntwall},$s))  # Pick a random "top" wall atom
variable      randni equal round(random(1,2888,$s))  
variable      randni equal round(random(1,2888,234897))  
variable      randatomi equal ${randni}                   # This is to obtain an integer number for atom-id
variable      randatomi equal 2352                   
variable      randzi equal z[${randatomi}]                # Determine the z coordinate of the chosen atom
variable      randzi equal z[2352]                
# if the chosen atom is not a surface atom then restart the loop
if            "${randzi} < $(v_wthick - 0.7)" then "jump MDPBB.in loop"
set           atom ${randatomi} type 4                    # Set this grafted wall atom as a new type
set           atom 2352 type 4                    
  1 settings made for type
group         twg id ${randatomi}                         # Add this atom to a top-wall-grafted group
group         twg id 2352                         
58 atoms in group twg
variable      twgcount equal count(twg)
print         "twg contains ${twgcount}"
twg contains 58
print         "i = $(v_i)"                                # The index i should always be equal to the number of atom in twg
i = 58
variable      x0 equal x[${randatomi}]                    # Determine its x-coord
variable      x0 equal x[2352]                    
variable      y0 equal y[${randatomi}]                    # Determine its y-coord
variable      y0 equal y[2352]                    
variable      check0 equal ${check}                       # Count the number of atoms in the simulation
variable      check0 equal 4598                       
variable      b equal ${check}+1                          # The grafted bead id will be one higher after being inserted
variable      b equal 4598+1                          
if            "${twgcount} != $(v_i)" then "jump MDPBB.in loop"
# Otherwise insert the chain directly above the chosen wall atom pointing perpendicular to the wall
create_atoms  1 single ${x0} ${y0} ${z0} mol bs 24987 units box remap yes rotate 0 0 0 1
create_atoms  1 single 26.9858178834594 ${y0} ${z0} mol bs 24987 units box remap yes rotate 0 0 0 1
create_atoms  1 single 26.9858178834594 18.2551120976343 ${z0} mol bs 24987 units box remap yes rotate 0 0 0 1
create_atoms  1 single 26.9858178834594 18.2551120976343 17 mol bs 24987 units box remap yes rotate 0 0 0 1
Created 30 atoms
  create_atoms CPU = 0.0001337 secs
variable      check1 equal ${check}               # Count the new total number of atoms
variable      check1 equal 4628               
# Check that the molecule has indeed been inserted (This check is no longer an issue).
if            "${check1} != ${check0}" then "create_bonds  single/bond 2 ${randatomi} $b" "next i"
create_bonds  single/bond 2 ${randatomi} $b
create_bonds  single/bond 2 2352 $b
create_bonds  single/bond 2 2352 4599
  2 = max # of 1-2 neighbors
  5 = max # of special neighbors
  special bonds CPU = 0.0053325 secs
next i
jump MDPBB.in loop    # End of the loop
variable      randni equal round(random(1,${ntwall},$s))  # Pick a random "top" wall atom
variable      randni equal round(random(1,2888,$s))  
variable      randni equal round(random(1,2888,234897))  
variable      randatomi equal ${randni}                   # This is to obtain an integer number for atom-id
variable      randatomi equal 487                   
variable      randzi equal z[${randatomi}]                # Determine the z coordinate of the chosen atom
variable      randzi equal z[487]                
# if the chosen atom is not a surface atom then restart the loop
if            "${randzi} < $(v_wthick - 0.7)" then "jump MDPBB.in loop"
jump MDPBB.in loop
variable      randni equal round(random(1,${ntwall},$s))  # Pick a random "top" wall atom
variable      randni equal round(random(1,2888,$s))  
variable      randni equal round(random(1,2888,234897))  
variable      randatomi equal ${randni}                   # This is to obtain an integer number for atom-id
variable      randatomi equal 119                   
variable      randzi equal z[${randatomi}]                # Determine the z coordinate of the chosen atom
variable      randzi equal z[119]                
# if the chosen atom is not a surface atom then restart the loop
if            "${randzi} < $(v_wthick - 0.7)" then "jump MDPBB.in loop"
jump MDPBB.in loop
variable      randni equal round(random(1,${ntwall},$s))  # Pick a random "top" wall atom
variable      randni equal round(random(1,2888,$s))  
variable      randni equal round(random(1,2888,234897))  
variable      randatomi equal ${randni}                   # This is to obtain an integer number for atom-id
variable      randatomi equal 1896                   
variable      randzi equal z[${randatomi}]                # Determine the z coordinate of the chosen atom
variable      randzi equal z[1896]                
# if the chosen atom is not a surface atom then restart the loop
if            "${randzi} < $(v_wthick - 0.7)" then "jump MDPBB.in loop"
set           atom ${randatomi} type 4                    # Set this grafted wall atom as a new type
set           atom 1896 type 4                    
  1 settings made for type
group         twg id ${randatomi}                         # Add this atom to a top-wall-grafted group
group         twg id 1896                         
59 atoms in group twg
variable      twgcount equal count(twg)
print         "twg contains ${twgcount}"
twg contains 59
print         "i = $(v_i)"                                # The index i should always be equal to the number of atom in twg
i = 59
variable      x0 equal x[${randatomi}]                    # Determine its x-coord
variable      x0 equal x[1896]                    
variable      y0 equal y[${randatomi}]                    # Determine its y-coord
variable      y0 equal y[1896]                    
variable      check0 equal ${check}                       # Count the number of atoms in the simulation
variable      check0 equal 4628                       
variable      b equal ${check}+1                          # The grafted bead id will be one higher after being inserted
variable      b equal 4628+1                          
if            "${twgcount} != $(v_i)" then "jump MDPBB.in loop"
# Otherwise insert the chain directly above the chosen wall atom pointing perpendicular to the wall
create_atoms  1 single ${x0} ${y0} ${z0} mol bs 24987 units box remap yes rotate 0 0 0 1
create_atoms  1 single 26.9858178834594 ${y0} ${z0} mol bs 24987 units box remap yes rotate 0 0 0 1
create_atoms  1 single 26.9858178834594 8.7307057858251 ${z0} mol bs 24987 units box remap yes rotate 0 0 0 1
create_atoms  1 single 26.9858178834594 8.7307057858251 17 mol bs 24987 units box remap yes rotate 0 0 0 1
Created 30 atoms
  create_atoms CPU = 8.8e-05 secs
variable      check1 equal ${check}               # Count the new total number of atoms
variable      check1 equal 4658               
# Check that the molecule has indeed been inserted (This check is no longer an issue).
if            "${check1} != ${check0}" then "create_bonds  single/bond 2 ${randatomi} $b" "next i"
create_bonds  single/bond 2 ${randatomi} $b
create_bonds  single/bond 2 1896 $b
create_bonds  single/bond 2 1896 4629
  2 = max # of 1-2 neighbors
  5 = max # of special neighbors
  special bonds CPU = 0.003277 secs
next i
jump MDPBB.in loop    # End of the loop
variable      randni equal round(random(1,${ntwall},$s))  # Pick a random "top" wall atom
variable      randni equal round(random(1,2888,$s))  
variable      randni equal round(random(1,2888,234897))  
variable      randatomi equal ${randni}                   # This is to obtain an integer number for atom-id
variable      randatomi equal 1418                   
variable      randzi equal z[${randatomi}]                # Determine the z coordinate of the chosen atom
variable      randzi equal z[1418]                
# if the chosen atom is not a surface atom then restart the loop
if            "${randzi} < $(v_wthick - 0.7)" then "jump MDPBB.in loop"
jump MDPBB.in loop
variable      randni equal round(random(1,${ntwall},$s))  # Pick a random "top" wall atom
variable      randni equal round(random(1,2888,$s))  
variable      randni equal round(random(1,2888,234897))  
variable      randatomi equal ${randni}                   # This is to obtain an integer number for atom-id
variable      randatomi equal 1388                   
variable      randzi equal z[${randatomi}]                # Determine the z coordinate of the chosen atom
variable      randzi equal z[1388]                
# if the chosen atom is not a surface atom then restart the loop
if            "${randzi} < $(v_wthick - 0.7)" then "jump MDPBB.in loop"
jump MDPBB.in loop
variable      randni equal round(random(1,${ntwall},$s))  # Pick a random "top" wall atom
variable      randni equal round(random(1,2888,$s))  
variable      randni equal round(random(1,2888,234897))  
variable      randatomi equal ${randni}                   # This is to obtain an integer number for atom-id
variable      randatomi equal 1821                   
variable      randzi equal z[${randatomi}]                # Determine the z coordinate of the chosen atom
variable      randzi equal z[1821]                
# if the chosen atom is not a surface atom then restart the loop
if            "${randzi} < $(v_wthick - 0.7)" then "jump MDPBB.in loop"
jump MDPBB.in loop
variable      randni equal round(random(1,${ntwall},$s))  # Pick a random "top" wall atom
variable      randni equal round(random(1,2888,$s))  
variable      randni equal round(random(1,2888,234897))  
variable      randatomi equal ${randni}                   # This is to obtain an integer number for atom-id
variable      randatomi equal 2675                   
variable      randzi equal z[${randatomi}]                # Determine the z coordinate of the chosen atom
variable      randzi equal z[2675]                
# if the chosen atom is not a surface atom then restart the loop
if            "${randzi} < $(v_wthick - 0.7)" then "jump MDPBB.in loop"
set           atom ${randatomi} type 4                    # Set this grafted wall atom as a new type
set           atom 2675 type 4                    
  1 settings made for type
group         twg id ${randatomi}                         # Add this atom to a top-wall-grafted group
group         twg id 2675                         
60 atoms in group twg
variable      twgcount equal count(twg)
print         "twg contains ${twgcount}"
twg contains 60
print         "i = $(v_i)"                                # The index i should always be equal to the number of atom in twg
i = 60
variable      x0 equal x[${randatomi}]                    # Determine its x-coord
variable      x0 equal x[2675]                    
variable      y0 equal y[${randatomi}]                    # Determine its y-coord
variable      y0 equal y[2675]                    
variable      check0 equal ${check}                       # Count the number of atoms in the simulation
variable      check0 equal 4658                       
variable      b equal ${check}+1                          # The grafted bead id will be one higher after being inserted
variable      b equal 4658+1                          
if            "${twgcount} != $(v_i)" then "jump MDPBB.in loop"
# Otherwise insert the chain directly above the chosen wall atom pointing perpendicular to the wall
create_atoms  1 single ${x0} ${y0} ${z0} mol bs 24987 units box remap yes rotate 0 0 0 1
create_atoms  1 single 5.5559036818887 ${y0} ${z0} mol bs 24987 units box remap yes rotate 0 0 0 1
create_atoms  1 single 5.5559036818887 25.3984168314912 ${z0} mol bs 24987 units box remap yes rotate 0 0 0 1
create_atoms  1 single 5.5559036818887 25.3984168314912 17 mol bs 24987 units box remap yes rotate 0 0 0 1
Created 30 atoms
  create_atoms CPU = 0.0001066 secs
variable      check1 equal ${check}               # Count the new total number of atoms
variable      check1 equal 4688               
# Check that the molecule has indeed been inserted (This check is no longer an issue).
if            "${check1} != ${check0}" then "create_bonds  single/bond 2 ${randatomi} $b" "next i"
create_bonds  single/bond 2 ${randatomi} $b
create_bonds  single/bond 2 2675 $b
create_bonds  single/bond 2 2675 4659
  2 = max # of 1-2 neighbors
  5 = max # of special neighbors
  special bonds CPU = 0.003872 secs
next i
jump MDPBB.in loop    # End of the loop

# Rotate the created brush about the centre of the simulation box by 180 degrees to make it true top brush
displace_atoms all rotate $(v_xhi/2.0) $(v_yhi/2.0) $(v_zhi/2.0 - 1) 1 0 0 180 units box
displace_atoms all rotate 15 $(v_yhi/2.0) $(v_zhi/2.0 - 1) 1 0 0 180 units box
displace_atoms all rotate 15 15 $(v_zhi/2.0 - 1) 1 0 0 180 units box
displace_atoms all rotate 15 15 35 1 0 0 180 units box

variable      ntop0 equal ${check}          # Count the total number of atoms in the top brush
variable      ntop0 equal 4688          

#--- Create the Bottom brush ---#

# Repeating the same procedure as above again but with new atoms

create_atoms  1 region wall
Created 2888 atoms
  create_atoms CPU = 0.0005732 secs
group         bwall region wall
2888 atoms in group bwall
variable      nbwall0 equal ${nbwall}
variable      nbwall0 equal 2888

variable      j loop $M
variable      j loop 60
label         loopj
variable      randnj equal round(random(v_ntop0,$(v_ntop0 + v_nbwall0),$s))
variable      randnj equal round(random(v_ntop0,7576,$s))
variable      randnj equal round(random(v_ntop0,7576,234897))
variable      randatomj equal ${randnj}
variable      randatomj equal 7002
variable      randzj equal z[${randatomj}]
variable      randzj equal z[7002]
if            "${randzj} < $(v_wthick - 0.7)" then "jump MDPBB.in loopj"
jump MDPBB.in loopj
variable      randnj equal round(random(v_ntop0,$(v_ntop0 + v_nbwall0),$s))
variable      randnj equal round(random(v_ntop0,7576,$s))
variable      randnj equal round(random(v_ntop0,7576,234897))
variable      randatomj equal ${randnj}
variable      randatomj equal 5727
variable      randzj equal z[${randatomj}]
variable      randzj equal z[5727]
if            "${randzj} < $(v_wthick - 0.7)" then "jump MDPBB.in loopj"
jump MDPBB.in loopj
variable      randnj equal round(random(v_ntop0,$(v_ntop0 + v_nbwall0),$s))
variable      randnj equal round(random(v_ntop0,7576,$s))
variable      randnj equal round(random(v_ntop0,7576,234897))
variable      randatomj equal ${randnj}
variable      randatomj equal 4819
variable      randzj equal z[${randatomj}]
variable      randzj equal z[4819]
if            "${randzj} < $(v_wthick - 0.7)" then "jump MDPBB.in loopj"
jump MDPBB.in loopj
variable      randnj equal round(random(v_ntop0,$(v_ntop0 + v_nbwall0),$s))
variable      randnj equal round(random(v_ntop0,7576,$s))
variable      randnj equal round(random(v_ntop0,7576,234897))
variable      randatomj equal ${randnj}
variable      randatomj equal 5861
variable      randzj equal z[${randatomj}]
variable      randzj equal z[5861]
if            "${randzj} < $(v_wthick - 0.7)" then "jump MDPBB.in loopj"
jump MDPBB.in loopj
variable      randnj equal round(random(v_ntop0,$(v_ntop0 + v_nbwall0),$s))
variable      randnj equal round(random(v_ntop0,7576,$s))
variable      randnj equal round(random(v_ntop0,7576,234897))
variable      randatomj equal ${randnj}
variable      randatomj equal 5690
variable      randzj equal z[${randatomj}]
variable      randzj equal z[5690]
if            "${randzj} < $(v_wthick - 0.7)" then "jump MDPBB.in loopj"
jump MDPBB.in loopj
variable      randnj equal round(random(v_ntop0,$(v_ntop0 + v_nbwall0),$s))
variable      randnj equal round(random(v_ntop0,7576,$s))
variable      randnj equal round(random(v_ntop0,7576,234897))
variable      randatomj equal ${randnj}
variable      randatomj equal 7380
variable      randzj equal z[${randatomj}]
variable      randzj equal z[7380]
if            "${randzj} < $(v_wthick - 0.7)" then "jump MDPBB.in loopj"
set           atom ${randatomj} type 4
set           atom 7380 type 4
  1 settings made for type
group         bwg id ${randatomj}                         # Add this atom to a bot-wall-grafted group
group         bwg id 7380                         
1 atoms in group bwg
variable      bwgcount equal count(bwg)
print         "bwg contains ${bwgcount}"
bwg contains 1
print         "j = $(v_j)"
j = 1
variable      x0 equal x[${randatomj}]
variable      x0 equal x[7380]
variable      y0 equal y[${randatomj}]
variable      y0 equal y[7380]
variable      check0 equal ${check}
variable      check0 equal 7576
variable      b equal ${check}+1
variable      b equal 7576+1
if            "${bwgcount} != $(v_j)" then "jump MDPBB.in loopj"
create_atoms  1 single ${x0} ${y0} ${z0} mol bs 24987 units box remap yes rotate 0 0 0 1
create_atoms  1 single 11.1118073637774 ${y0} ${z0} mol bs 24987 units box remap yes rotate 0 0 0 1
create_atoms  1 single 11.1118073637774 26.1921173574753 ${z0} mol bs 24987 units box remap yes rotate 0 0 0 1
create_atoms  1 single 11.1118073637774 26.1921173574753 17 mol bs 24987 units box remap yes rotate 0 0 0 1
Created 30 atoms
  create_atoms CPU = 0.0002211 secs
variable      check1 equal ${check}
variable      check1 equal 7606
if            "${check1} != ${check0}" then "create_bonds  single/bond 2 ${randatomj} $b" "next j"
create_bonds  single/bond 2 ${randatomj} $b
create_bonds  single/bond 2 7380 $b
create_bonds  single/bond 2 7380 7577
  2 = max # of 1-2 neighbors
  5 = max # of special neighbors
  special bonds CPU = 0.0023607 secs
next j
jump MDPBB.in loopj
variable      randnj equal round(random(v_ntop0,$(v_ntop0 + v_nbwall0),$s))
variable      randnj equal round(random(v_ntop0,7576,$s))
variable      randnj equal round(random(v_ntop0,7576,234897))
variable      randatomj equal ${randnj}
variable      randatomj equal 5120
variable      randzj equal z[${randatomj}]
variable      randzj equal z[5120]
if            "${randzj} < $(v_wthick - 0.7)" then "jump MDPBB.in loopj"
jump MDPBB.in loopj
variable      randnj equal round(random(v_ntop0,$(v_ntop0 + v_nbwall0),$s))
variable      randnj equal round(random(v_ntop0,7576,$s))
variable      randnj equal round(random(v_ntop0,7576,234897))
variable      randatomj equal ${randnj}
variable      randatomj equal 6410
variable      randzj equal z[${randatomj}]
variable      randzj equal z[6410]
if            "${randzj} < $(v_wthick - 0.7)" then "jump MDPBB.in loopj"
jump MDPBB.in loopj
variable      randnj equal round(random(v_ntop0,$(v_ntop0 + v_nbwall0),$s))
variable      randnj equal round(random(v_ntop0,7576,$s))
variable      randnj equal round(random(v_ntop0,7576,234897))
variable      randatomj equal ${randnj}
variable      randatomj equal 7324
variable      randzj equal z[${randatomj}]
variable      randzj equal z[7324]
if            "${randzj} < $(v_wthick - 0.7)" then "jump MDPBB.in loopj"
set           atom ${randatomj} type 4
set           atom 7324 type 4
  1 settings made for type
group         bwg id ${randatomj}                         # Add this atom to a bot-wall-grafted group
group         bwg id 7324                         
2 atoms in group bwg
variable      bwgcount equal count(bwg)
print         "bwg contains ${bwgcount}"
bwg contains 2
print         "j = $(v_j)"
j = 2
variable      x0 equal x[${randatomj}]
variable      x0 equal x[7324]
variable      y0 equal y[${randatomj}]
variable      y0 equal y[7324]
variable      check0 equal ${check}
variable      check0 equal 7606
variable      b equal ${check}+1
variable      b equal 7606+1
if            "${bwgcount} != $(v_j)" then "jump MDPBB.in loopj"
create_atoms  1 single ${x0} ${y0} ${z0} mol bs 24987 units box remap yes rotate 0 0 0 1
create_atoms  1 single 19.0488126236184 ${y0} ${z0} mol bs 24987 units box remap yes rotate 0 0 0 1
create_atoms  1 single 19.0488126236184 24.6047163055071 ${z0} mol bs 24987 units box remap yes rotate 0 0 0 1
create_atoms  1 single 19.0488126236184 24.6047163055071 17 mol bs 24987 units box remap yes rotate 0 0 0 1
Created 30 atoms
  create_atoms CPU = 0.0001601 secs
variable      check1 equal ${check}
variable      check1 equal 7636
if            "${check1} != ${check0}" then "create_bonds  single/bond 2 ${randatomj} $b" "next j"
create_bonds  single/bond 2 ${randatomj} $b
create_bonds  single/bond 2 7324 $b
create_bonds  single/bond 2 7324 7607
  2 = max # of 1-2 neighbors
  5 = max # of special neighbors
  special bonds CPU = 0.0024761 secs
next j
jump MDPBB.in loopj
variable      randnj equal round(random(v_ntop0,$(v_ntop0 + v_nbwall0),$s))
variable      randnj equal round(random(v_ntop0,7576,$s))
variable      randnj equal round(random(v_ntop0,7576,234897))
variable      randatomj equal ${randnj}
variable      randatomj equal 6217
variable      randzj equal z[${randatomj}]
variable      randzj equal z[6217]
if            "${randzj} < $(v_wthick - 0.7)" then "jump MDPBB.in loopj"
jump MDPBB.in loopj
variable      randnj equal round(random(v_ntop0,$(v_ntop0 + v_nbwall0),$s))
variable      randnj equal round(random(v_ntop0,7576,$s))
variable      randnj equal round(random(v_ntop0,7576,234897))
variable      randatomj equal ${randnj}
variable      randatomj equal 5579
variable      randzj equal z[${randatomj}]
variable      randzj equal z[5579]
if            "${randzj} < $(v_wthick - 0.7)" then "jump MDPBB.in loopj"
jump MDPBB.in loopj
variable      randnj equal round(random(v_ntop0,$(v_ntop0 + v_nbwall0),$s))
variable      randnj equal round(random(v_ntop0,7576,$s))
variable      randnj equal round(random(v_ntop0,7576,234897))
variable      randatomj equal ${randnj}
variable      randatomj equal 4915
variable      randzj equal z[${randatomj}]
variable      randzj equal z[4915]
if            "${randzj} < $(v_wthick - 0.7)" then "jump MDPBB.in loopj"
jump MDPBB.in loopj
variable      randnj equal round(random(v_ntop0,$(v_ntop0 + v_nbwall0),$s))
variable      randnj equal round(random(v_ntop0,7576,$s))
variable      randnj equal round(random(v_ntop0,7576,234897))
variable      randatomj equal ${randnj}
variable      randatomj equal 5328
variable      randzj equal z[${randatomj}]
variable      randzj equal z[5328]
if            "${randzj} < $(v_wthick - 0.7)" then "jump MDPBB.in loopj"
jump MDPBB.in loopj
variable      randnj equal round(random(v_ntop0,$(v_ntop0 + v_nbwall0),$s))
variable      randnj equal round(random(v_ntop0,7576,$s))
variable      randnj equal round(random(v_ntop0,7576,234897))
variable      randatomj equal ${randnj}
variable      randatomj equal 5779
variable      randzj equal z[${randatomj}]
variable      randzj equal z[5779]
if            "${randzj} < $(v_wthick - 0.7)" then "jump MDPBB.in loopj"
jump MDPBB.in loopj
variable      randnj equal round(random(v_ntop0,$(v_ntop0 + v_nbwall0),$s))
variable      randnj equal round(random(v_ntop0,7576,$s))
variable      randnj equal round(random(v_ntop0,7576,234897))
variable      randatomj equal ${randnj}
variable      randatomj equal 4818
variable      randzj equal z[${randatomj}]
variable      randzj equal z[4818]
if            "${randzj} < $(v_wthick - 0.7)" then "jump MDPBB.in loopj"
jump MDPBB.in loopj
variable      randnj equal round(random(v_ntop0,$(v_ntop0 + v_nbwall0),$s))
variable      randnj equal round(random(v_ntop0,7576,$s))
variable      randnj equal round(random(v_ntop0,7576,234897))
variable      randatomj equal ${randnj}
variable      randatomj equal 6472
variable      randzj equal z[${randatomj}]
variable      randzj equal z[6472]
if            "${randzj} < $(v_wthick - 0.7)" then "jump MDPBB.in loopj"
set           atom ${randatomj} type 4
set           atom 6472 type 4
  1 settings made for type
group         bwg id ${randatomj}                         # Add this atom to a bot-wall-grafted group
group         bwg id 6472                         
3 atoms in group bwg
variable      bwgcount equal count(bwg)
print         "bwg contains ${bwgcount}"
bwg contains 3
print         "j = $(v_j)"
j = 3
variable      x0 equal x[${randatomj}]
variable      x0 equal x[6472]
variable      y0 equal y[${randatomj}]
variable      y0 equal y[6472]
variable      check0 equal ${check}
variable      check0 equal 7636
variable      b equal ${check}+1
variable      b equal 7636+1
if            "${bwgcount} != $(v_j)" then "jump MDPBB.in loopj"
create_atoms  1 single ${x0} ${y0} ${z0} mol bs 24987 units box remap yes rotate 0 0 0 1
create_atoms  1 single 12.6992084157456 ${y0} ${z0} mol bs 24987 units box remap yes rotate 0 0 0 1
create_atoms  1 single 12.6992084157456 7.1433047338569 ${z0} mol bs 24987 units box remap yes rotate 0 0 0 1
create_atoms  1 single 12.6992084157456 7.1433047338569 17 mol bs 24987 units box remap yes rotate 0 0 0 1
Created 30 atoms
  create_atoms CPU = 0.0001458 secs
variable      check1 equal ${check}
variable      check1 equal 7666
if            "${check1} != ${check0}" then "create_bonds  single/bond 2 ${randatomj} $b" "next j"
create_bonds  single/bond 2 ${randatomj} $b
create_bonds  single/bond 2 6472 $b
create_bonds  single/bond 2 6472 7637
  2 = max # of 1-2 neighbors
  5 = max # of special neighbors
  special bonds CPU = 0.0031887 secs
next j
jump MDPBB.in loopj
variable      randnj equal round(random(v_ntop0,$(v_ntop0 + v_nbwall0),$s))
variable      randnj equal round(random(v_ntop0,7576,$s))
variable      randnj equal round(random(v_ntop0,7576,234897))
variable      randatomj equal ${randnj}
variable      randatomj equal 6572
variable      randzj equal z[${randatomj}]
variable      randzj equal z[6572]
if            "${randzj} < $(v_wthick - 0.7)" then "jump MDPBB.in loopj"
set           atom ${randatomj} type 4
set           atom 6572 type 4
  1 settings made for type
group         bwg id ${randatomj}                         # Add this atom to a bot-wall-grafted group
group         bwg id 6572                         
4 atoms in group bwg
variable      bwgcount equal count(bwg)
print         "bwg contains ${bwgcount}"
bwg contains 4
print         "j = $(v_j)"
j = 4
variable      x0 equal x[${randatomj}]
variable      x0 equal x[6572]
variable      y0 equal y[${randatomj}]
variable      y0 equal y[6572]
variable      check0 equal ${check}
variable      check0 equal 7666
variable      b equal ${check}+1
variable      b equal 7666+1
if            "${bwgcount} != $(v_j)" then "jump MDPBB.in loopj"
create_atoms  1 single ${x0} ${y0} ${z0} mol bs 24987 units box remap yes rotate 0 0 0 1
create_atoms  1 single 22.2236147275548 ${y0} ${z0} mol bs 24987 units box remap yes rotate 0 0 0 1
create_atoms  1 single 22.2236147275548 8.7307057858251 ${z0} mol bs 24987 units box remap yes rotate 0 0 0 1
create_atoms  1 single 22.2236147275548 8.7307057858251 17 mol bs 24987 units box remap yes rotate 0 0 0 1
Created 30 atoms
  create_atoms CPU = 0.0001897 secs
variable      check1 equal ${check}
variable      check1 equal 7696
if            "${check1} != ${check0}" then "create_bonds  single/bond 2 ${randatomj} $b" "next j"
create_bonds  single/bond 2 ${randatomj} $b
create_bonds  single/bond 2 6572 $b
create_bonds  single/bond 2 6572 7667
  2 = max # of 1-2 neighbors
  5 = max # of special neighbors
  special bonds CPU = 0.0060308 secs
next j
jump MDPBB.in loopj
variable      randnj equal round(random(v_ntop0,$(v_ntop0 + v_nbwall0),$s))
variable      randnj equal round(random(v_ntop0,7576,$s))
variable      randnj equal round(random(v_ntop0,7576,234897))
variable      randatomj equal ${randnj}
variable      randatomj equal 5475
variable      randzj equal z[${randatomj}]
variable      randzj equal z[5475]
if            "${randzj} < $(v_wthick - 0.7)" then "jump MDPBB.in loopj"
jump MDPBB.in loopj
variable      randnj equal round(random(v_ntop0,$(v_ntop0 + v_nbwall0),$s))
variable      randnj equal round(random(v_ntop0,7576,$s))
variable      randnj equal round(random(v_ntop0,7576,234897))
variable      randatomj equal ${randnj}
variable      randatomj equal 6400
variable      randzj equal z[${randatomj}]
variable      randzj equal z[6400]
if            "${randzj} < $(v_wthick - 0.7)" then "jump MDPBB.in loopj"
set           atom ${randatomj} type 4
set           atom 6400 type 4
  1 settings made for type
group         bwg id ${randatomj}                         # Add this atom to a bot-wall-grafted group
group         bwg id 6400                         
5 atoms in group bwg
variable      bwgcount equal count(bwg)
print         "bwg contains ${bwgcount}"
bwg contains 5
print         "j = $(v_j)"
j = 5
variable      x0 equal x[${randatomj}]
variable      x0 equal x[6400]
variable      y0 equal y[${randatomj}]
variable      y0 equal y[6400]
variable      check0 equal ${check}
variable      check0 equal 7696
variable      b equal ${check}+1
variable      b equal 7696+1
if            "${bwgcount} != $(v_j)" then "jump MDPBB.in loopj"
create_atoms  1 single ${x0} ${y0} ${z0} mol bs 24987 units box remap yes rotate 0 0 0 1
create_atoms  1 single 14.2866094677138 ${y0} ${z0} mol bs 24987 units box remap yes rotate 0 0 0 1
create_atoms  1 single 14.2866094677138 5.5559036818887 ${z0} mol bs 24987 units box remap yes rotate 0 0 0 1
create_atoms  1 single 14.2866094677138 5.5559036818887 17 mol bs 24987 units box remap yes rotate 0 0 0 1
Created 30 atoms
  create_atoms CPU = 0.000157 secs
variable      check1 equal ${check}
variable      check1 equal 7726
if            "${check1} != ${check0}" then "create_bonds  single/bond 2 ${randatomj} $b" "next j"
create_bonds  single/bond 2 ${randatomj} $b
create_bonds  single/bond 2 6400 $b
create_bonds  single/bond 2 6400 7697
  2 = max # of 1-2 neighbors
  5 = max # of special neighbors
  special bonds CPU = 0.0026811 secs
next j
jump MDPBB.in loopj
variable      randnj equal round(random(v_ntop0,$(v_ntop0 + v_nbwall0),$s))
variable      randnj equal round(random(v_ntop0,7576,$s))
variable      randnj equal round(random(v_ntop0,7576,234897))
variable      randatomj equal ${randnj}
variable      randatomj equal 5790
variable      randzj equal z[${randatomj}]
variable      randzj equal z[5790]
if            "${randzj} < $(v_wthick - 0.7)" then "jump MDPBB.in loopj"
jump MDPBB.in loopj
variable      randnj equal round(random(v_ntop0,$(v_ntop0 + v_nbwall0),$s))
variable      randnj equal round(random(v_ntop0,7576,$s))
variable      randnj equal round(random(v_ntop0,7576,234897))
variable      randatomj equal ${randnj}
variable      randatomj equal 5886
variable      randzj equal z[${randatomj}]
variable      randzj equal z[5886]
if            "${randzj} < $(v_wthick - 0.7)" then "jump MDPBB.in loopj"
jump MDPBB.in loopj
variable      randnj equal round(random(v_ntop0,$(v_ntop0 + v_nbwall0),$s))
variable      randnj equal round(random(v_ntop0,7576,$s))
variable      randnj equal round(random(v_ntop0,7576,234897))
variable      randatomj equal ${randnj}
variable      randatomj equal 6230
variable      randzj equal z[${randatomj}]
variable      randzj equal z[6230]
if            "${randzj} < $(v_wthick - 0.7)" then "jump MDPBB.in loopj"
jump MDPBB.in loopj
variable      randnj equal round(random(v_ntop0,$(v_ntop0 + v_nbwall0),$s))
variable      randnj equal round(random(v_ntop0,7576,$s))
variable      randnj equal round(random(v_ntop0,7576,234897))
variable      randatomj equal ${randnj}
variable      randatomj equal 6559
variable      randzj equal z[${randatomj}]
variable      randzj equal z[6559]
if            "${randzj} < $(v_wthick - 0.7)" then "jump MDPBB.in loopj"
set           atom ${randatomj} type 4
set           atom 6559 type 4
  1 settings made for type
group         bwg id ${randatomj}                         # Add this atom to a bot-wall-grafted group
group         bwg id 6559                         
6 atoms in group bwg
variable      bwgcount equal count(bwg)
print         "bwg contains ${bwgcount}"
bwg contains 6
print         "j = $(v_j)"
j = 6
variable      x0 equal x[${randatomj}]
variable      x0 equal x[6559]
variable      y0 equal y[${randatomj}]
variable      y0 equal y[6559]
variable      check0 equal ${check}
variable      check0 equal 7726
variable      b equal ${check}+1
variable      b equal 7726+1
if            "${bwgcount} != $(v_j)" then "jump MDPBB.in loopj"
create_atoms  1 single ${x0} ${y0} ${z0} mol bs 24987 units box remap yes rotate 0 0 0 1
create_atoms  1 single 18.2551120976343 ${y0} ${z0} mol bs 24987 units box remap yes rotate 0 0 0 1
create_atoms  1 single 18.2551120976343 7.937005259841 ${z0} mol bs 24987 units box remap yes rotate 0 0 0 1
create_atoms  1 single 18.2551120976343 7.937005259841 17 mol bs 24987 units box remap yes rotate 0 0 0 1
Created 30 atoms
  create_atoms CPU = 0.0001612 secs
variable      check1 equal ${check}
variable      check1 equal 7756
if            "${check1} != ${check0}" then "create_bonds  single/bond 2 ${randatomj} $b" "next j"
create_bonds  single/bond 2 ${randatomj} $b
create_bonds  single/bond 2 6559 $b
create_bonds  single/bond 2 6559 7727
  2 = max # of 1-2 neighbors
  5 = max # of special neighbors
  special bonds CPU = 0.0024225 secs
next j
jump MDPBB.in loopj
variable      randnj equal round(random(v_ntop0,$(v_ntop0 + v_nbwall0),$s))
variable      randnj equal round(random(v_ntop0,7576,$s))
variable      randnj equal round(random(v_ntop0,7576,234897))
variable      randatomj equal ${randnj}
variable      randatomj equal 7209
variable      randzj equal z[${randatomj}]
variable      randzj equal z[7209]
if            "${randzj} < $(v_wthick - 0.7)" then "jump MDPBB.in loopj"
jump MDPBB.in loopj
variable      randnj equal round(random(v_ntop0,$(v_ntop0 + v_nbwall0),$s))
variable      randnj equal round(random(v_ntop0,7576,$s))
variable      randnj equal round(random(v_ntop0,7576,234897))
variable      randatomj equal ${randnj}
variable      randatomj equal 6052
variable      randzj equal z[${randatomj}]
variable      randzj equal z[6052]
if            "${randzj} < $(v_wthick - 0.7)" then "jump MDPBB.in loopj"
jump MDPBB.in loopj
variable      randnj equal round(random(v_ntop0,$(v_ntop0 + v_nbwall0),$s))
variable      randnj equal round(random(v_ntop0,7576,$s))
variable      randnj equal round(random(v_ntop0,7576,234897))
variable      randatomj equal ${randnj}
variable      randatomj equal 5316
variable      randzj equal z[${randatomj}]
variable      randzj equal z[5316]
if            "${randzj} < $(v_wthick - 0.7)" then "jump MDPBB.in loopj"
jump MDPBB.in loopj
variable      randnj equal round(random(v_ntop0,$(v_ntop0 + v_nbwall0),$s))
variable      randnj equal round(random(v_ntop0,7576,$s))
variable      randnj equal round(random(v_ntop0,7576,234897))
variable      randatomj equal ${randnj}
variable      randatomj equal 7462
variable      randzj equal z[${randatomj}]
variable      randzj equal z[7462]
if            "${randzj} < $(v_wthick - 0.7)" then "jump MDPBB.in loopj"
jump MDPBB.in loopj
variable      randnj equal round(random(v_ntop0,$(v_ntop0 + v_nbwall0),$s))
variable      randnj equal round(random(v_ntop0,7576,$s))
variable      randnj equal round(random(v_ntop0,7576,234897))
variable      randatomj equal ${randnj}
variable      randatomj equal 6373
variable      randzj equal z[${randatomj}]
variable      randzj equal z[6373]
if            "${randzj} < $(v_wthick - 0.7)" then "jump MDPBB.in loopj"
jump MDPBB.in loopj
variable      randnj equal round(random(v_ntop0,$(v_ntop0 + v_nbwall0),$s))
variable      randnj equal round(random(v_ntop0,7576,$s))
variable      randnj equal round(random(v_ntop0,7576,234897))
variable      randatomj equal ${randnj}
variable      randatomj equal 6702
variable      randzj equal z[${randatomj}]
variable      randzj equal z[6702]
if            "${randzj} < $(v_wthick - 0.7)" then "jump MDPBB.in loopj"
jump MDPBB.in loopj
variable      randnj equal round(random(v_ntop0,$(v_ntop0 + v_nbwall0),$s))
variable      randnj equal round(random(v_ntop0,7576,$s))
variable      randnj equal round(random(v_ntop0,7576,234897))
variable      randatomj equal ${randnj}
variable      randatomj equal 7460
variable      randzj equal z[${randatomj}]
variable      randzj equal z[7460]
if            "${randzj} < $(v_wthick - 0.7)" then "jump MDPBB.in loopj"
set           atom ${randatomj} type 4
set           atom 7460 type 4
  1 settings made for type
group         bwg id ${randatomj}                         # Add this atom to a bot-wall-grafted group
group         bwg id 7460                         
7 atoms in group bwg
variable      bwgcount equal count(bwg)
print         "bwg contains ${bwgcount}"
bwg contains 7
print         "j = $(v_j)"
j = 7
variable      x0 equal x[${randatomj}]
variable      x0 equal x[7460]
variable      y0 equal y[${randatomj}]
variable      y0 equal y[7460]
variable      check0 equal ${check}
variable      check0 equal 7756
variable      b equal ${check}+1
variable      b equal 7756+1
if            "${bwgcount} != $(v_j)" then "jump MDPBB.in loopj"
create_atoms  1 single ${x0} ${y0} ${z0} mol bs 24987 units box remap yes rotate 0 0 0 1
create_atoms  1 single 12.6992084157456 ${y0} ${z0} mol bs 24987 units box remap yes rotate 0 0 0 1
create_atoms  1 single 12.6992084157456 27.7795184094435 ${z0} mol bs 24987 units box remap yes rotate 0 0 0 1
create_atoms  1 single 12.6992084157456 27.7795184094435 17 mol bs 24987 units box remap yes rotate 0 0 0 1
Created 30 atoms
  create_atoms CPU = 0.0001651 secs
variable      check1 equal ${check}
variable      check1 equal 7786
if            "${check1} != ${check0}" then "create_bonds  single/bond 2 ${randatomj} $b" "next j"
create_bonds  single/bond 2 ${randatomj} $b
create_bonds  single/bond 2 7460 $b
create_bonds  single/bond 2 7460 7757
  2 = max # of 1-2 neighbors
  5 = max # of special neighbors
  special bonds CPU = 0.0027011 secs
next j
jump MDPBB.in loopj
variable      randnj equal round(random(v_ntop0,$(v_ntop0 + v_nbwall0),$s))
variable      randnj equal round(random(v_ntop0,7576,$s))
variable      randnj equal round(random(v_ntop0,7576,234897))
variable      randatomj equal ${randnj}
variable      randatomj equal 7149
variable      randzj equal z[${randatomj}]
variable      randzj equal z[7149]
if            "${randzj} < $(v_wthick - 0.7)" then "jump MDPBB.in loopj"
jump MDPBB.in loopj
variable      randnj equal round(random(v_ntop0,$(v_ntop0 + v_nbwall0),$s))
variable      randnj equal round(random(v_ntop0,7576,$s))
variable      randnj equal round(random(v_ntop0,7576,234897))
variable      randatomj equal ${randnj}
variable      randatomj equal 5103
variable      randzj equal z[${randatomj}]
variable      randzj equal z[5103]
if            "${randzj} < $(v_wthick - 0.7)" then "jump MDPBB.in loopj"
jump MDPBB.in loopj
variable      randnj equal round(random(v_ntop0,$(v_ntop0 + v_nbwall0),$s))
variable      randnj equal round(random(v_ntop0,7576,$s))
variable      randnj equal round(random(v_ntop0,7576,234897))
variable      randatomj equal ${randnj}
variable      randatomj equal 6858
variable      randzj equal z[${randatomj}]
variable      randzj equal z[6858]
if            "${randzj} < $(v_wthick - 0.7)" then "jump MDPBB.in loopj"
jump MDPBB.in loopj
variable      randnj equal round(random(v_ntop0,$(v_ntop0 + v_nbwall0),$s))
variable      randnj equal round(random(v_ntop0,7576,$s))
variable      randnj equal round(random(v_ntop0,7576,234897))
variable      randatomj equal ${randnj}
variable      randatomj equal 5049
variable      randzj equal z[${randatomj}]
variable      randzj equal z[5049]
if            "${randzj} < $(v_wthick - 0.7)" then "jump MDPBB.in loopj"
jump MDPBB.in loopj
variable      randnj equal round(random(v_ntop0,$(v_ntop0 + v_nbwall0),$s))
variable      randnj equal round(random(v_ntop0,7576,$s))
variable      randnj equal round(random(v_ntop0,7576,234897))
variable      randatomj equal ${randnj}
variable      randatomj equal 7113
variable      randzj equal z[${randatomj}]
variable      randzj equal z[7113]
if            "${randzj} < $(v_wthick - 0.7)" then "jump MDPBB.in loopj"
jump MDPBB.in loopj
variable      randnj equal round(random(v_ntop0,$(v_ntop0 + v_nbwall0),$s))
variable      randnj equal round(random(v_ntop0,7576,$s))
variable      randnj equal round(random(v_ntop0,7576,234897))
variable      randatomj equal ${randnj}
variable      randatomj equal 5286
variable      randzj equal z[${randatomj}]
variable      randzj equal z[5286]
if            "${randzj} < $(v_wthick - 0.7)" then "jump MDPBB.in loopj"
jump MDPBB.in loopj
variable      randnj equal round(random(v_ntop0,$(v_ntop0 + v_nbwall0),$s))
variable      randnj equal round(random(v_ntop0,7576,$s))
variable      randnj equal round(random(v_ntop0,7576,234897))
variable      randatomj equal ${randnj}
variable      randatomj equal 5248
variable      randzj equal z[${randatomj}]
variable      randzj equal z[5248]
if            "${randzj} < $(v_wthick - 0.7)" then "jump MDPBB.in loopj"
jump MDPBB.in loopj
variable      randnj equal round(random(v_ntop0,$(v_ntop0 + v_nbwall0),$s))
variable      randnj equal round(random(v_ntop0,7576,$s))
variable      randnj equal round(random(v_ntop0,7576,234897))
variable      randatomj equal ${randnj}
variable      randatomj equal 5458
variable      randzj equal z[${randatomj}]
variable      randzj equal z[5458]
if            "${randzj} < $(v_wthick - 0.7)" then "jump MDPBB.in loopj"
jump MDPBB.in loopj
variable      randnj equal round(random(v_ntop0,$(v_ntop0 + v_nbwall0),$s))
variable      randnj equal round(random(v_ntop0,7576,$s))
variable      randnj equal round(random(v_ntop0,7576,234897))
variable      randatomj equal ${randnj}
variable      randatomj equal 7514
variable      randzj equal z[${randatomj}]
variable      randzj equal z[7514]
if            "${randzj} < $(v_wthick - 0.7)" then "jump MDPBB.in loopj"
jump MDPBB.in loopj
variable      randnj equal round(random(v_ntop0,$(v_ntop0 + v_nbwall0),$s))
variable      randnj equal round(random(v_ntop0,7576,$s))
variable      randnj equal round(random(v_ntop0,7576,234897))
variable      randatomj equal ${randnj}
variable      randatomj equal 5887
variable      randzj equal z[${randatomj}]
variable      randzj equal z[5887]
if            "${randzj} < $(v_wthick - 0.7)" then "jump MDPBB.in loopj"
jump MDPBB.in loopj
variable      randnj equal round(random(v_ntop0,$(v_ntop0 + v_nbwall0),$s))
variable      randnj equal round(random(v_ntop0,7576,$s))
variable      randnj equal round(random(v_ntop0,7576,234897))
variable      randatomj equal ${randnj}
variable      randatomj equal 7514
variable      randzj equal z[${randatomj}]
variable      randzj equal z[7514]
if            "${randzj} < $(v_wthick - 0.7)" then "jump MDPBB.in loopj"
jump MDPBB.in loopj
variable      randnj equal round(random(v_ntop0,$(v_ntop0 + v_nbwall0),$s))
variable      randnj equal round(random(v_ntop0,7576,$s))
variable      randnj equal round(random(v_ntop0,7576,234897))
variable      randatomj equal ${randnj}
variable      randatomj equal 6420
variable      randzj equal z[${randatomj}]
variable      randzj equal z[6420]
if            "${randzj} < $(v_wthick - 0.7)" then "jump MDPBB.in loopj"
set           atom ${randatomj} type 4
set           atom 6420 type 4
  1 settings made for type
group         bwg id ${randatomj}                         # Add this atom to a bot-wall-grafted group
group         bwg id 6420                         
8 atoms in group bwg
variable      bwgcount equal count(bwg)
print         "bwg contains ${bwgcount}"
bwg contains 8
print         "j = $(v_j)"
j = 8
variable      x0 equal x[${randatomj}]
variable      x0 equal x[6420]
variable      y0 equal y[${randatomj}]
variable      y0 equal y[6420]
variable      check0 equal ${check}
variable      check0 equal 7786
variable      b equal ${check}+1
variable      b equal 7786+1
if            "${bwgcount} != $(v_j)" then "jump MDPBB.in loopj"
create_atoms  1 single ${x0} ${y0} ${z0} mol bs 24987 units box remap yes rotate 0 0 0 1
create_atoms  1 single 22.2236147275548 ${y0} ${z0} mol bs 24987 units box remap yes rotate 0 0 0 1
create_atoms  1 single 22.2236147275548 5.5559036818887 ${z0} mol bs 24987 units box remap yes rotate 0 0 0 1
create_atoms  1 single 22.2236147275548 5.5559036818887 17 mol bs 24987 units box remap yes rotate 0 0 0 1
Created 30 atoms
  create_atoms CPU = 0.0001547 secs
variable      check1 equal ${check}
variable      check1 equal 7816
if            "${check1} != ${check0}" then "create_bonds  single/bond 2 ${randatomj} $b" "next j"
create_bonds  single/bond 2 ${randatomj} $b
create_bonds  single/bond 2 6420 $b
create_bonds  single/bond 2 6420 7787
  2 = max # of 1-2 neighbors
  5 = max # of special neighbors
  special bonds CPU = 0.0028346 secs
next j
jump MDPBB.in loopj
variable      randnj equal round(random(v_ntop0,$(v_ntop0 + v_nbwall0),$s))
variable      randnj equal round(random(v_ntop0,7576,$s))
variable      randnj equal round(random(v_ntop0,7576,234897))
variable      randatomj equal ${randnj}
variable      randatomj equal 6183
variable      randzj equal z[${randatomj}]
variable      randzj equal z[6183]
if            "${randzj} < $(v_wthick - 0.7)" then "jump MDPBB.in loopj"
set           atom ${randatomj} type 4
set           atom 6183 type 4
  1 settings made for type
group         bwg id ${randatomj}                         # Add this atom to a bot-wall-grafted group
group         bwg id 6183                         
9 atoms in group bwg
variable      bwgcount equal count(bwg)
print         "bwg contains ${bwgcount}"
bwg contains 9
print         "j = $(v_j)"
j = 9
variable      x0 equal x[${randatomj}]
variable      x0 equal x[6183]
variable      y0 equal y[${randatomj}]
variable      y0 equal y[6183]
variable      check0 equal ${check}
variable      check0 equal 7816
variable      b equal ${check}+1
variable      b equal 7816+1
if            "${bwgcount} != $(v_j)" then "jump MDPBB.in loopj"
create_atoms  1 single ${x0} ${y0} ${z0} mol bs 24987 units box remap yes rotate 0 0 0 1
create_atoms  1 single 19.8425131496025 ${y0} ${z0} mol bs 24987 units box remap yes rotate 0 0 0 1
create_atoms  1 single 19.8425131496025 0 ${z0} mol bs 24987 units box remap yes rotate 0 0 0 1
create_atoms  1 single 19.8425131496025 0 17 mol bs 24987 units box remap yes rotate 0 0 0 1
Created 30 atoms
  create_atoms CPU = 0.0001438 secs
variable      check1 equal ${check}
variable      check1 equal 7846
if            "${check1} != ${check0}" then "create_bonds  single/bond 2 ${randatomj} $b" "next j"
create_bonds  single/bond 2 ${randatomj} $b
create_bonds  single/bond 2 6183 $b
create_bonds  single/bond 2 6183 7817
  2 = max # of 1-2 neighbors
  5 = max # of special neighbors
  special bonds CPU = 0.0025201 secs
next j
jump MDPBB.in loopj
variable      randnj equal round(random(v_ntop0,$(v_ntop0 + v_nbwall0),$s))
variable      randnj equal round(random(v_ntop0,7576,$s))
variable      randnj equal round(random(v_ntop0,7576,234897))
variable      randatomj equal ${randnj}
variable      randatomj equal 5540
variable      randzj equal z[${randatomj}]
variable      randzj equal z[5540]
if            "${randzj} < $(v_wthick - 0.7)" then "jump MDPBB.in loopj"
jump MDPBB.in loopj
variable      randnj equal round(random(v_ntop0,$(v_ntop0 + v_nbwall0),$s))
variable      randnj equal round(random(v_ntop0,7576,$s))
variable      randnj equal round(random(v_ntop0,7576,234897))
variable      randatomj equal ${randnj}
variable      randatomj equal 6812
variable      randzj equal z[${randatomj}]
variable      randzj equal z[6812]
if            "${randzj} < $(v_wthick - 0.7)" then "jump MDPBB.in loopj"
set           atom ${randatomj} type 4
set           atom 6812 type 4
  1 settings made for type
group         bwg id ${randatomj}                         # Add this atom to a bot-wall-grafted group
group         bwg id 6812                         
10 atoms in group bwg
variable      bwgcount equal count(bwg)
print         "bwg contains ${bwgcount}"
bwg contains 10
print         "j = $(v_j)"
j = 10
variable      x0 equal x[${randatomj}]
variable      x0 equal x[6812]
variable      y0 equal y[${randatomj}]
variable      y0 equal y[6812]
variable      check0 equal ${check}
variable      check0 equal 7846
variable      b equal ${check}+1
variable      b equal 7846+1
if            "${bwgcount} != $(v_j)" then "jump MDPBB.in loopj"
create_atoms  1 single ${x0} ${y0} ${z0} mol bs 24987 units box remap yes rotate 0 0 0 1
create_atoms  1 single 26.9858178834594 ${y0} ${z0} mol bs 24987 units box remap yes rotate 0 0 0 1
create_atoms  1 single 26.9858178834594 13.4929089417297 ${z0} mol bs 24987 units box remap yes rotate 0 0 0 1
create_atoms  1 single 26.9858178834594 13.4929089417297 17 mol bs 24987 units box remap yes rotate 0 0 0 1
Created 30 atoms
  create_atoms CPU = 0.0001754 secs
variable      check1 equal ${check}
variable      check1 equal 7876
if            "${check1} != ${check0}" then "create_bonds  single/bond 2 ${randatomj} $b" "next j"
create_bonds  single/bond 2 ${randatomj} $b
create_bonds  single/bond 2 6812 $b
create_bonds  single/bond 2 6812 7847
  2 = max # of 1-2 neighbors
  5 = max # of special neighbors
  special bonds CPU = 0.0030828 secs
next j
jump MDPBB.in loopj
variable      randnj equal round(random(v_ntop0,$(v_ntop0 + v_nbwall0),$s))
variable      randnj equal round(random(v_ntop0,7576,$s))
variable      randnj equal round(random(v_ntop0,7576,234897))
variable      randatomj equal ${randnj}
variable      randatomj equal 5712
variable      randzj equal z[${randatomj}]
variable      randzj equal z[5712]
if            "${randzj} < $(v_wthick - 0.7)" then "jump MDPBB.in loopj"
jump MDPBB.in loopj
variable      randnj equal round(random(v_ntop0,$(v_ntop0 + v_nbwall0),$s))
variable      randnj equal round(random(v_ntop0,7576,$s))
variable      randnj equal round(random(v_ntop0,7576,234897))
variable      randatomj equal ${randnj}
variable      randatomj equal 6811
variable      randzj equal z[${randatomj}]
variable      randzj equal z[6811]
if            "${randzj} < $(v_wthick - 0.7)" then "jump MDPBB.in loopj"
set           atom ${randatomj} type 4
set           atom 6811 type 4
  1 settings made for type
group         bwg id ${randatomj}                         # Add this atom to a bot-wall-grafted group
group         bwg id 6811                         
11 atoms in group bwg
variable      bwgcount equal count(bwg)
print         "bwg contains ${bwgcount}"
bwg contains 11
print         "j = $(v_j)"
j = 11
variable      x0 equal x[${randatomj}]
variable      x0 equal x[6811]
variable      y0 equal y[${randatomj}]
variable      y0 equal y[6811]
variable      check0 equal ${check}
variable      check0 equal 7876
variable      b equal ${check}+1
variable      b equal 7876+1
if            "${bwgcount} != $(v_j)" then "jump MDPBB.in loopj"
create_atoms  1 single ${x0} ${y0} ${z0} mol bs 24987 units box remap yes rotate 0 0 0 1
create_atoms  1 single 27.7795184094435 ${y0} ${z0} mol bs 24987 units box remap yes rotate 0 0 0 1
create_atoms  1 single 27.7795184094435 12.6992084157456 ${z0} mol bs 24987 units box remap yes rotate 0 0 0 1
create_atoms  1 single 27.7795184094435 12.6992084157456 17 mol bs 24987 units box remap yes rotate 0 0 0 1
Created 30 atoms
  create_atoms CPU = 0.0001641 secs
variable      check1 equal ${check}
variable      check1 equal 7906
if            "${check1} != ${check0}" then "create_bonds  single/bond 2 ${randatomj} $b" "next j"
create_bonds  single/bond 2 ${randatomj} $b
create_bonds  single/bond 2 6811 $b
create_bonds  single/bond 2 6811 7877
  2 = max # of 1-2 neighbors
  5 = max # of special neighbors
  special bonds CPU = 0.0062109 secs
next j
jump MDPBB.in loopj
variable      randnj equal round(random(v_ntop0,$(v_ntop0 + v_nbwall0),$s))
variable      randnj equal round(random(v_ntop0,7576,$s))
variable      randnj equal round(random(v_ntop0,7576,234897))
variable      randatomj equal ${randnj}
variable      randatomj equal 5306
variable      randzj equal z[${randatomj}]
variable      randzj equal z[5306]
if            "${randzj} < $(v_wthick - 0.7)" then "jump MDPBB.in loopj"
jump MDPBB.in loopj
variable      randnj equal round(random(v_ntop0,$(v_ntop0 + v_nbwall0),$s))
variable      randnj equal round(random(v_ntop0,7576,$s))
variable      randnj equal round(random(v_ntop0,7576,234897))
variable      randatomj equal ${randnj}
variable      randatomj equal 6827
variable      randzj equal z[${randatomj}]
variable      randzj equal z[6827]
if            "${randzj} < $(v_wthick - 0.7)" then "jump MDPBB.in loopj"
set           atom ${randatomj} type 4
set           atom 6827 type 4
  1 settings made for type
group         bwg id ${randatomj}                         # Add this atom to a bot-wall-grafted group
group         bwg id 6827                         
12 atoms in group bwg
variable      bwgcount equal count(bwg)
print         "bwg contains ${bwgcount}"
bwg contains 12
print         "j = $(v_j)"
j = 12
variable      x0 equal x[${randatomj}]
variable      x0 equal x[6827]
variable      y0 equal y[${randatomj}]
variable      y0 equal y[6827]
variable      check0 equal ${check}
variable      check0 equal 7906
variable      b equal ${check}+1
variable      b equal 7906+1
if            "${bwgcount} != $(v_j)" then "jump MDPBB.in loopj"
create_atoms  1 single ${x0} ${y0} ${z0} mol bs 24987 units box remap yes rotate 0 0 0 1
create_atoms  1 single 3.9685026299205 ${y0} ${z0} mol bs 24987 units box remap yes rotate 0 0 0 1
create_atoms  1 single 3.9685026299205 14.2866094677138 ${z0} mol bs 24987 units box remap yes rotate 0 0 0 1
create_atoms  1 single 3.9685026299205 14.2866094677138 17 mol bs 24987 units box remap yes rotate 0 0 0 1
Created 30 atoms
  create_atoms CPU = 0.0001435 secs
variable      check1 equal ${check}
variable      check1 equal 7936
if            "${check1} != ${check0}" then "create_bonds  single/bond 2 ${randatomj} $b" "next j"
create_bonds  single/bond 2 ${randatomj} $b
create_bonds  single/bond 2 6827 $b
create_bonds  single/bond 2 6827 7907
  2 = max # of 1-2 neighbors
  5 = max # of special neighbors
  special bonds CPU = 0.0035509 secs
next j
jump MDPBB.in loopj
variable      randnj equal round(random(v_ntop0,$(v_ntop0 + v_nbwall0),$s))
variable      randnj equal round(random(v_ntop0,7576,$s))
variable      randnj equal round(random(v_ntop0,7576,234897))
variable      randatomj equal ${randnj}
variable      randatomj equal 6871
variable      randzj equal z[${randatomj}]
variable      randzj equal z[6871]
if            "${randzj} < $(v_wthick - 0.7)" then "jump MDPBB.in loopj"
set           atom ${randatomj} type 4
set           atom 6871 type 4
  1 settings made for type
group         bwg id ${randatomj}                         # Add this atom to a bot-wall-grafted group
group         bwg id 6871                         
13 atoms in group bwg
variable      bwgcount equal count(bwg)
print         "bwg contains ${bwgcount}"
bwg contains 13
print         "j = $(v_j)"
j = 13
variable      x0 equal x[${randatomj}]
variable      x0 equal x[6871]
variable      y0 equal y[${randatomj}]
variable      y0 equal y[6871]
variable      check0 equal ${check}
variable      check0 equal 7936
variable      b equal ${check}+1
variable      b equal 7936+1
if            "${bwgcount} != $(v_j)" then "jump MDPBB.in loopj"
create_atoms  1 single ${x0} ${y0} ${z0} mol bs 24987 units box remap yes rotate 0 0 0 1
create_atoms  1 single 21.4299142015707 ${y0} ${z0} mol bs 24987 units box remap yes rotate 0 0 0 1
create_atoms  1 single 21.4299142015707 14.2866094677138 ${z0} mol bs 24987 units box remap yes rotate 0 0 0 1
create_atoms  1 single 21.4299142015707 14.2866094677138 17 mol bs 24987 units box remap yes rotate 0 0 0 1
Created 30 atoms
  create_atoms CPU = 0.0002155 secs
variable      check1 equal ${check}
variable      check1 equal 7966
if            "${check1} != ${check0}" then "create_bonds  single/bond 2 ${randatomj} $b" "next j"
create_bonds  single/bond 2 ${randatomj} $b
create_bonds  single/bond 2 6871 $b
create_bonds  single/bond 2 6871 7937
  2 = max # of 1-2 neighbors
  5 = max # of special neighbors
  special bonds CPU = 0.0046054 secs
next j
jump MDPBB.in loopj
variable      randnj equal round(random(v_ntop0,$(v_ntop0 + v_nbwall0),$s))
variable      randnj equal round(random(v_ntop0,7576,$s))
variable      randnj equal round(random(v_ntop0,7576,234897))
variable      randatomj equal ${randnj}
variable      randatomj equal 5320
variable      randzj equal z[${randatomj}]
variable      randzj equal z[5320]
if            "${randzj} < $(v_wthick - 0.7)" then "jump MDPBB.in loopj"
jump MDPBB.in loopj
variable      randnj equal round(random(v_ntop0,$(v_ntop0 + v_nbwall0),$s))
variable      randnj equal round(random(v_ntop0,7576,$s))
variable      randnj equal round(random(v_ntop0,7576,234897))
variable      randatomj equal ${randnj}
variable      randatomj equal 5902
variable      randzj equal z[${randatomj}]
variable      randzj equal z[5902]
if            "${randzj} < $(v_wthick - 0.7)" then "jump MDPBB.in loopj"
jump MDPBB.in loopj
variable      randnj equal round(random(v_ntop0,$(v_ntop0 + v_nbwall0),$s))
variable      randnj equal round(random(v_ntop0,7576,$s))
variable      randnj equal round(random(v_ntop0,7576,234897))
variable      randatomj equal ${randnj}
variable      randatomj equal 4971
variable      randzj equal z[${randatomj}]
variable      randzj equal z[4971]
if            "${randzj} < $(v_wthick - 0.7)" then "jump MDPBB.in loopj"
jump MDPBB.in loopj
variable      randnj equal round(random(v_ntop0,$(v_ntop0 + v_nbwall0),$s))
variable      randnj equal round(random(v_ntop0,7576,$s))
variable      randnj equal round(random(v_ntop0,7576,234897))
variable      randatomj equal ${randnj}
variable      randatomj equal 7109
variable      randzj equal z[${randatomj}]
variable      randzj equal z[7109]
if            "${randzj} < $(v_wthick - 0.7)" then "jump MDPBB.in loopj"
jump MDPBB.in loopj
variable      randnj equal round(random(v_ntop0,$(v_ntop0 + v_nbwall0),$s))
variable      randnj equal round(random(v_ntop0,7576,$s))
variable      randnj equal round(random(v_ntop0,7576,234897))
variable      randatomj equal ${randnj}
variable      randatomj equal 7059
variable      randzj equal z[${randatomj}]
variable      randzj equal z[7059]
if            "${randzj} < $(v_wthick - 0.7)" then "jump MDPBB.in loopj"
set           atom ${randatomj} type 4
set           atom 7059 type 4
  1 settings made for type
group         bwg id ${randatomj}                         # Add this atom to a bot-wall-grafted group
group         bwg id 7059                         
14 atoms in group bwg
variable      bwgcount equal count(bwg)
print         "bwg contains ${bwgcount}"
bwg contains 14
print         "j = $(v_j)"
j = 14
variable      x0 equal x[${randatomj}]
variable      x0 equal x[7059]
variable      y0 equal y[${randatomj}]
variable      y0 equal y[7059]
variable      check0 equal ${check}
variable      check0 equal 7966
variable      b equal ${check}+1
variable      b equal 7966+1
if            "${bwgcount} != $(v_j)" then "jump MDPBB.in loopj"
create_atoms  1 single ${x0} ${y0} ${z0} mol bs 24987 units box remap yes rotate 0 0 0 1
create_atoms  1 single 5.5559036818887 ${y0} ${z0} mol bs 24987 units box remap yes rotate 0 0 0 1
create_atoms  1 single 5.5559036818887 19.0488126236184 ${z0} mol bs 24987 units box remap yes rotate 0 0 0 1
create_atoms  1 single 5.5559036818887 19.0488126236184 17 mol bs 24987 units box remap yes rotate 0 0 0 1
Created 30 atoms
  create_atoms CPU = 0.0001391 secs
variable      check1 equal ${check}
variable      check1 equal 7996
if            "${check1} != ${check0}" then "create_bonds  single/bond 2 ${randatomj} $b" "next j"
create_bonds  single/bond 2 ${randatomj} $b
create_bonds  single/bond 2 7059 $b
create_bonds  single/bond 2 7059 7967
  2 = max # of 1-2 neighbors
  5 = max # of special neighbors
  special bonds CPU = 0.0034473 secs
next j
jump MDPBB.in loopj
variable      randnj equal round(random(v_ntop0,$(v_ntop0 + v_nbwall0),$s))
variable      randnj equal round(random(v_ntop0,7576,$s))
variable      randnj equal round(random(v_ntop0,7576,234897))
variable      randatomj equal ${randnj}
variable      randatomj equal 7269
variable      randzj equal z[${randatomj}]
variable      randzj equal z[7269]
if            "${randzj} < $(v_wthick - 0.7)" then "jump MDPBB.in loopj"
jump MDPBB.in loopj
variable      randnj equal round(random(v_ntop0,$(v_ntop0 + v_nbwall0),$s))
variable      randnj equal round(random(v_ntop0,7576,$s))
variable      randnj equal round(random(v_ntop0,7576,234897))
variable      randatomj equal ${randnj}
variable      randatomj equal 5073
variable      randzj equal z[${randatomj}]
variable      randzj equal z[5073]
if            "${randzj} < $(v_wthick - 0.7)" then "jump MDPBB.in loopj"
jump MDPBB.in loopj
variable      randnj equal round(random(v_ntop0,$(v_ntop0 + v_nbwall0),$s))
variable      randnj equal round(random(v_ntop0,7576,$s))
variable      randnj equal round(random(v_ntop0,7576,234897))
variable      randatomj equal ${randnj}
variable      randatomj equal 4847
variable      randzj equal z[${randatomj}]
variable      randzj equal z[4847]
if            "${randzj} < $(v_wthick - 0.7)" then "jump MDPBB.in loopj"
jump MDPBB.in loopj
variable      randnj equal round(random(v_ntop0,$(v_ntop0 + v_nbwall0),$s))
variable      randnj equal round(random(v_ntop0,7576,$s))
variable      randnj equal round(random(v_ntop0,7576,234897))
variable      randatomj equal ${randnj}
variable      randatomj equal 6066
variable      randzj equal z[${randatomj}]
variable      randzj equal z[6066]
if            "${randzj} < $(v_wthick - 0.7)" then "jump MDPBB.in loopj"
jump MDPBB.in loopj
variable      randnj equal round(random(v_ntop0,$(v_ntop0 + v_nbwall0),$s))
variable      randnj equal round(random(v_ntop0,7576,$s))
variable      randnj equal round(random(v_ntop0,7576,234897))
variable      randatomj equal ${randnj}
variable      randatomj equal 5021
variable      randzj equal z[${randatomj}]
variable      randzj equal z[5021]
if            "${randzj} < $(v_wthick - 0.7)" then "jump MDPBB.in loopj"
jump MDPBB.in loopj
variable      randnj equal round(random(v_ntop0,$(v_ntop0 + v_nbwall0),$s))
variable      randnj equal round(random(v_ntop0,7576,$s))
variable      randnj equal round(random(v_ntop0,7576,234897))
variable      randatomj equal ${randnj}
variable      randatomj equal 6970
variable      randzj equal z[${randatomj}]
variable      randzj equal z[6970]
if            "${randzj} < $(v_wthick - 0.7)" then "jump MDPBB.in loopj"
jump MDPBB.in loopj
variable      randnj equal round(random(v_ntop0,$(v_ntop0 + v_nbwall0),$s))
variable      randnj equal round(random(v_ntop0,7576,$s))
variable      randnj equal round(random(v_ntop0,7576,234897))
variable      randatomj equal ${randnj}
variable      randatomj equal 6557
variable      randzj equal z[${randatomj}]
variable      randzj equal z[6557]
if            "${randzj} < $(v_wthick - 0.7)" then "jump MDPBB.in loopj"
jump MDPBB.in loopj
variable      randnj equal round(random(v_ntop0,$(v_ntop0 + v_nbwall0),$s))
variable      randnj equal round(random(v_ntop0,7576,$s))
variable      randnj equal round(random(v_ntop0,7576,234897))
variable      randatomj equal ${randnj}
variable      randatomj equal 6838
variable      randzj equal z[${randatomj}]
variable      randzj equal z[6838]
if            "${randzj} < $(v_wthick - 0.7)" then "jump MDPBB.in loopj"
jump MDPBB.in loopj
variable      randnj equal round(random(v_ntop0,$(v_ntop0 + v_nbwall0),$s))
variable      randnj equal round(random(v_ntop0,7576,$s))
variable      randnj equal round(random(v_ntop0,7576,234897))
variable      randatomj equal ${randnj}
variable      randatomj equal 6783
variable      randzj equal z[${randatomj}]
variable      randzj equal z[6783]
if            "${randzj} < $(v_wthick - 0.7)" then "jump MDPBB.in loopj"
set           atom ${randatomj} type 4
set           atom 6783 type 4
  1 settings made for type
group         bwg id ${randatomj}                         # Add this atom to a bot-wall-grafted group
group         bwg id 6783                         
15 atoms in group bwg
variable      bwgcount equal count(bwg)
print         "bwg contains ${bwgcount}"
bwg contains 15
print         "j = $(v_j)"
j = 15
variable      x0 equal x[${randatomj}]
variable      x0 equal x[6783]
variable      y0 equal y[${randatomj}]
variable      y0 equal y[6783]
variable      check0 equal ${check}
variable      check0 equal 7996
variable      b equal ${check}+1
variable      b equal 7996+1
if            "${bwgcount} != $(v_j)" then "jump MDPBB.in loopj"
create_atoms  1 single ${x0} ${y0} ${z0} mol bs 24987 units box remap yes rotate 0 0 0 1
create_atoms  1 single 16.6677110456661 ${y0} ${z0} mol bs 24987 units box remap yes rotate 0 0 0 1
create_atoms  1 single 16.6677110456661 12.6992084157456 ${z0} mol bs 24987 units box remap yes rotate 0 0 0 1
create_atoms  1 single 16.6677110456661 12.6992084157456 17 mol bs 24987 units box remap yes rotate 0 0 0 1
Created 30 atoms
  create_atoms CPU = 0.000171 secs
variable      check1 equal ${check}
variable      check1 equal 8026
if            "${check1} != ${check0}" then "create_bonds  single/bond 2 ${randatomj} $b" "next j"
create_bonds  single/bond 2 ${randatomj} $b
create_bonds  single/bond 2 6783 $b
create_bonds  single/bond 2 6783 7997
  2 = max # of 1-2 neighbors
  5 = max # of special neighbors
  special bonds CPU = 0.003826 secs
next j
jump MDPBB.in loopj
variable      randnj equal round(random(v_ntop0,$(v_ntop0 + v_nbwall0),$s))
variable      randnj equal round(random(v_ntop0,7576,$s))
variable      randnj equal round(random(v_ntop0,7576,234897))
variable      randatomj equal ${randnj}
variable      randatomj equal 6373
variable      randzj equal z[${randatomj}]
variable      randzj equal z[6373]
if            "${randzj} < $(v_wthick - 0.7)" then "jump MDPBB.in loopj"
jump MDPBB.in loopj
variable      randnj equal round(random(v_ntop0,$(v_ntop0 + v_nbwall0),$s))
variable      randnj equal round(random(v_ntop0,7576,$s))
variable      randnj equal round(random(v_ntop0,7576,234897))
variable      randatomj equal ${randnj}
variable      randatomj equal 5528
variable      randzj equal z[${randatomj}]
variable      randzj equal z[5528]
if            "${randzj} < $(v_wthick - 0.7)" then "jump MDPBB.in loopj"
jump MDPBB.in loopj
variable      randnj equal round(random(v_ntop0,$(v_ntop0 + v_nbwall0),$s))
variable      randnj equal round(random(v_ntop0,7576,$s))
variable      randnj equal round(random(v_ntop0,7576,234897))
variable      randatomj equal ${randnj}
variable      randatomj equal 7512
variable      randzj equal z[${randatomj}]
variable      randzj equal z[7512]
if            "${randzj} < $(v_wthick - 0.7)" then "jump MDPBB.in loopj"
set           atom ${randatomj} type 4
set           atom 7512 type 4
  1 settings made for type
group         bwg id ${randatomj}                         # Add this atom to a bot-wall-grafted group
group         bwg id 7512                         
16 atoms in group bwg
variable      bwgcount equal count(bwg)
print         "bwg contains ${bwgcount}"
bwg contains 16
print         "j = $(v_j)"
j = 16
variable      x0 equal x[${randatomj}]
variable      x0 equal x[7512]
variable      y0 equal y[${randatomj}]
variable      y0 equal y[7512]
variable      check0 equal ${check}
variable      check0 equal 8026
variable      b equal ${check}+1
variable      b equal 8026+1
if            "${bwgcount} != $(v_j)" then "jump MDPBB.in loopj"
create_atoms  1 single ${x0} ${y0} ${z0} mol bs 24987 units box remap yes rotate 0 0 0 1
create_atoms  1 single 3.1748021039364 ${y0} ${z0} mol bs 24987 units box remap yes rotate 0 0 0 1
create_atoms  1 single 3.1748021039364 29.3669194614117 ${z0} mol bs 24987 units box remap yes rotate 0 0 0 1
create_atoms  1 single 3.1748021039364 29.3669194614117 17 mol bs 24987 units box remap yes rotate 0 0 0 1
Created 30 atoms
  create_atoms CPU = 0.0001779 secs
variable      check1 equal ${check}
variable      check1 equal 8056
if            "${check1} != ${check0}" then "create_bonds  single/bond 2 ${randatomj} $b" "next j"
create_bonds  single/bond 2 ${randatomj} $b
create_bonds  single/bond 2 7512 $b
create_bonds  single/bond 2 7512 8027
  2 = max # of 1-2 neighbors
  5 = max # of special neighbors
  special bonds CPU = 0.0039062 secs
next j
jump MDPBB.in loopj
variable      randnj equal round(random(v_ntop0,$(v_ntop0 + v_nbwall0),$s))
variable      randnj equal round(random(v_ntop0,7576,$s))
variable      randnj equal round(random(v_ntop0,7576,234897))
variable      randatomj equal ${randnj}
variable      randatomj equal 7066
variable      randzj equal z[${randatomj}]
variable      randzj equal z[7066]
if            "${randzj} < $(v_wthick - 0.7)" then "jump MDPBB.in loopj"
jump MDPBB.in loopj
variable      randnj equal round(random(v_ntop0,$(v_ntop0 + v_nbwall0),$s))
variable      randnj equal round(random(v_ntop0,7576,$s))
variable      randnj equal round(random(v_ntop0,7576,234897))
variable      randatomj equal ${randnj}
variable      randatomj equal 6554
variable      randzj equal z[${randatomj}]
variable      randzj equal z[6554]
if            "${randzj} < $(v_wthick - 0.7)" then "jump MDPBB.in loopj"
jump MDPBB.in loopj
variable      randnj equal round(random(v_ntop0,$(v_ntop0 + v_nbwall0),$s))
variable      randnj equal round(random(v_ntop0,7576,$s))
variable      randnj equal round(random(v_ntop0,7576,234897))
variable      randatomj equal ${randnj}
variable      randatomj equal 7511
variable      randzj equal z[${randatomj}]
variable      randzj equal z[7511]
if            "${randzj} < $(v_wthick - 0.7)" then "jump MDPBB.in loopj"
set           atom ${randatomj} type 4
set           atom 7511 type 4
  1 settings made for type
group         bwg id ${randatomj}                         # Add this atom to a bot-wall-grafted group
group         bwg id 7511                         
17 atoms in group bwg
variable      bwgcount equal count(bwg)
print         "bwg contains ${bwgcount}"
bwg contains 17
print         "j = $(v_j)"
j = 17
variable      x0 equal x[${randatomj}]
variable      x0 equal x[7511]
variable      y0 equal y[${randatomj}]
variable      y0 equal y[7511]
variable      check0 equal ${check}
variable      check0 equal 8056
variable      b equal ${check}+1
variable      b equal 8056+1
if            "${bwgcount} != $(v_j)" then "jump MDPBB.in loopj"
create_atoms  1 single ${x0} ${y0} ${z0} mol bs 24987 units box remap yes rotate 0 0 0 1
create_atoms  1 single 3.9685026299205 ${y0} ${z0} mol bs 24987 units box remap yes rotate 0 0 0 1
create_atoms  1 single 3.9685026299205 28.5732189354276 ${z0} mol bs 24987 units box remap yes rotate 0 0 0 1
create_atoms  1 single 3.9685026299205 28.5732189354276 17 mol bs 24987 units box remap yes rotate 0 0 0 1
Created 30 atoms
  create_atoms CPU = 0.0001618 secs
variable      check1 equal ${check}
variable      check1 equal 8086
if            "${check1} != ${check0}" then "create_bonds  single/bond 2 ${randatomj} $b" "next j"
create_bonds  single/bond 2 ${randatomj} $b
create_bonds  single/bond 2 7511 $b
create_bonds  single/bond 2 7511 8057
  2 = max # of 1-2 neighbors
  5 = max # of special neighbors
  special bonds CPU = 0.0027452 secs
next j
jump MDPBB.in loopj
variable      randnj equal round(random(v_ntop0,$(v_ntop0 + v_nbwall0),$s))
variable      randnj equal round(random(v_ntop0,7576,$s))
variable      randnj equal round(random(v_ntop0,7576,234897))
variable      randatomj equal ${randnj}
variable      randatomj equal 5999
variable      randzj equal z[${randatomj}]
variable      randzj equal z[5999]
if            "${randzj} < $(v_wthick - 0.7)" then "jump MDPBB.in loopj"
jump MDPBB.in loopj
variable      randnj equal round(random(v_ntop0,$(v_ntop0 + v_nbwall0),$s))
variable      randnj equal round(random(v_ntop0,7576,$s))
variable      randnj equal round(random(v_ntop0,7576,234897))
variable      randatomj equal ${randnj}
variable      randatomj equal 6961
variable      randzj equal z[${randatomj}]
variable      randzj equal z[6961]
if            "${randzj} < $(v_wthick - 0.7)" then "jump MDPBB.in loopj"
jump MDPBB.in loopj
variable      randnj equal round(random(v_ntop0,$(v_ntop0 + v_nbwall0),$s))
variable      randnj equal round(random(v_ntop0,7576,$s))
variable      randnj equal round(random(v_ntop0,7576,234897))
variable      randatomj equal ${randnj}
variable      randatomj equal 5288
variable      randzj equal z[${randatomj}]
variable      randzj equal z[5288]
if            "${randzj} < $(v_wthick - 0.7)" then "jump MDPBB.in loopj"
jump MDPBB.in loopj
variable      randnj equal round(random(v_ntop0,$(v_ntop0 + v_nbwall0),$s))
variable      randnj equal round(random(v_ntop0,7576,$s))
variable      randnj equal round(random(v_ntop0,7576,234897))
variable      randatomj equal ${randnj}
variable      randatomj equal 6011
variable      randzj equal z[${randatomj}]
variable      randzj equal z[6011]
if            "${randzj} < $(v_wthick - 0.7)" then "jump MDPBB.in loopj"
jump MDPBB.in loopj
variable      randnj equal round(random(v_ntop0,$(v_ntop0 + v_nbwall0),$s))
variable      randnj equal round(random(v_ntop0,7576,$s))
variable      randnj equal round(random(v_ntop0,7576,234897))
variable      randatomj equal ${randnj}
variable      randatomj equal 5812
variable      randzj equal z[${randatomj}]
variable      randzj equal z[5812]
if            "${randzj} < $(v_wthick - 0.7)" then "jump MDPBB.in loopj"
jump MDPBB.in loopj
variable      randnj equal round(random(v_ntop0,$(v_ntop0 + v_nbwall0),$s))
variable      randnj equal round(random(v_ntop0,7576,$s))
variable      randnj equal round(random(v_ntop0,7576,234897))
variable      randatomj equal ${randnj}
variable      randatomj equal 6044
variable      randzj equal z[${randatomj}]
variable      randzj equal z[6044]
if            "${randzj} < $(v_wthick - 0.7)" then "jump MDPBB.in loopj"
jump MDPBB.in loopj
variable      randnj equal round(random(v_ntop0,$(v_ntop0 + v_nbwall0),$s))
variable      randnj equal round(random(v_ntop0,7576,$s))
variable      randnj equal round(random(v_ntop0,7576,234897))
variable      randatomj equal ${randnj}
variable      randatomj equal 6112
variable      randzj equal z[${randatomj}]
variable      randzj equal z[6112]
if            "${randzj} < $(v_wthick - 0.7)" then "jump MDPBB.in loopj"
jump MDPBB.in loopj
variable      randnj equal round(random(v_ntop0,$(v_ntop0 + v_nbwall0),$s))
variable      randnj equal round(random(v_ntop0,7576,$s))
variable      randnj equal round(random(v_ntop0,7576,234897))
variable      randatomj equal ${randnj}
variable      randatomj equal 6318
variable      randzj equal z[${randatomj}]
variable      randzj equal z[6318]
if            "${randzj} < $(v_wthick - 0.7)" then "jump MDPBB.in loopj"
jump MDPBB.in loopj
variable      randnj equal round(random(v_ntop0,$(v_ntop0 + v_nbwall0),$s))
variable      randnj equal round(random(v_ntop0,7576,$s))
variable      randnj equal round(random(v_ntop0,7576,234897))
variable      randatomj equal ${randnj}
variable      randatomj equal 6801
variable      randzj equal z[${randatomj}]
variable      randzj equal z[6801]
if            "${randzj} < $(v_wthick - 0.7)" then "jump MDPBB.in loopj"
jump MDPBB.in loopj
variable      randnj equal round(random(v_ntop0,$(v_ntop0 + v_nbwall0),$s))
variable      randnj equal round(random(v_ntop0,7576,$s))
variable      randnj equal round(random(v_ntop0,7576,234897))
variable      randatomj equal ${randnj}
variable      randatomj equal 5908
variable      randzj equal z[${randatomj}]
variable      randzj equal z[5908]
if            "${randzj} < $(v_wthick - 0.7)" then "jump MDPBB.in loopj"
jump MDPBB.in loopj
variable      randnj equal round(random(v_ntop0,$(v_ntop0 + v_nbwall0),$s))
variable      randnj equal round(random(v_ntop0,7576,$s))
variable      randnj equal round(random(v_ntop0,7576,234897))
variable      randatomj equal ${randnj}
variable      randatomj equal 6934
variable      randzj equal z[${randatomj}]
variable      randzj equal z[6934]
if            "${randzj} < $(v_wthick - 0.7)" then "jump MDPBB.in loopj"
jump MDPBB.in loopj
variable      randnj equal round(random(v_ntop0,$(v_ntop0 + v_nbwall0),$s))
variable      randnj equal round(random(v_ntop0,7576,$s))
variable      randnj equal round(random(v_ntop0,7576,234897))
variable      randatomj equal ${randnj}
variable      randatomj equal 7157
variable      randzj equal z[${randatomj}]
variable      randzj equal z[7157]
if            "${randzj} < $(v_wthick - 0.7)" then "jump MDPBB.in loopj"
jump MDPBB.in loopj
variable      randnj equal round(random(v_ntop0,$(v_ntop0 + v_nbwall0),$s))
variable      randnj equal round(random(v_ntop0,7576,$s))
variable      randnj equal round(random(v_ntop0,7576,234897))
variable      randatomj equal ${randnj}
variable      randatomj equal 7211
variable      randzj equal z[${randatomj}]
variable      randzj equal z[7211]
if            "${randzj} < $(v_wthick - 0.7)" then "jump MDPBB.in loopj"
set           atom ${randatomj} type 4
set           atom 7211 type 4
  1 settings made for type
group         bwg id ${randatomj}                         # Add this atom to a bot-wall-grafted group
group         bwg id 7211                         
18 atoms in group bwg
variable      bwgcount equal count(bwg)
print         "bwg contains ${bwgcount}"
bwg contains 18
print         "j = $(v_j)"
j = 18
variable      x0 equal x[${randatomj}]
variable      x0 equal x[7211]
variable      y0 equal y[${randatomj}]
variable      y0 equal y[7211]
variable      check0 equal ${check}
variable      check0 equal 8086
variable      b equal ${check}+1
variable      b equal 8086+1
if            "${bwgcount} != $(v_j)" then "jump MDPBB.in loopj"
create_atoms  1 single ${x0} ${y0} ${z0} mol bs 24987 units box remap yes rotate 0 0 0 1
create_atoms  1 single 5.5559036818887 ${y0} ${z0} mol bs 24987 units box remap yes rotate 0 0 0 1
create_atoms  1 single 5.5559036818887 22.2236147275548 ${z0} mol bs 24987 units box remap yes rotate 0 0 0 1
create_atoms  1 single 5.5559036818887 22.2236147275548 17 mol bs 24987 units box remap yes rotate 0 0 0 1
Created 30 atoms
  create_atoms CPU = 0.0001697 secs
variable      check1 equal ${check}
variable      check1 equal 8116
if            "${check1} != ${check0}" then "create_bonds  single/bond 2 ${randatomj} $b" "next j"
create_bonds  single/bond 2 ${randatomj} $b
create_bonds  single/bond 2 7211 $b
create_bonds  single/bond 2 7211 8087
  2 = max # of 1-2 neighbors
  5 = max # of special neighbors
  special bonds CPU = 0.0022733 secs
next j
jump MDPBB.in loopj
variable      randnj equal round(random(v_ntop0,$(v_ntop0 + v_nbwall0),$s))
variable      randnj equal round(random(v_ntop0,7576,$s))
variable      randnj equal round(random(v_ntop0,7576,234897))
variable      randatomj equal ${randnj}
variable      randatomj equal 5478
variable      randzj equal z[${randatomj}]
variable      randzj equal z[5478]
if            "${randzj} < $(v_wthick - 0.7)" then "jump MDPBB.in loopj"
jump MDPBB.in loopj
variable      randnj equal round(random(v_ntop0,$(v_ntop0 + v_nbwall0),$s))
variable      randnj equal round(random(v_ntop0,7576,$s))
variable      randnj equal round(random(v_ntop0,7576,234897))
variable      randatomj equal ${randnj}
variable      randatomj equal 4755
variable      randzj equal z[${randatomj}]
variable      randzj equal z[4755]
if            "${randzj} < $(v_wthick - 0.7)" then "jump MDPBB.in loopj"
jump MDPBB.in loopj
variable      randnj equal round(random(v_ntop0,$(v_ntop0 + v_nbwall0),$s))
variable      randnj equal round(random(v_ntop0,7576,$s))
variable      randnj equal round(random(v_ntop0,7576,234897))
variable      randatomj equal ${randnj}
variable      randatomj equal 7547
variable      randzj equal z[${randatomj}]
variable      randzj equal z[7547]
if            "${randzj} < $(v_wthick - 0.7)" then "jump MDPBB.in loopj"
set           atom ${randatomj} type 4
set           atom 7547 type 4
  1 settings made for type
group         bwg id ${randatomj}                         # Add this atom to a bot-wall-grafted group
group         bwg id 7547                         
19 atoms in group bwg
variable      bwgcount equal count(bwg)
print         "bwg contains ${bwgcount}"
bwg contains 19
print         "j = $(v_j)"
j = 19
variable      x0 equal x[${randatomj}]
variable      x0 equal x[7547]
variable      y0 equal y[${randatomj}]
variable      y0 equal y[7547]
variable      check0 equal ${check}
variable      check0 equal 8116
variable      b equal ${check}+1
variable      b equal 8116+1
if            "${bwgcount} != $(v_j)" then "jump MDPBB.in loopj"
create_atoms  1 single ${x0} ${y0} ${z0} mol bs 24987 units box remap yes rotate 0 0 0 1
create_atoms  1 single 18.2551120976343 ${y0} ${z0} mol bs 24987 units box remap yes rotate 0 0 0 1
create_atoms  1 single 18.2551120976343 28.5732189354276 ${z0} mol bs 24987 units box remap yes rotate 0 0 0 1
create_atoms  1 single 18.2551120976343 28.5732189354276 17 mol bs 24987 units box remap yes rotate 0 0 0 1
Created 30 atoms
  create_atoms CPU = 0.0001545 secs
variable      check1 equal ${check}
variable      check1 equal 8146
if            "${check1} != ${check0}" then "create_bonds  single/bond 2 ${randatomj} $b" "next j"
create_bonds  single/bond 2 ${randatomj} $b
create_bonds  single/bond 2 7547 $b
create_bonds  single/bond 2 7547 8117
  2 = max # of 1-2 neighbors
  5 = max # of special neighbors
  special bonds CPU = 0.0037815 secs
next j
jump MDPBB.in loopj
variable      randnj equal round(random(v_ntop0,$(v_ntop0 + v_nbwall0),$s))
variable      randnj equal round(random(v_ntop0,7576,$s))
variable      randnj equal round(random(v_ntop0,7576,234897))
variable      randatomj equal ${randnj}
variable      randatomj equal 7251
variable      randzj equal z[${randatomj}]
variable      randzj equal z[7251]
if            "${randzj} < $(v_wthick - 0.7)" then "jump MDPBB.in loopj"
set           atom ${randatomj} type 4
set           atom 7251 type 4
  1 settings made for type
group         bwg id ${randatomj}                         # Add this atom to a bot-wall-grafted group
group         bwg id 7251                         
20 atoms in group bwg
variable      bwgcount equal count(bwg)
print         "bwg contains ${bwgcount}"
bwg contains 20
print         "j = $(v_j)"
j = 20
variable      x0 equal x[${randatomj}]
variable      x0 equal x[7251]
variable      y0 equal y[${randatomj}]
variable      y0 equal y[7251]
variable      check0 equal ${check}
variable      check0 equal 8146
variable      b equal ${check}+1
variable      b equal 8146+1
if            "${bwgcount} != $(v_j)" then "jump MDPBB.in loopj"
create_atoms  1 single ${x0} ${y0} ${z0} mol bs 24987 units box remap yes rotate 0 0 0 1
create_atoms  1 single 21.4299142015707 ${y0} ${z0} mol bs 24987 units box remap yes rotate 0 0 0 1
create_atoms  1 single 21.4299142015707 22.2236147275548 ${z0} mol bs 24987 units box remap yes rotate 0 0 0 1
create_atoms  1 single 21.4299142015707 22.2236147275548 17 mol bs 24987 units box remap yes rotate 0 0 0 1
Created 30 atoms
  create_atoms CPU = 0.0001505 secs
variable      check1 equal ${check}
variable      check1 equal 8176
if            "${check1} != ${check0}" then "create_bonds  single/bond 2 ${randatomj} $b" "next j"
create_bonds  single/bond 2 ${randatomj} $b
create_bonds  single/bond 2 7251 $b
create_bonds  single/bond 2 7251 8147
  2 = max # of 1-2 neighbors
  5 = max # of special neighbors
  special bonds CPU = 0.0039275 secs
next j
jump MDPBB.in loopj
variable      randnj equal round(random(v_ntop0,$(v_ntop0 + v_nbwall0),$s))
variable      randnj equal round(random(v_ntop0,7576,$s))
variable      randnj equal round(random(v_ntop0,7576,234897))
variable      randatomj equal ${randnj}
variable      randatomj equal 5772
variable      randzj equal z[${randatomj}]
variable      randzj equal z[5772]
if            "${randzj} < $(v_wthick - 0.7)" then "jump MDPBB.in loopj"
jump MDPBB.in loopj
variable      randnj equal round(random(v_ntop0,$(v_ntop0 + v_nbwall0),$s))
variable      randnj equal round(random(v_ntop0,7576,$s))
variable      randnj equal round(random(v_ntop0,7576,234897))
variable      randatomj equal ${randnj}
variable      randatomj equal 7515
variable      randzj equal z[${randatomj}]
variable      randzj equal z[7515]
if            "${randzj} < $(v_wthick - 0.7)" then "jump MDPBB.in loopj"
set           atom ${randatomj} type 4
set           atom 7515 type 4
  1 settings made for type
group         bwg id ${randatomj}                         # Add this atom to a bot-wall-grafted group
group         bwg id 7515                         
21 atoms in group bwg
variable      bwgcount equal count(bwg)
print         "bwg contains ${bwgcount}"
bwg contains 21
print         "j = $(v_j)"
j = 21
variable      x0 equal x[${randatomj}]
variable      x0 equal x[7515]
variable      y0 equal y[${randatomj}]
variable      y0 equal y[7515]
variable      check0 equal ${check}
variable      check0 equal 8176
variable      b equal ${check}+1
variable      b equal 8176+1
if            "${bwgcount} != $(v_j)" then "jump MDPBB.in loopj"
create_atoms  1 single ${x0} ${y0} ${z0} mol bs 24987 units box remap yes rotate 0 0 0 1
create_atoms  1 single 5.5559036818887 ${y0} ${z0} mol bs 24987 units box remap yes rotate 0 0 0 1
create_atoms  1 single 5.5559036818887 28.5732189354276 ${z0} mol bs 24987 units box remap yes rotate 0 0 0 1
create_atoms  1 single 5.5559036818887 28.5732189354276 17 mol bs 24987 units box remap yes rotate 0 0 0 1
Created 30 atoms
  create_atoms CPU = 0.0001819 secs
variable      check1 equal ${check}
variable      check1 equal 8206
if            "${check1} != ${check0}" then "create_bonds  single/bond 2 ${randatomj} $b" "next j"
create_bonds  single/bond 2 ${randatomj} $b
create_bonds  single/bond 2 7515 $b
create_bonds  single/bond 2 7515 8177
  2 = max # of 1-2 neighbors
  5 = max # of special neighbors
  special bonds CPU = 0.0036623 secs
next j
jump MDPBB.in loopj
variable      randnj equal round(random(v_ntop0,$(v_ntop0 + v_nbwall0),$s))
variable      randnj equal round(random(v_ntop0,7576,$s))
variable      randnj equal round(random(v_ntop0,7576,234897))
variable      randatomj equal ${randnj}
variable      randatomj equal 7113
variable      randzj equal z[${randatomj}]
variable      randzj equal z[7113]
if            "${randzj} < $(v_wthick - 0.7)" then "jump MDPBB.in loopj"
jump MDPBB.in loopj
variable      randnj equal round(random(v_ntop0,$(v_ntop0 + v_nbwall0),$s))
variable      randnj equal round(random(v_ntop0,7576,$s))
variable      randnj equal round(random(v_ntop0,7576,234897))
variable      randatomj equal ${randnj}
variable      randatomj equal 6791
variable      randzj equal z[${randatomj}]
variable      randzj equal z[6791]
if            "${randzj} < $(v_wthick - 0.7)" then "jump MDPBB.in loopj"
set           atom ${randatomj} type 4
set           atom 6791 type 4
  1 settings made for type
group         bwg id ${randatomj}                         # Add this atom to a bot-wall-grafted group
group         bwg id 6791                         
22 atoms in group bwg
variable      bwgcount equal count(bwg)
print         "bwg contains ${bwgcount}"
bwg contains 22
print         "j = $(v_j)"
j = 22
variable      x0 equal x[${randatomj}]
variable      x0 equal x[6791]
variable      y0 equal y[${randatomj}]
variable      y0 equal y[6791]
variable      check0 equal ${check}
variable      check0 equal 8206
variable      b equal ${check}+1
variable      b equal 8206+1
if            "${bwgcount} != $(v_j)" then "jump MDPBB.in loopj"
create_atoms  1 single ${x0} ${y0} ${z0} mol bs 24987 units box remap yes rotate 0 0 0 1
create_atoms  1 single 19.8425131496025 ${y0} ${z0} mol bs 24987 units box remap yes rotate 0 0 0 1
create_atoms  1 single 19.8425131496025 12.6992084157456 ${z0} mol bs 24987 units box remap yes rotate 0 0 0 1
create_atoms  1 single 19.8425131496025 12.6992084157456 17 mol bs 24987 units box remap yes rotate 0 0 0 1
Created 30 atoms
  create_atoms CPU = 0.0001852 secs
variable      check1 equal ${check}
variable      check1 equal 8236
if            "${check1} != ${check0}" then "create_bonds  single/bond 2 ${randatomj} $b" "next j"
create_bonds  single/bond 2 ${randatomj} $b
create_bonds  single/bond 2 6791 $b
create_bonds  single/bond 2 6791 8207
  2 = max # of 1-2 neighbors
  5 = max # of special neighbors
  special bonds CPU = 0.0040478 secs
next j
jump MDPBB.in loopj
variable      randnj equal round(random(v_ntop0,$(v_ntop0 + v_nbwall0),$s))
variable      randnj equal round(random(v_ntop0,7576,$s))
variable      randnj equal round(random(v_ntop0,7576,234897))
variable      randatomj equal ${randnj}
variable      randatomj equal 6522
variable      randzj equal z[${randatomj}]
variable      randzj equal z[6522]
if            "${randzj} < $(v_wthick - 0.7)" then "jump MDPBB.in loopj"
jump MDPBB.in loopj
variable      randnj equal round(random(v_ntop0,$(v_ntop0 + v_nbwall0),$s))
variable      randnj equal round(random(v_ntop0,7576,$s))
variable      randnj equal round(random(v_ntop0,7576,234897))
variable      randatomj equal ${randnj}
variable      randatomj equal 4886
variable      randzj equal z[${randatomj}]
variable      randzj equal z[4886]
if            "${randzj} < $(v_wthick - 0.7)" then "jump MDPBB.in loopj"
jump MDPBB.in loopj
variable      randnj equal round(random(v_ntop0,$(v_ntop0 + v_nbwall0),$s))
variable      randnj equal round(random(v_ntop0,7576,$s))
variable      randnj equal round(random(v_ntop0,7576,234897))
variable      randatomj equal ${randnj}
variable      randatomj equal 6664
variable      randzj equal z[${randatomj}]
variable      randzj equal z[6664]
if            "${randzj} < $(v_wthick - 0.7)" then "jump MDPBB.in loopj"
set           atom ${randatomj} type 4
set           atom 6664 type 4
  1 settings made for type
group         bwg id ${randatomj}                         # Add this atom to a bot-wall-grafted group
group         bwg id 6664                         
23 atoms in group bwg
variable      bwgcount equal count(bwg)
print         "bwg contains ${bwgcount}"
bwg contains 23
print         "j = $(v_j)"
j = 23
variable      x0 equal x[${randatomj}]
variable      x0 equal x[6664]
variable      y0 equal y[${randatomj}]
variable      y0 equal y[6664]
variable      check0 equal ${check}
variable      check0 equal 8236
variable      b equal ${check}+1
variable      b equal 8236+1
if            "${bwgcount} != $(v_j)" then "jump MDPBB.in loopj"
create_atoms  1 single ${x0} ${y0} ${z0} mol bs 24987 units box remap yes rotate 0 0 0 1
create_atoms  1 single 28.5732189354276 ${y0} ${z0} mol bs 24987 units box remap yes rotate 0 0 0 1
create_atoms  1 single 28.5732189354276 10.3181068377933 ${z0} mol bs 24987 units box remap yes rotate 0 0 0 1
create_atoms  1 single 28.5732189354276 10.3181068377933 17 mol bs 24987 units box remap yes rotate 0 0 0 1
Created 30 atoms
  create_atoms CPU = 0.0001907 secs
variable      check1 equal ${check}
variable      check1 equal 8266
if            "${check1} != ${check0}" then "create_bonds  single/bond 2 ${randatomj} $b" "next j"
create_bonds  single/bond 2 ${randatomj} $b
create_bonds  single/bond 2 6664 $b
create_bonds  single/bond 2 6664 8237
  2 = max # of 1-2 neighbors
  5 = max # of special neighbors
  special bonds CPU = 0.0042806 secs
next j
jump MDPBB.in loopj
variable      randnj equal round(random(v_ntop0,$(v_ntop0 + v_nbwall0),$s))
variable      randnj equal round(random(v_ntop0,7576,$s))
variable      randnj equal round(random(v_ntop0,7576,234897))
variable      randatomj equal ${randnj}
variable      randatomj equal 5477
variable      randzj equal z[${randatomj}]
variable      randzj equal z[5477]
if            "${randzj} < $(v_wthick - 0.7)" then "jump MDPBB.in loopj"
jump MDPBB.in loopj
variable      randnj equal round(random(v_ntop0,$(v_ntop0 + v_nbwall0),$s))
variable      randnj equal round(random(v_ntop0,7576,$s))
variable      randnj equal round(random(v_ntop0,7576,234897))
variable      randatomj equal ${randnj}
variable      randatomj equal 6947
variable      randzj equal z[${randatomj}]
variable      randzj equal z[6947]
if            "${randzj} < $(v_wthick - 0.7)" then "jump MDPBB.in loopj"
set           atom ${randatomj} type 4
set           atom 6947 type 4
  1 settings made for type
group         bwg id ${randatomj}                         # Add this atom to a bot-wall-grafted group
group         bwg id 6947                         
24 atoms in group bwg
variable      bwgcount equal count(bwg)
print         "bwg contains ${bwgcount}"
bwg contains 24
print         "j = $(v_j)"
j = 24
variable      x0 equal x[${randatomj}]
variable      x0 equal x[6947]
variable      y0 equal y[${randatomj}]
variable      y0 equal y[6947]
variable      check0 equal ${check}
variable      check0 equal 8266
variable      b equal ${check}+1
variable      b equal 8266+1
if            "${bwgcount} != $(v_j)" then "jump MDPBB.in loopj"
create_atoms  1 single ${x0} ${y0} ${z0} mol bs 24987 units box remap yes rotate 0 0 0 1
create_atoms  1 single 21.4299142015707 ${y0} ${z0} mol bs 24987 units box remap yes rotate 0 0 0 1
create_atoms  1 single 21.4299142015707 15.874010519682 ${z0} mol bs 24987 units box remap yes rotate 0 0 0 1
create_atoms  1 single 21.4299142015707 15.874010519682 17 mol bs 24987 units box remap yes rotate 0 0 0 1
Created 30 atoms
  create_atoms CPU = 0.0001851 secs
variable      check1 equal ${check}
variable      check1 equal 8296
if            "${check1} != ${check0}" then "create_bonds  single/bond 2 ${randatomj} $b" "next j"
create_bonds  single/bond 2 ${randatomj} $b
create_bonds  single/bond 2 6947 $b
create_bonds  single/bond 2 6947 8267
  2 = max # of 1-2 neighbors
  5 = max # of special neighbors
  special bonds CPU = 0.0023372 secs
next j
jump MDPBB.in loopj
variable      randnj equal round(random(v_ntop0,$(v_ntop0 + v_nbwall0),$s))
variable      randnj equal round(random(v_ntop0,7576,$s))
variable      randnj equal round(random(v_ntop0,7576,234897))
variable      randatomj equal ${randnj}
variable      randatomj equal 6285
variable      randzj equal z[${randatomj}]
variable      randzj equal z[6285]
if            "${randzj} < $(v_wthick - 0.7)" then "jump MDPBB.in loopj"
jump MDPBB.in loopj
variable      randnj equal round(random(v_ntop0,$(v_ntop0 + v_nbwall0),$s))
variable      randnj equal round(random(v_ntop0,7576,$s))
variable      randnj equal round(random(v_ntop0,7576,234897))
variable      randatomj equal ${randnj}
variable      randatomj equal 4764
variable      randzj equal z[${randatomj}]
variable      randzj equal z[4764]
if            "${randzj} < $(v_wthick - 0.7)" then "jump MDPBB.in loopj"
jump MDPBB.in loopj
variable      randnj equal round(random(v_ntop0,$(v_ntop0 + v_nbwall0),$s))
variable      randnj equal round(random(v_ntop0,7576,$s))
variable      randnj equal round(random(v_ntop0,7576,234897))
variable      randatomj equal ${randnj}
variable      randatomj equal 5651
variable      randzj equal z[${randatomj}]
variable      randzj equal z[5651]
if            "${randzj} < $(v_wthick - 0.7)" then "jump MDPBB.in loopj"
jump MDPBB.in loopj
variable      randnj equal round(random(v_ntop0,$(v_ntop0 + v_nbwall0),$s))
variable      randnj equal round(random(v_ntop0,7576,$s))
variable      randnj equal round(random(v_ntop0,7576,234897))
variable      randatomj equal ${randnj}
variable      randatomj equal 6965
variable      randzj equal z[${randatomj}]
variable      randzj equal z[6965]
if            "${randzj} < $(v_wthick - 0.7)" then "jump MDPBB.in loopj"
jump MDPBB.in loopj
variable      randnj equal round(random(v_ntop0,$(v_ntop0 + v_nbwall0),$s))
variable      randnj equal round(random(v_ntop0,7576,$s))
variable      randnj equal round(random(v_ntop0,7576,234897))
variable      randatomj equal ${randnj}
variable      randatomj equal 6883
variable      randzj equal z[${randatomj}]
variable      randzj equal z[6883]
if            "${randzj} < $(v_wthick - 0.7)" then "jump MDPBB.in loopj"
set           atom ${randatomj} type 4
set           atom 6883 type 4
  1 settings made for type
group         bwg id ${randatomj}                         # Add this atom to a bot-wall-grafted group
group         bwg id 6883                         
25 atoms in group bwg
variable      bwgcount equal count(bwg)
print         "bwg contains ${bwgcount}"
bwg contains 25
print         "j = $(v_j)"
j = 25
variable      x0 equal x[${randatomj}]
variable      x0 equal x[6883]
variable      y0 equal y[${randatomj}]
variable      y0 equal y[6883]
variable      check0 equal ${check}
variable      check0 equal 8296
variable      b equal ${check}+1
variable      b equal 8296+1
if            "${bwgcount} != $(v_j)" then "jump MDPBB.in loopj"
create_atoms  1 single ${x0} ${y0} ${z0} mol bs 24987 units box remap yes rotate 0 0 0 1
create_atoms  1 single 26.1921173574753 ${y0} ${z0} mol bs 24987 units box remap yes rotate 0 0 0 1
create_atoms  1 single 26.1921173574753 14.2866094677138 ${z0} mol bs 24987 units box remap yes rotate 0 0 0 1
create_atoms  1 single 26.1921173574753 14.2866094677138 17 mol bs 24987 units box remap yes rotate 0 0 0 1
Created 30 atoms
  create_atoms CPU = 0.0001832 secs
variable      check1 equal ${check}
variable      check1 equal 8326
if            "${check1} != ${check0}" then "create_bonds  single/bond 2 ${randatomj} $b" "next j"
create_bonds  single/bond 2 ${randatomj} $b
create_bonds  single/bond 2 6883 $b
create_bonds  single/bond 2 6883 8297
  2 = max # of 1-2 neighbors
  5 = max # of special neighbors
  special bonds CPU = 0.0052389 secs
next j
jump MDPBB.in loopj
variable      randnj equal round(random(v_ntop0,$(v_ntop0 + v_nbwall0),$s))
variable      randnj equal round(random(v_ntop0,7576,$s))
variable      randnj equal round(random(v_ntop0,7576,234897))
variable      randatomj equal ${randnj}
variable      randatomj equal 5653
variable      randzj equal z[${randatomj}]
variable      randzj equal z[5653]
if            "${randzj} < $(v_wthick - 0.7)" then "jump MDPBB.in loopj"
jump MDPBB.in loopj
variable      randnj equal round(random(v_ntop0,$(v_ntop0 + v_nbwall0),$s))
variable      randnj equal round(random(v_ntop0,7576,$s))
variable      randnj equal round(random(v_ntop0,7576,234897))
variable      randatomj equal ${randnj}
variable      randatomj equal 4816
variable      randzj equal z[${randatomj}]
variable      randzj equal z[4816]
if            "${randzj} < $(v_wthick - 0.7)" then "jump MDPBB.in loopj"
jump MDPBB.in loopj
variable      randnj equal round(random(v_ntop0,$(v_ntop0 + v_nbwall0),$s))
variable      randnj equal round(random(v_ntop0,7576,$s))
variable      randnj equal round(random(v_ntop0,7576,234897))
variable      randatomj equal ${randnj}
variable      randatomj equal 5385
variable      randzj equal z[${randatomj}]
variable      randzj equal z[5385]
if            "${randzj} < $(v_wthick - 0.7)" then "jump MDPBB.in loopj"
jump MDPBB.in loopj
variable      randnj equal round(random(v_ntop0,$(v_ntop0 + v_nbwall0),$s))
variable      randnj equal round(random(v_ntop0,7576,$s))
variable      randnj equal round(random(v_ntop0,7576,234897))
variable      randatomj equal ${randnj}
variable      randatomj equal 7030
variable      randzj equal z[${randatomj}]
variable      randzj equal z[7030]
if            "${randzj} < $(v_wthick - 0.7)" then "jump MDPBB.in loopj"
jump MDPBB.in loopj
variable      randnj equal round(random(v_ntop0,$(v_ntop0 + v_nbwall0),$s))
variable      randnj equal round(random(v_ntop0,7576,$s))
variable      randnj equal round(random(v_ntop0,7576,234897))
variable      randatomj equal ${randnj}
variable      randatomj equal 5160
variable      randzj equal z[${randatomj}]
variable      randzj equal z[5160]
if            "${randzj} < $(v_wthick - 0.7)" then "jump MDPBB.in loopj"
jump MDPBB.in loopj
variable      randnj equal round(random(v_ntop0,$(v_ntop0 + v_nbwall0),$s))
variable      randnj equal round(random(v_ntop0,7576,$s))
variable      randnj equal round(random(v_ntop0,7576,234897))
variable      randatomj equal ${randnj}
variable      randatomj equal 7535
variable      randzj equal z[${randatomj}]
variable      randzj equal z[7535]
if            "${randzj} < $(v_wthick - 0.7)" then "jump MDPBB.in loopj"
set           atom ${randatomj} type 4
set           atom 7535 type 4
  1 settings made for type
group         bwg id ${randatomj}                         # Add this atom to a bot-wall-grafted group
group         bwg id 7535                         
26 atoms in group bwg
variable      bwgcount equal count(bwg)
print         "bwg contains ${bwgcount}"
bwg contains 26
print         "j = $(v_j)"
j = 26
variable      x0 equal x[${randatomj}]
variable      x0 equal x[7535]
variable      y0 equal y[${randatomj}]
variable      y0 equal y[7535]
variable      check0 equal ${check}
variable      check0 equal 8326
variable      b equal ${check}+1
variable      b equal 8326+1
if            "${bwgcount} != $(v_j)" then "jump MDPBB.in loopj"
create_atoms  1 single ${x0} ${y0} ${z0} mol bs 24987 units box remap yes rotate 0 0 0 1
create_atoms  1 single 13.4929089417297 ${y0} ${z0} mol bs 24987 units box remap yes rotate 0 0 0 1
create_atoms  1 single 13.4929089417297 28.5732189354276 ${z0} mol bs 24987 units box remap yes rotate 0 0 0 1
create_atoms  1 single 13.4929089417297 28.5732189354276 17 mol bs 24987 units box remap yes rotate 0 0 0 1
Created 30 atoms
  create_atoms CPU = 0.0002318 secs
variable      check1 equal ${check}
variable      check1 equal 8356
if            "${check1} != ${check0}" then "create_bonds  single/bond 2 ${randatomj} $b" "next j"
create_bonds  single/bond 2 ${randatomj} $b
create_bonds  single/bond 2 7535 $b
create_bonds  single/bond 2 7535 8327
  2 = max # of 1-2 neighbors
  5 = max # of special neighbors
  special bonds CPU = 0.0034743 secs
next j
jump MDPBB.in loopj
variable      randnj equal round(random(v_ntop0,$(v_ntop0 + v_nbwall0),$s))
variable      randnj equal round(random(v_ntop0,7576,$s))
variable      randnj equal round(random(v_ntop0,7576,234897))
variable      randatomj equal ${randnj}
variable      randatomj equal 5526
variable      randzj equal z[${randatomj}]
variable      randzj equal z[5526]
if            "${randzj} < $(v_wthick - 0.7)" then "jump MDPBB.in loopj"
jump MDPBB.in loopj
variable      randnj equal round(random(v_ntop0,$(v_ntop0 + v_nbwall0),$s))
variable      randnj equal round(random(v_ntop0,7576,$s))
variable      randnj equal round(random(v_ntop0,7576,234897))
variable      randatomj equal ${randnj}
variable      randatomj equal 5948
variable      randzj equal z[${randatomj}]
variable      randzj equal z[5948]
if            "${randzj} < $(v_wthick - 0.7)" then "jump MDPBB.in loopj"
jump MDPBB.in loopj
variable      randnj equal round(random(v_ntop0,$(v_ntop0 + v_nbwall0),$s))
variable      randnj equal round(random(v_ntop0,7576,$s))
variable      randnj equal round(random(v_ntop0,7576,234897))
variable      randatomj equal ${randnj}
variable      randatomj equal 4722
variable      randzj equal z[${randatomj}]
variable      randzj equal z[4722]
if            "${randzj} < $(v_wthick - 0.7)" then "jump MDPBB.in loopj"
jump MDPBB.in loopj
variable      randnj equal round(random(v_ntop0,$(v_ntop0 + v_nbwall0),$s))
variable      randnj equal round(random(v_ntop0,7576,$s))
variable      randnj equal round(random(v_ntop0,7576,234897))
variable      randatomj equal ${randnj}
variable      randatomj equal 6284
variable      randzj equal z[${randatomj}]
variable      randzj equal z[6284]
if            "${randzj} < $(v_wthick - 0.7)" then "jump MDPBB.in loopj"
set           atom ${randatomj} type 4
set           atom 6284 type 4
  1 settings made for type
group         bwg id ${randatomj}                         # Add this atom to a bot-wall-grafted group
group         bwg id 6284                         
27 atoms in group bwg
variable      bwgcount equal count(bwg)
print         "bwg contains ${bwgcount}"
bwg contains 27
print         "j = $(v_j)"
j = 27
variable      x0 equal x[${randatomj}]
variable      x0 equal x[6284]
variable      y0 equal y[${randatomj}]
variable      y0 equal y[6284]
variable      check0 equal ${check}
variable      check0 equal 8356
variable      b equal ${check}+1
variable      b equal 8356+1
if            "${bwgcount} != $(v_j)" then "jump MDPBB.in loopj"
create_atoms  1 single ${x0} ${y0} ${z0} mol bs 24987 units box remap yes rotate 0 0 0 1
create_atoms  1 single 28.5732189354276 ${y0} ${z0} mol bs 24987 units box remap yes rotate 0 0 0 1
create_atoms  1 single 28.5732189354276 2.3811015779523 ${z0} mol bs 24987 units box remap yes rotate 0 0 0 1
create_atoms  1 single 28.5732189354276 2.3811015779523 17 mol bs 24987 units box remap yes rotate 0 0 0 1
Created 30 atoms
  create_atoms CPU = 0.0002188 secs
variable      check1 equal ${check}
variable      check1 equal 8386
if            "${check1} != ${check0}" then "create_bonds  single/bond 2 ${randatomj} $b" "next j"
create_bonds  single/bond 2 ${randatomj} $b
create_bonds  single/bond 2 6284 $b
create_bonds  single/bond 2 6284 8357
  2 = max # of 1-2 neighbors
  5 = max # of special neighbors
  special bonds CPU = 0.0023217 secs
next j
jump MDPBB.in loopj
variable      randnj equal round(random(v_ntop0,$(v_ntop0 + v_nbwall0),$s))
variable      randnj equal round(random(v_ntop0,7576,$s))
variable      randnj equal round(random(v_ntop0,7576,234897))
variable      randatomj equal ${randnj}
variable      randatomj equal 6159
variable      randzj equal z[${randatomj}]
variable      randzj equal z[6159]
if            "${randzj} < $(v_wthick - 0.7)" then "jump MDPBB.in loopj"
set           atom ${randatomj} type 4
set           atom 6159 type 4
  1 settings made for type
group         bwg id ${randatomj}                         # Add this atom to a bot-wall-grafted group
group         bwg id 6159                         
28 atoms in group bwg
variable      bwgcount equal count(bwg)
print         "bwg contains ${bwgcount}"
bwg contains 28
print         "j = $(v_j)"
j = 28
variable      x0 equal x[${randatomj}]
variable      x0 equal x[6159]
variable      y0 equal y[${randatomj}]
variable      y0 equal y[6159]
variable      check0 equal ${check}
variable      check0 equal 8386
variable      b equal ${check}+1
variable      b equal 8386+1
if            "${bwgcount} != $(v_j)" then "jump MDPBB.in loopj"
create_atoms  1 single ${x0} ${y0} ${z0} mol bs 24987 units box remap yes rotate 0 0 0 1
create_atoms  1 single 10.3181068377933 ${y0} ${z0} mol bs 24987 units box remap yes rotate 0 0 0 1
create_atoms  1 single 10.3181068377933 0 ${z0} mol bs 24987 units box remap yes rotate 0 0 0 1
create_atoms  1 single 10.3181068377933 0 17 mol bs 24987 units box remap yes rotate 0 0 0 1
Created 30 atoms
  create_atoms CPU = 0.0001483 secs
variable      check1 equal ${check}
variable      check1 equal 8416
if            "${check1} != ${check0}" then "create_bonds  single/bond 2 ${randatomj} $b" "next j"
create_bonds  single/bond 2 ${randatomj} $b
create_bonds  single/bond 2 6159 $b
create_bonds  single/bond 2 6159 8387
  2 = max # of 1-2 neighbors
  5 = max # of special neighbors
  special bonds CPU = 0.0024606 secs
next j
jump MDPBB.in loopj
variable      randnj equal round(random(v_ntop0,$(v_ntop0 + v_nbwall0),$s))
variable      randnj equal round(random(v_ntop0,7576,$s))
variable      randnj equal round(random(v_ntop0,7576,234897))
variable      randatomj equal ${randnj}
variable      randatomj equal 7135
variable      randzj equal z[${randatomj}]
variable      randzj equal z[7135]
if            "${randzj} < $(v_wthick - 0.7)" then "jump MDPBB.in loopj"
set           atom ${randatomj} type 4
set           atom 7135 type 4
  1 settings made for type
group         bwg id ${randatomj}                         # Add this atom to a bot-wall-grafted group
group         bwg id 7135                         
29 atoms in group bwg
variable      bwgcount equal count(bwg)
print         "bwg contains ${bwgcount}"
bwg contains 29
print         "j = $(v_j)"
j = 29
variable      x0 equal x[${randatomj}]
variable      x0 equal x[7135]
variable      y0 equal y[${randatomj}]
variable      y0 equal y[7135]
variable      check0 equal ${check}
variable      check0 equal 8416
variable      b equal ${check}+1
variable      b equal 8416+1
if            "${bwgcount} != $(v_j)" then "jump MDPBB.in loopj"
create_atoms  1 single ${x0} ${y0} ${z0} mol bs 24987 units box remap yes rotate 0 0 0 1
create_atoms  1 single 5.5559036818887 ${y0} ${z0} mol bs 24987 units box remap yes rotate 0 0 0 1
create_atoms  1 single 5.5559036818887 20.6362136755866 ${z0} mol bs 24987 units box remap yes rotate 0 0 0 1
create_atoms  1 single 5.5559036818887 20.6362136755866 17 mol bs 24987 units box remap yes rotate 0 0 0 1
Created 30 atoms
  create_atoms CPU = 0.000145 secs
variable      check1 equal ${check}
variable      check1 equal 8446
if            "${check1} != ${check0}" then "create_bonds  single/bond 2 ${randatomj} $b" "next j"
create_bonds  single/bond 2 ${randatomj} $b
create_bonds  single/bond 2 7135 $b
create_bonds  single/bond 2 7135 8417
  2 = max # of 1-2 neighbors
  5 = max # of special neighbors
  special bonds CPU = 0.0028125 secs
next j
jump MDPBB.in loopj
variable      randnj equal round(random(v_ntop0,$(v_ntop0 + v_nbwall0),$s))
variable      randnj equal round(random(v_ntop0,7576,$s))
variable      randnj equal round(random(v_ntop0,7576,234897))
variable      randatomj equal ${randnj}
variable      randatomj equal 7527
variable      randzj equal z[${randatomj}]
variable      randzj equal z[7527]
if            "${randzj} < $(v_wthick - 0.7)" then "jump MDPBB.in loopj"
set           atom ${randatomj} type 4
set           atom 7527 type 4
  1 settings made for type
group         bwg id ${randatomj}                         # Add this atom to a bot-wall-grafted group
group         bwg id 7527                         
30 atoms in group bwg
variable      bwgcount equal count(bwg)
print         "bwg contains ${bwgcount}"
bwg contains 30
print         "j = $(v_j)"
j = 30
variable      x0 equal x[${randatomj}]
variable      x0 equal x[7527]
variable      y0 equal y[${randatomj}]
variable      y0 equal y[7527]
variable      check0 equal ${check}
variable      check0 equal 8446
variable      b equal ${check}+1
variable      b equal 8446+1
if            "${bwgcount} != $(v_j)" then "jump MDPBB.in loopj"
create_atoms  1 single ${x0} ${y0} ${z0} mol bs 24987 units box remap yes rotate 0 0 0 1
create_atoms  1 single 10.3181068377933 ${y0} ${z0} mol bs 24987 units box remap yes rotate 0 0 0 1
create_atoms  1 single 10.3181068377933 28.5732189354276 ${z0} mol bs 24987 units box remap yes rotate 0 0 0 1
create_atoms  1 single 10.3181068377933 28.5732189354276 17 mol bs 24987 units box remap yes rotate 0 0 0 1
Created 30 atoms
  create_atoms CPU = 0.0001886 secs
variable      check1 equal ${check}
variable      check1 equal 8476
if            "${check1} != ${check0}" then "create_bonds  single/bond 2 ${randatomj} $b" "next j"
create_bonds  single/bond 2 ${randatomj} $b
create_bonds  single/bond 2 7527 $b
create_bonds  single/bond 2 7527 8447
  2 = max # of 1-2 neighbors
  5 = max # of special neighbors
  special bonds CPU = 0.0034927 secs
next j
jump MDPBB.in loopj
variable      randnj equal round(random(v_ntop0,$(v_ntop0 + v_nbwall0),$s))
variable      randnj equal round(random(v_ntop0,7576,$s))
variable      randnj equal round(random(v_ntop0,7576,234897))
variable      randatomj equal ${randnj}
variable      randatomj equal 7524
variable      randzj equal z[${randatomj}]
variable      randzj equal z[7524]
if            "${randzj} < $(v_wthick - 0.7)" then "jump MDPBB.in loopj"
set           atom ${randatomj} type 4
set           atom 7524 type 4
  1 settings made for type
group         bwg id ${randatomj}                         # Add this atom to a bot-wall-grafted group
group         bwg id 7524                         
31 atoms in group bwg
variable      bwgcount equal count(bwg)
print         "bwg contains ${bwgcount}"
bwg contains 31
print         "j = $(v_j)"
j = 31
variable      x0 equal x[${randatomj}]
variable      x0 equal x[7524]
variable      y0 equal y[${randatomj}]
variable      y0 equal y[7524]
variable      check0 equal ${check}
variable      check0 equal 8476
variable      b equal ${check}+1
variable      b equal 8476+1
if            "${bwgcount} != $(v_j)" then "jump MDPBB.in loopj"
create_atoms  1 single ${x0} ${y0} ${z0} mol bs 24987 units box remap yes rotate 0 0 0 1
create_atoms  1 single 7.937005259841 ${y0} ${z0} mol bs 24987 units box remap yes rotate 0 0 0 1
create_atoms  1 single 7.937005259841 29.3669194614117 ${z0} mol bs 24987 units box remap yes rotate 0 0 0 1
create_atoms  1 single 7.937005259841 29.3669194614117 17 mol bs 24987 units box remap yes rotate 0 0 0 1
Created 30 atoms
  create_atoms CPU = 0.0001456 secs
variable      check1 equal ${check}
variable      check1 equal 8506
if            "${check1} != ${check0}" then "create_bonds  single/bond 2 ${randatomj} $b" "next j"
create_bonds  single/bond 2 ${randatomj} $b
create_bonds  single/bond 2 7524 $b
create_bonds  single/bond 2 7524 8477
  2 = max # of 1-2 neighbors
  5 = max # of special neighbors
  special bonds CPU = 0.0045987 secs
next j
jump MDPBB.in loopj
variable      randnj equal round(random(v_ntop0,$(v_ntop0 + v_nbwall0),$s))
variable      randnj equal round(random(v_ntop0,7576,$s))
variable      randnj equal round(random(v_ntop0,7576,234897))
variable      randatomj equal ${randnj}
variable      randatomj equal 6825
variable      randzj equal z[${randatomj}]
variable      randzj equal z[6825]
if            "${randzj} < $(v_wthick - 0.7)" then "jump MDPBB.in loopj"
jump MDPBB.in loopj
variable      randnj equal round(random(v_ntop0,$(v_ntop0 + v_nbwall0),$s))
variable      randnj equal round(random(v_ntop0,7576,$s))
variable      randnj equal round(random(v_ntop0,7576,234897))
variable      randatomj equal ${randnj}
variable      randatomj equal 6378
variable      randzj equal z[${randatomj}]
variable      randzj equal z[6378]
if            "${randzj} < $(v_wthick - 0.7)" then "jump MDPBB.in loopj"
jump MDPBB.in loopj
variable      randnj equal round(random(v_ntop0,$(v_ntop0 + v_nbwall0),$s))
variable      randnj equal round(random(v_ntop0,7576,$s))
variable      randnj equal round(random(v_ntop0,7576,234897))
variable      randatomj equal ${randnj}
variable      randatomj equal 5626
variable      randzj equal z[${randatomj}]
variable      randzj equal z[5626]
if            "${randzj} < $(v_wthick - 0.7)" then "jump MDPBB.in loopj"
jump MDPBB.in loopj
variable      randnj equal round(random(v_ntop0,$(v_ntop0 + v_nbwall0),$s))
variable      randnj equal round(random(v_ntop0,7576,$s))
variable      randnj equal round(random(v_ntop0,7576,234897))
variable      randatomj equal ${randnj}
variable      randatomj equal 7384
variable      randzj equal z[${randatomj}]
variable      randzj equal z[7384]
if            "${randzj} < $(v_wthick - 0.7)" then "jump MDPBB.in loopj"
set           atom ${randatomj} type 4
set           atom 7384 type 4
  1 settings made for type
group         bwg id ${randatomj}                         # Add this atom to a bot-wall-grafted group
group         bwg id 7384                         
32 atoms in group bwg
variable      bwgcount equal count(bwg)
print         "bwg contains ${bwgcount}"
bwg contains 32
print         "j = $(v_j)"
j = 32
variable      x0 equal x[${randatomj}]
variable      x0 equal x[7384]
variable      y0 equal y[${randatomj}]
variable      y0 equal y[7384]
variable      check0 equal ${check}
variable      check0 equal 8506
variable      b equal ${check}+1
variable      b equal 8506+1
if            "${bwgcount} != $(v_j)" then "jump MDPBB.in loopj"
create_atoms  1 single ${x0} ${y0} ${z0} mol bs 24987 units box remap yes rotate 0 0 0 1
create_atoms  1 single 12.6992084157456 ${y0} ${z0} mol bs 24987 units box remap yes rotate 0 0 0 1
create_atoms  1 single 12.6992084157456 26.1921173574753 ${z0} mol bs 24987 units box remap yes rotate 0 0 0 1
create_atoms  1 single 12.6992084157456 26.1921173574753 17 mol bs 24987 units box remap yes rotate 0 0 0 1
Created 30 atoms
  create_atoms CPU = 0.0001758 secs
variable      check1 equal ${check}
variable      check1 equal 8536
if            "${check1} != ${check0}" then "create_bonds  single/bond 2 ${randatomj} $b" "next j"
create_bonds  single/bond 2 ${randatomj} $b
create_bonds  single/bond 2 7384 $b
create_bonds  single/bond 2 7384 8507
  2 = max # of 1-2 neighbors
  5 = max # of special neighbors
  special bonds CPU = 0.0027854 secs
next j
jump MDPBB.in loopj
variable      randnj equal round(random(v_ntop0,$(v_ntop0 + v_nbwall0),$s))
variable      randnj equal round(random(v_ntop0,7576,$s))
variable      randnj equal round(random(v_ntop0,7576,234897))
variable      randatomj equal ${randnj}
variable      randatomj equal 6438
variable      randzj equal z[${randatomj}]
variable      randzj equal z[6438]
if            "${randzj} < $(v_wthick - 0.7)" then "jump MDPBB.in loopj"
jump MDPBB.in loopj
variable      randnj equal round(random(v_ntop0,$(v_ntop0 + v_nbwall0),$s))
variable      randnj equal round(random(v_ntop0,7576,$s))
variable      randnj equal round(random(v_ntop0,7576,234897))
variable      randatomj equal ${randnj}
variable      randatomj equal 6997
variable      randzj equal z[${randatomj}]
variable      randzj equal z[6997]
if            "${randzj} < $(v_wthick - 0.7)" then "jump MDPBB.in loopj"
jump MDPBB.in loopj
variable      randnj equal round(random(v_ntop0,$(v_ntop0 + v_nbwall0),$s))
variable      randnj equal round(random(v_ntop0,7576,$s))
variable      randnj equal round(random(v_ntop0,7576,234897))
variable      randatomj equal ${randnj}
variable      randatomj equal 5415
variable      randzj equal z[${randatomj}]
variable      randzj equal z[5415]
if            "${randzj} < $(v_wthick - 0.7)" then "jump MDPBB.in loopj"
jump MDPBB.in loopj
variable      randnj equal round(random(v_ntop0,$(v_ntop0 + v_nbwall0),$s))
variable      randnj equal round(random(v_ntop0,7576,$s))
variable      randnj equal round(random(v_ntop0,7576,234897))
variable      randatomj equal ${randnj}
variable      randatomj equal 6398
variable      randzj equal z[${randatomj}]
variable      randzj equal z[6398]
if            "${randzj} < $(v_wthick - 0.7)" then "jump MDPBB.in loopj"
jump MDPBB.in loopj
variable      randnj equal round(random(v_ntop0,$(v_ntop0 + v_nbwall0),$s))
variable      randnj equal round(random(v_ntop0,7576,$s))
variable      randnj equal round(random(v_ntop0,7576,234897))
variable      randatomj equal ${randnj}
variable      randatomj equal 7296
variable      randzj equal z[${randatomj}]
variable      randzj equal z[7296]
if            "${randzj} < $(v_wthick - 0.7)" then "jump MDPBB.in loopj"
set           atom ${randatomj} type 4
set           atom 7296 type 4
  1 settings made for type
group         bwg id ${randatomj}                         # Add this atom to a bot-wall-grafted group
group         bwg id 7296                         
33 atoms in group bwg
variable      bwgcount equal count(bwg)
print         "bwg contains ${bwgcount}"
bwg contains 33
print         "j = $(v_j)"
j = 33
variable      x0 equal x[${randatomj}]
variable      x0 equal x[7296]
variable      y0 equal y[${randatomj}]
variable      y0 equal y[7296]
variable      check0 equal ${check}
variable      check0 equal 8536
variable      b equal ${check}+1
variable      b equal 8536+1
if            "${bwgcount} != $(v_j)" then "jump MDPBB.in loopj"
create_atoms  1 single ${x0} ${y0} ${z0} mol bs 24987 units box remap yes rotate 0 0 0 1
create_atoms  1 single 7.937005259841 ${y0} ${z0} mol bs 24987 units box remap yes rotate 0 0 0 1
create_atoms  1 single 7.937005259841 24.6047163055071 ${z0} mol bs 24987 units box remap yes rotate 0 0 0 1
create_atoms  1 single 7.937005259841 24.6047163055071 17 mol bs 24987 units box remap yes rotate 0 0 0 1
Created 30 atoms
  create_atoms CPU = 0.0001448 secs
variable      check1 equal ${check}
variable      check1 equal 8566
if            "${check1} != ${check0}" then "create_bonds  single/bond 2 ${randatomj} $b" "next j"
create_bonds  single/bond 2 ${randatomj} $b
create_bonds  single/bond 2 7296 $b
create_bonds  single/bond 2 7296 8537
  2 = max # of 1-2 neighbors
  5 = max # of special neighbors
  special bonds CPU = 0.0030147 secs
next j
jump MDPBB.in loopj
variable      randnj equal round(random(v_ntop0,$(v_ntop0 + v_nbwall0),$s))
variable      randnj equal round(random(v_ntop0,7576,$s))
variable      randnj equal round(random(v_ntop0,7576,234897))
variable      randatomj equal ${randnj}
variable      randatomj equal 4906
variable      randzj equal z[${randatomj}]
variable      randzj equal z[4906]
if            "${randzj} < $(v_wthick - 0.7)" then "jump MDPBB.in loopj"
jump MDPBB.in loopj
variable      randnj equal round(random(v_ntop0,$(v_ntop0 + v_nbwall0),$s))
variable      randnj equal round(random(v_ntop0,7576,$s))
variable      randnj equal round(random(v_ntop0,7576,234897))
variable      randatomj equal ${randnj}
variable      randatomj equal 5300
variable      randzj equal z[${randatomj}]
variable      randzj equal z[5300]
if            "${randzj} < $(v_wthick - 0.7)" then "jump MDPBB.in loopj"
jump MDPBB.in loopj
variable      randnj equal round(random(v_ntop0,$(v_ntop0 + v_nbwall0),$s))
variable      randnj equal round(random(v_ntop0,7576,$s))
variable      randnj equal round(random(v_ntop0,7576,234897))
variable      randatomj equal ${randnj}
variable      randatomj equal 5597
variable      randzj equal z[${randatomj}]
variable      randzj equal z[5597]
if            "${randzj} < $(v_wthick - 0.7)" then "jump MDPBB.in loopj"
jump MDPBB.in loopj
variable      randnj equal round(random(v_ntop0,$(v_ntop0 + v_nbwall0),$s))
variable      randnj equal round(random(v_ntop0,7576,$s))
variable      randnj equal round(random(v_ntop0,7576,234897))
variable      randatomj equal ${randnj}
variable      randatomj equal 4903
variable      randzj equal z[${randatomj}]
variable      randzj equal z[4903]
if            "${randzj} < $(v_wthick - 0.7)" then "jump MDPBB.in loopj"
jump MDPBB.in loopj
variable      randnj equal round(random(v_ntop0,$(v_ntop0 + v_nbwall0),$s))
variable      randnj equal round(random(v_ntop0,7576,$s))
variable      randnj equal round(random(v_ntop0,7576,234897))
variable      randatomj equal ${randnj}
variable      randatomj equal 5593
variable      randzj equal z[${randatomj}]
variable      randzj equal z[5593]
if            "${randzj} < $(v_wthick - 0.7)" then "jump MDPBB.in loopj"
jump MDPBB.in loopj
variable      randnj equal round(random(v_ntop0,$(v_ntop0 + v_nbwall0),$s))
variable      randnj equal round(random(v_ntop0,7576,$s))
variable      randnj equal round(random(v_ntop0,7576,234897))
variable      randatomj equal ${randnj}
variable      randatomj equal 6439
variable      randzj equal z[${randatomj}]
variable      randzj equal z[6439]
if            "${randzj} < $(v_wthick - 0.7)" then "jump MDPBB.in loopj"
set           atom ${randatomj} type 4
set           atom 6439 type 4
  1 settings made for type
group         bwg id ${randatomj}                         # Add this atom to a bot-wall-grafted group
group         bwg id 6439                         
34 atoms in group bwg
variable      bwgcount equal count(bwg)
print         "bwg contains ${bwgcount}"
bwg contains 34
print         "j = $(v_j)"
j = 34
variable      x0 equal x[${randatomj}]
variable      x0 equal x[6439]
variable      y0 equal y[${randatomj}]
variable      y0 equal y[6439]
variable      check0 equal ${check}
variable      check0 equal 8566
variable      b equal ${check}+1
variable      b equal 8566+1
if            "${bwgcount} != $(v_j)" then "jump MDPBB.in loopj"
create_atoms  1 single ${x0} ${y0} ${z0} mol bs 24987 units box remap yes rotate 0 0 0 1
create_atoms  1 single 0.7937005259841 ${y0} ${z0} mol bs 24987 units box remap yes rotate 0 0 0 1
create_atoms  1 single 0.7937005259841 6.3496042078728 ${z0} mol bs 24987 units box remap yes rotate 0 0 0 1
create_atoms  1 single 0.7937005259841 6.3496042078728 17 mol bs 24987 units box remap yes rotate 0 0 0 1
Created 30 atoms
  create_atoms CPU = 0.0001768 secs
variable      check1 equal ${check}
variable      check1 equal 8596
if            "${check1} != ${check0}" then "create_bonds  single/bond 2 ${randatomj} $b" "next j"
create_bonds  single/bond 2 ${randatomj} $b
create_bonds  single/bond 2 6439 $b
create_bonds  single/bond 2 6439 8567
  2 = max # of 1-2 neighbors
  5 = max # of special neighbors
  special bonds CPU = 0.0030967 secs
next j
jump MDPBB.in loopj
variable      randnj equal round(random(v_ntop0,$(v_ntop0 + v_nbwall0),$s))
variable      randnj equal round(random(v_ntop0,7576,$s))
variable      randnj equal round(random(v_ntop0,7576,234897))
variable      randatomj equal ${randnj}
variable      randatomj equal 7469
variable      randzj equal z[${randatomj}]
variable      randzj equal z[7469]
if            "${randzj} < $(v_wthick - 0.7)" then "jump MDPBB.in loopj"
jump MDPBB.in loopj
variable      randnj equal round(random(v_ntop0,$(v_ntop0 + v_nbwall0),$s))
variable      randnj equal round(random(v_ntop0,7576,$s))
variable      randnj equal round(random(v_ntop0,7576,234897))
variable      randatomj equal ${randnj}
variable      randatomj equal 7075
variable      randzj equal z[${randatomj}]
variable      randzj equal z[7075]
if            "${randzj} < $(v_wthick - 0.7)" then "jump MDPBB.in loopj"
set           atom ${randatomj} type 4
set           atom 7075 type 4
  1 settings made for type
group         bwg id ${randatomj}                         # Add this atom to a bot-wall-grafted group
group         bwg id 7075                         
35 atoms in group bwg
variable      bwgcount equal count(bwg)
print         "bwg contains ${bwgcount}"
bwg contains 35
print         "j = $(v_j)"
j = 35
variable      x0 equal x[${randatomj}]
variable      x0 equal x[7075]
variable      y0 equal y[${randatomj}]
variable      y0 equal y[7075]
variable      check0 equal ${check}
variable      check0 equal 8596
variable      b equal ${check}+1
variable      b equal 8596+1
if            "${bwgcount} != $(v_j)" then "jump MDPBB.in loopj"
create_atoms  1 single ${x0} ${y0} ${z0} mol bs 24987 units box remap yes rotate 0 0 0 1
create_atoms  1 single 11.9055078897615 ${y0} ${z0} mol bs 24987 units box remap yes rotate 0 0 0 1
create_atoms  1 single 11.9055078897615 19.0488126236184 ${z0} mol bs 24987 units box remap yes rotate 0 0 0 1
create_atoms  1 single 11.9055078897615 19.0488126236184 17 mol bs 24987 units box remap yes rotate 0 0 0 1
Created 30 atoms
  create_atoms CPU = 0.0001717 secs
variable      check1 equal ${check}
variable      check1 equal 8626
if            "${check1} != ${check0}" then "create_bonds  single/bond 2 ${randatomj} $b" "next j"
create_bonds  single/bond 2 ${randatomj} $b
create_bonds  single/bond 2 7075 $b
create_bonds  single/bond 2 7075 8597
  2 = max # of 1-2 neighbors
  5 = max # of special neighbors
  special bonds CPU = 0.0038601 secs
next j
jump MDPBB.in loopj
variable      randnj equal round(random(v_ntop0,$(v_ntop0 + v_nbwall0),$s))
variable      randnj equal round(random(v_ntop0,7576,$s))
variable      randnj equal round(random(v_ntop0,7576,234897))
variable      randatomj equal ${randnj}
variable      randatomj equal 5252
variable      randzj equal z[${randatomj}]
variable      randzj equal z[5252]
if            "${randzj} < $(v_wthick - 0.7)" then "jump MDPBB.in loopj"
jump MDPBB.in loopj
variable      randnj equal round(random(v_ntop0,$(v_ntop0 + v_nbwall0),$s))
variable      randnj equal round(random(v_ntop0,7576,$s))
variable      randnj equal round(random(v_ntop0,7576,234897))
variable      randatomj equal ${randnj}
variable      randatomj equal 6614
variable      randzj equal z[${randatomj}]
variable      randzj equal z[6614]
if            "${randzj} < $(v_wthick - 0.7)" then "jump MDPBB.in loopj"
jump MDPBB.in loopj
variable      randnj equal round(random(v_ntop0,$(v_ntop0 + v_nbwall0),$s))
variable      randnj equal round(random(v_ntop0,7576,$s))
variable      randnj equal round(random(v_ntop0,7576,234897))
variable      randatomj equal ${randnj}
variable      randatomj equal 6483
variable      randzj equal z[${randatomj}]
variable      randzj equal z[6483]
if            "${randzj} < $(v_wthick - 0.7)" then "jump MDPBB.in loopj"
set           atom ${randatomj} type 4
set           atom 6483 type 4
  1 settings made for type
group         bwg id ${randatomj}                         # Add this atom to a bot-wall-grafted group
group         bwg id 6483                         
36 atoms in group bwg
variable      bwgcount equal count(bwg)
print         "bwg contains ${bwgcount}"
bwg contains 36
print         "j = $(v_j)"
j = 36
variable      x0 equal x[${randatomj}]
variable      x0 equal x[6483]
variable      y0 equal y[${randatomj}]
variable      y0 equal y[6483]
variable      check0 equal ${check}
variable      check0 equal 8626
variable      b equal ${check}+1
variable      b equal 8626+1
if            "${bwgcount} != $(v_j)" then "jump MDPBB.in loopj"
create_atoms  1 single ${x0} ${y0} ${z0} mol bs 24987 units box remap yes rotate 0 0 0 1
create_atoms  1 single 18.2551120976343 ${y0} ${z0} mol bs 24987 units box remap yes rotate 0 0 0 1
create_atoms  1 single 18.2551120976343 6.3496042078728 ${z0} mol bs 24987 units box remap yes rotate 0 0 0 1
create_atoms  1 single 18.2551120976343 6.3496042078728 17 mol bs 24987 units box remap yes rotate 0 0 0 1
Created 30 atoms
  create_atoms CPU = 0.0001506 secs
variable      check1 equal ${check}
variable      check1 equal 8656
if            "${check1} != ${check0}" then "create_bonds  single/bond 2 ${randatomj} $b" "next j"
create_bonds  single/bond 2 ${randatomj} $b
create_bonds  single/bond 2 6483 $b
create_bonds  single/bond 2 6483 8627
  2 = max # of 1-2 neighbors
  5 = max # of special neighbors
  special bonds CPU = 0.0025208 secs
next j
jump MDPBB.in loopj
variable      randnj equal round(random(v_ntop0,$(v_ntop0 + v_nbwall0),$s))
variable      randnj equal round(random(v_ntop0,7576,$s))
variable      randnj equal round(random(v_ntop0,7576,234897))
variable      randatomj equal ${randnj}
variable      randatomj equal 4917
variable      randzj equal z[${randatomj}]
variable      randzj equal z[4917]
if            "${randzj} < $(v_wthick - 0.7)" then "jump MDPBB.in loopj"
jump MDPBB.in loopj
variable      randnj equal round(random(v_ntop0,$(v_ntop0 + v_nbwall0),$s))
variable      randnj equal round(random(v_ntop0,7576,$s))
variable      randnj equal round(random(v_ntop0,7576,234897))
variable      randatomj equal ${randnj}
variable      randatomj equal 6927
variable      randzj equal z[${randatomj}]
variable      randzj equal z[6927]
if            "${randzj} < $(v_wthick - 0.7)" then "jump MDPBB.in loopj"
set           atom ${randatomj} type 4
set           atom 6927 type 4
  1 settings made for type
group         bwg id ${randatomj}                         # Add this atom to a bot-wall-grafted group
group         bwg id 6927                         
37 atoms in group bwg
variable      bwgcount equal count(bwg)
print         "bwg contains ${bwgcount}"
bwg contains 37
print         "j = $(v_j)"
j = 37
variable      x0 equal x[${randatomj}]
variable      x0 equal x[6927]
variable      y0 equal y[${randatomj}]
variable      y0 equal y[6927]
variable      check0 equal ${check}
variable      check0 equal 8656
variable      b equal ${check}+1
variable      b equal 8656+1
if            "${bwgcount} != $(v_j)" then "jump MDPBB.in loopj"
create_atoms  1 single ${x0} ${y0} ${z0} mol bs 24987 units box remap yes rotate 0 0 0 1
create_atoms  1 single 13.4929089417297 ${y0} ${z0} mol bs 24987 units box remap yes rotate 0 0 0 1
create_atoms  1 single 13.4929089417297 15.874010519682 ${z0} mol bs 24987 units box remap yes rotate 0 0 0 1
create_atoms  1 single 13.4929089417297 15.874010519682 17 mol bs 24987 units box remap yes rotate 0 0 0 1
Created 30 atoms
  create_atoms CPU = 0.0001484 secs
variable      check1 equal ${check}
variable      check1 equal 8686
if            "${check1} != ${check0}" then "create_bonds  single/bond 2 ${randatomj} $b" "next j"
create_bonds  single/bond 2 ${randatomj} $b
create_bonds  single/bond 2 6927 $b
create_bonds  single/bond 2 6927 8657
  2 = max # of 1-2 neighbors
  5 = max # of special neighbors
  special bonds CPU = 0.0023222 secs
next j
jump MDPBB.in loopj
variable      randnj equal round(random(v_ntop0,$(v_ntop0 + v_nbwall0),$s))
variable      randnj equal round(random(v_ntop0,7576,$s))
variable      randnj equal round(random(v_ntop0,7576,234897))
variable      randatomj equal ${randnj}
variable      randatomj equal 5339
variable      randzj equal z[${randatomj}]
variable      randzj equal z[5339]
if            "${randzj} < $(v_wthick - 0.7)" then "jump MDPBB.in loopj"
jump MDPBB.in loopj
variable      randnj equal round(random(v_ntop0,$(v_ntop0 + v_nbwall0),$s))
variable      randnj equal round(random(v_ntop0,7576,$s))
variable      randnj equal round(random(v_ntop0,7576,234897))
variable      randatomj equal ${randnj}
variable      randatomj equal 7433
variable      randzj equal z[${randatomj}]
variable      randzj equal z[7433]
if            "${randzj} < $(v_wthick - 0.7)" then "jump MDPBB.in loopj"
jump MDPBB.in loopj
variable      randnj equal round(random(v_ntop0,$(v_ntop0 + v_nbwall0),$s))
variable      randnj equal round(random(v_ntop0,7576,$s))
variable      randnj equal round(random(v_ntop0,7576,234897))
variable      randatomj equal ${randnj}
variable      randatomj equal 6139
variable      randzj equal z[${randatomj}]
variable      randzj equal z[6139]
if            "${randzj} < $(v_wthick - 0.7)" then "jump MDPBB.in loopj"
set           atom ${randatomj} type 4
set           atom 6139 type 4
  1 settings made for type
group         bwg id ${randatomj}                         # Add this atom to a bot-wall-grafted group
group         bwg id 6139                         
38 atoms in group bwg
variable      bwgcount equal count(bwg)
print         "bwg contains ${bwgcount}"
bwg contains 38
print         "j = $(v_j)"
j = 38
variable      x0 equal x[${randatomj}]
variable      x0 equal x[6139]
variable      y0 equal y[${randatomj}]
variable      y0 equal y[6139]
variable      check0 equal ${check}
variable      check0 equal 8686
variable      b equal ${check}+1
variable      b equal 8686+1
if            "${bwgcount} != $(v_j)" then "jump MDPBB.in loopj"
create_atoms  1 single ${x0} ${y0} ${z0} mol bs 24987 units box remap yes rotate 0 0 0 1
create_atoms  1 single 2.3811015779523 ${y0} ${z0} mol bs 24987 units box remap yes rotate 0 0 0 1
create_atoms  1 single 2.3811015779523 0 ${z0} mol bs 24987 units box remap yes rotate 0 0 0 1
create_atoms  1 single 2.3811015779523 0 17 mol bs 24987 units box remap yes rotate 0 0 0 1
Created 30 atoms
  create_atoms CPU = 0.0001715 secs
variable      check1 equal ${check}
variable      check1 equal 8716
if            "${check1} != ${check0}" then "create_bonds  single/bond 2 ${randatomj} $b" "next j"
create_bonds  single/bond 2 ${randatomj} $b
create_bonds  single/bond 2 6139 $b
create_bonds  single/bond 2 6139 8687
  2 = max # of 1-2 neighbors
  5 = max # of special neighbors
  special bonds CPU = 0.0025139 secs
next j
jump MDPBB.in loopj
variable      randnj equal round(random(v_ntop0,$(v_ntop0 + v_nbwall0),$s))
variable      randnj equal round(random(v_ntop0,7576,$s))
variable      randnj equal round(random(v_ntop0,7576,234897))
variable      randatomj equal ${randnj}
variable      randatomj equal 5934
variable      randzj equal z[${randatomj}]
variable      randzj equal z[5934]
if            "${randzj} < $(v_wthick - 0.7)" then "jump MDPBB.in loopj"
jump MDPBB.in loopj
variable      randnj equal round(random(v_ntop0,$(v_ntop0 + v_nbwall0),$s))
variable      randnj equal round(random(v_ntop0,7576,$s))
variable      randnj equal round(random(v_ntop0,7576,234897))
variable      randatomj equal ${randnj}
variable      randatomj equal 5214
variable      randzj equal z[${randatomj}]
variable      randzj equal z[5214]
if            "${randzj} < $(v_wthick - 0.7)" then "jump MDPBB.in loopj"
jump MDPBB.in loopj
variable      randnj equal round(random(v_ntop0,$(v_ntop0 + v_nbwall0),$s))
variable      randnj equal round(random(v_ntop0,7576,$s))
variable      randnj equal round(random(v_ntop0,7576,234897))
variable      randatomj equal ${randnj}
variable      randatomj equal 6657
variable      randzj equal z[${randatomj}]
variable      randzj equal z[6657]
if            "${randzj} < $(v_wthick - 0.7)" then "jump MDPBB.in loopj"
jump MDPBB.in loopj
variable      randnj equal round(random(v_ntop0,$(v_ntop0 + v_nbwall0),$s))
variable      randnj equal round(random(v_ntop0,7576,$s))
variable      randnj equal round(random(v_ntop0,7576,234897))
variable      randatomj equal ${randnj}
variable      randatomj equal 7511
variable      randzj equal z[${randatomj}]
variable      randzj equal z[7511]
if            "${randzj} < $(v_wthick - 0.7)" then "jump MDPBB.in loopj"
set           atom ${randatomj} type 4
set           atom 7511 type 4
  1 settings made for type
group         bwg id ${randatomj}                         # Add this atom to a bot-wall-grafted group
group         bwg id 7511                         
38 atoms in group bwg
variable      bwgcount equal count(bwg)
print         "bwg contains ${bwgcount}"
bwg contains 38
print         "j = $(v_j)"
j = 39
variable      x0 equal x[${randatomj}]
variable      x0 equal x[7511]
variable      y0 equal y[${randatomj}]
variable      y0 equal y[7511]
variable      check0 equal ${check}
variable      check0 equal 8716
variable      b equal ${check}+1
variable      b equal 8716+1
if            "${bwgcount} != $(v_j)" then "jump MDPBB.in loopj"
jump MDPBB.in loopj
variable      randnj equal round(random(v_ntop0,$(v_ntop0 + v_nbwall0),$s))
variable      randnj equal round(random(v_ntop0,7576,$s))
variable      randnj equal round(random(v_ntop0,7576,234897))
variable      randatomj equal ${randnj}
variable      randatomj equal 7450
variable      randzj equal z[${randatomj}]
variable      randzj equal z[7450]
if            "${randzj} < $(v_wthick - 0.7)" then "jump MDPBB.in loopj"
jump MDPBB.in loopj
variable      randnj equal round(random(v_ntop0,$(v_ntop0 + v_nbwall0),$s))
variable      randnj equal round(random(v_ntop0,7576,$s))
variable      randnj equal round(random(v_ntop0,7576,234897))
variable      randatomj equal ${randnj}
variable      randatomj equal 6423
variable      randzj equal z[${randatomj}]
variable      randzj equal z[6423]
if            "${randzj} < $(v_wthick - 0.7)" then "jump MDPBB.in loopj"
set           atom ${randatomj} type 4
set           atom 6423 type 4
  1 settings made for type
group         bwg id ${randatomj}                         # Add this atom to a bot-wall-grafted group
group         bwg id 6423                         
39 atoms in group bwg
variable      bwgcount equal count(bwg)
print         "bwg contains ${bwgcount}"
bwg contains 39
print         "j = $(v_j)"
j = 39
variable      x0 equal x[${randatomj}]
variable      x0 equal x[6423]
variable      y0 equal y[${randatomj}]
variable      y0 equal y[6423]
variable      check0 equal ${check}
variable      check0 equal 8716
variable      b equal ${check}+1
variable      b equal 8716+1
if            "${bwgcount} != $(v_j)" then "jump MDPBB.in loopj"
create_atoms  1 single ${x0} ${y0} ${z0} mol bs 24987 units box remap yes rotate 0 0 0 1
create_atoms  1 single 24.6047163055071 ${y0} ${z0} mol bs 24987 units box remap yes rotate 0 0 0 1
create_atoms  1 single 24.6047163055071 4.7622031559046 ${z0} mol bs 24987 units box remap yes rotate 0 0 0 1
create_atoms  1 single 24.6047163055071 4.7622031559046 17 mol bs 24987 units box remap yes rotate 0 0 0 1
Created 30 atoms
  create_atoms CPU = 0.000162 secs
variable      check1 equal ${check}
variable      check1 equal 8746
if            "${check1} != ${check0}" then "create_bonds  single/bond 2 ${randatomj} $b" "next j"
create_bonds  single/bond 2 ${randatomj} $b
create_bonds  single/bond 2 6423 $b
create_bonds  single/bond 2 6423 8717
  2 = max # of 1-2 neighbors
  5 = max # of special neighbors
  special bonds CPU = 0.0031345 secs
next j
jump MDPBB.in loopj
variable      randnj equal round(random(v_ntop0,$(v_ntop0 + v_nbwall0),$s))
variable      randnj equal round(random(v_ntop0,7576,$s))
variable      randnj equal round(random(v_ntop0,7576,234897))
variable      randatomj equal ${randnj}
variable      randatomj equal 7393
variable      randzj equal z[${randatomj}]
variable      randzj equal z[7393]
if            "${randzj} < $(v_wthick - 0.7)" then "jump MDPBB.in loopj"
jump MDPBB.in loopj
variable      randnj equal round(random(v_ntop0,$(v_ntop0 + v_nbwall0),$s))
variable      randnj equal round(random(v_ntop0,7576,$s))
variable      randnj equal round(random(v_ntop0,7576,234897))
variable      randatomj equal ${randnj}
variable      randatomj equal 7163
variable      randzj equal z[${randatomj}]
variable      randzj equal z[7163]
if            "${randzj} < $(v_wthick - 0.7)" then "jump MDPBB.in loopj"
set           atom ${randatomj} type 4
set           atom 7163 type 4
  1 settings made for type
group         bwg id ${randatomj}                         # Add this atom to a bot-wall-grafted group
group         bwg id 7163                         
40 atoms in group bwg
variable      bwgcount equal count(bwg)
print         "bwg contains ${bwgcount}"
bwg contains 40
print         "j = $(v_j)"
j = 40
variable      x0 equal x[${randatomj}]
variable      x0 equal x[7163]
variable      y0 equal y[${randatomj}]
variable      y0 equal y[7163]
variable      check0 equal ${check}
variable      check0 equal 8746
variable      b equal ${check}+1
variable      b equal 8746+1
if            "${bwgcount} != $(v_j)" then "jump MDPBB.in loopj"
create_atoms  1 single ${x0} ${y0} ${z0} mol bs 24987 units box remap yes rotate 0 0 0 1
create_atoms  1 single 16.6677110456661 ${y0} ${z0} mol bs 24987 units box remap yes rotate 0 0 0 1
create_atoms  1 single 16.6677110456661 20.6362136755866 ${z0} mol bs 24987 units box remap yes rotate 0 0 0 1
create_atoms  1 single 16.6677110456661 20.6362136755866 17 mol bs 24987 units box remap yes rotate 0 0 0 1
Created 30 atoms
  create_atoms CPU = 0.0001471 secs
variable      check1 equal ${check}
variable      check1 equal 8776
if            "${check1} != ${check0}" then "create_bonds  single/bond 2 ${randatomj} $b" "next j"
create_bonds  single/bond 2 ${randatomj} $b
create_bonds  single/bond 2 7163 $b
create_bonds  single/bond 2 7163 8747
  2 = max # of 1-2 neighbors
  5 = max # of special neighbors
  special bonds CPU = 0.0028392 secs
next j
jump MDPBB.in loopj
variable      randnj equal round(random(v_ntop0,$(v_ntop0 + v_nbwall0),$s))
variable      randnj equal round(random(v_ntop0,7576,$s))
variable      randnj equal round(random(v_ntop0,7576,234897))
variable      randatomj equal ${randnj}
variable      randatomj equal 6874
variable      randzj equal z[${randatomj}]
variable      randzj equal z[6874]
if            "${randzj} < $(v_wthick - 0.7)" then "jump MDPBB.in loopj"
jump MDPBB.in loopj
variable      randnj equal round(random(v_ntop0,$(v_ntop0 + v_nbwall0),$s))
variable      randnj equal round(random(v_ntop0,7576,$s))
variable      randnj equal round(random(v_ntop0,7576,234897))
variable      randatomj equal ${randnj}
variable      randatomj equal 4819
variable      randzj equal z[${randatomj}]
variable      randzj equal z[4819]
if            "${randzj} < $(v_wthick - 0.7)" then "jump MDPBB.in loopj"
jump MDPBB.in loopj
variable      randnj equal round(random(v_ntop0,$(v_ntop0 + v_nbwall0),$s))
variable      randnj equal round(random(v_ntop0,7576,$s))
variable      randnj equal round(random(v_ntop0,7576,234897))
variable      randatomj equal ${randnj}
variable      randatomj equal 6139
variable      randzj equal z[${randatomj}]
variable      randzj equal z[6139]
if            "${randzj} < $(v_wthick - 0.7)" then "jump MDPBB.in loopj"
set           atom ${randatomj} type 4
set           atom 6139 type 4
  1 settings made for type
group         bwg id ${randatomj}                         # Add this atom to a bot-wall-grafted group
group         bwg id 6139                         
40 atoms in group bwg
variable      bwgcount equal count(bwg)
print         "bwg contains ${bwgcount}"
bwg contains 40
print         "j = $(v_j)"
j = 41
variable      x0 equal x[${randatomj}]
variable      x0 equal x[6139]
variable      y0 equal y[${randatomj}]
variable      y0 equal y[6139]
variable      check0 equal ${check}
variable      check0 equal 8776
variable      b equal ${check}+1
variable      b equal 8776+1
if            "${bwgcount} != $(v_j)" then "jump MDPBB.in loopj"
jump MDPBB.in loopj
variable      randnj equal round(random(v_ntop0,$(v_ntop0 + v_nbwall0),$s))
variable      randnj equal round(random(v_ntop0,7576,$s))
variable      randnj equal round(random(v_ntop0,7576,234897))
variable      randatomj equal ${randnj}
variable      randatomj equal 5648
variable      randzj equal z[${randatomj}]
variable      randzj equal z[5648]
if            "${randzj} < $(v_wthick - 0.7)" then "jump MDPBB.in loopj"
jump MDPBB.in loopj
variable      randnj equal round(random(v_ntop0,$(v_ntop0 + v_nbwall0),$s))
variable      randnj equal round(random(v_ntop0,7576,$s))
variable      randnj equal round(random(v_ntop0,7576,234897))
variable      randatomj equal ${randnj}
variable      randatomj equal 5234
variable      randzj equal z[${randatomj}]
variable      randzj equal z[5234]
if            "${randzj} < $(v_wthick - 0.7)" then "jump MDPBB.in loopj"
jump MDPBB.in loopj
variable      randnj equal round(random(v_ntop0,$(v_ntop0 + v_nbwall0),$s))
variable      randnj equal round(random(v_ntop0,7576,$s))
variable      randnj equal round(random(v_ntop0,7576,234897))
variable      randatomj equal ${randnj}
variable      randatomj equal 6685
variable      randzj equal z[${randatomj}]
variable      randzj equal z[6685]
if            "${randzj} < $(v_wthick - 0.7)" then "jump MDPBB.in loopj"
jump MDPBB.in loopj
variable      randnj equal round(random(v_ntop0,$(v_ntop0 + v_nbwall0),$s))
variable      randnj equal round(random(v_ntop0,7576,$s))
variable      randnj equal round(random(v_ntop0,7576,234897))
variable      randatomj equal ${randnj}
variable      randatomj equal 6470
variable      randzj equal z[${randatomj}]
variable      randzj equal z[6470]
if            "${randzj} < $(v_wthick - 0.7)" then "jump MDPBB.in loopj"
jump MDPBB.in loopj
variable      randnj equal round(random(v_ntop0,$(v_ntop0 + v_nbwall0),$s))
variable      randnj equal round(random(v_ntop0,7576,$s))
variable      randnj equal round(random(v_ntop0,7576,234897))
variable      randatomj equal ${randnj}
variable      randatomj equal 5136
variable      randzj equal z[${randatomj}]
variable      randzj equal z[5136]
if            "${randzj} < $(v_wthick - 0.7)" then "jump MDPBB.in loopj"
jump MDPBB.in loopj
variable      randnj equal round(random(v_ntop0,$(v_ntop0 + v_nbwall0),$s))
variable      randnj equal round(random(v_ntop0,7576,$s))
variable      randnj equal round(random(v_ntop0,7576,234897))
variable      randatomj equal ${randnj}
variable      randatomj equal 7398
variable      randzj equal z[${randatomj}]
variable      randzj equal z[7398]
if            "${randzj} < $(v_wthick - 0.7)" then "jump MDPBB.in loopj"
jump MDPBB.in loopj
variable      randnj equal round(random(v_ntop0,$(v_ntop0 + v_nbwall0),$s))
variable      randnj equal round(random(v_ntop0,7576,$s))
variable      randnj equal round(random(v_ntop0,7576,234897))
variable      randatomj equal ${randnj}
variable      randatomj equal 7280
variable      randzj equal z[${randatomj}]
variable      randzj equal z[7280]
if            "${randzj} < $(v_wthick - 0.7)" then "jump MDPBB.in loopj"
set           atom ${randatomj} type 4
set           atom 7280 type 4
  1 settings made for type
group         bwg id ${randatomj}                         # Add this atom to a bot-wall-grafted group
group         bwg id 7280                         
41 atoms in group bwg
variable      bwgcount equal count(bwg)
print         "bwg contains ${bwgcount}"
bwg contains 41
print         "j = $(v_j)"
j = 41
variable      x0 equal x[${randatomj}]
variable      x0 equal x[7280]
variable      y0 equal y[${randatomj}]
variable      y0 equal y[7280]
variable      check0 equal ${check}
variable      check0 equal 8776
variable      b equal ${check}+1
variable      b equal 8776+1
if            "${bwgcount} != $(v_j)" then "jump MDPBB.in loopj"
create_atoms  1 single ${x0} ${y0} ${z0} mol bs 24987 units box remap yes rotate 0 0 0 1
create_atoms  1 single 1.5874010519682 ${y0} ${z0} mol bs 24987 units box remap yes rotate 0 0 0 1
create_atoms  1 single 1.5874010519682 24.6047163055071 ${z0} mol bs 24987 units box remap yes rotate 0 0 0 1
create_atoms  1 single 1.5874010519682 24.6047163055071 17 mol bs 24987 units box remap yes rotate 0 0 0 1
Created 30 atoms
  create_atoms CPU = 0.000202 secs
variable      check1 equal ${check}
variable      check1 equal 8806
if            "${check1} != ${check0}" then "create_bonds  single/bond 2 ${randatomj} $b" "next j"
create_bonds  single/bond 2 ${randatomj} $b
create_bonds  single/bond 2 7280 $b
create_bonds  single/bond 2 7280 8777
  2 = max # of 1-2 neighbors
  5 = max # of special neighbors
  special bonds CPU = 0.0041432 secs
next j
jump MDPBB.in loopj
variable      randnj equal round(random(v_ntop0,$(v_ntop0 + v_nbwall0),$s))
variable      randnj equal round(random(v_ntop0,7576,$s))
variable      randnj equal round(random(v_ntop0,7576,234897))
variable      randatomj equal ${randnj}
variable      randatomj equal 4902
variable      randzj equal z[${randatomj}]
variable      randzj equal z[4902]
if            "${randzj} < $(v_wthick - 0.7)" then "jump MDPBB.in loopj"
jump MDPBB.in loopj
variable      randnj equal round(random(v_ntop0,$(v_ntop0 + v_nbwall0),$s))
variable      randnj equal round(random(v_ntop0,7576,$s))
variable      randnj equal round(random(v_ntop0,7576,234897))
variable      randatomj equal ${randnj}
variable      randatomj equal 6203
variable      randzj equal z[${randatomj}]
variable      randzj equal z[6203]
if            "${randzj} < $(v_wthick - 0.7)" then "jump MDPBB.in loopj"
set           atom ${randatomj} type 4
set           atom 6203 type 4
  1 settings made for type
group         bwg id ${randatomj}                         # Add this atom to a bot-wall-grafted group
group         bwg id 6203                         
42 atoms in group bwg
variable      bwgcount equal count(bwg)
print         "bwg contains ${bwgcount}"
bwg contains 42
print         "j = $(v_j)"
j = 42
variable      x0 equal x[${randatomj}]
variable      x0 equal x[6203]
variable      y0 equal y[${randatomj}]
variable      y0 equal y[6203]
variable      check0 equal ${check}
variable      check0 equal 8806
variable      b equal ${check}+1
variable      b equal 8806+1
if            "${bwgcount} != $(v_j)" then "jump MDPBB.in loopj"
create_atoms  1 single ${x0} ${y0} ${z0} mol bs 24987 units box remap yes rotate 0 0 0 1
create_atoms  1 single 27.7795184094435 ${y0} ${z0} mol bs 24987 units box remap yes rotate 0 0 0 1
create_atoms  1 single 27.7795184094435 0 ${z0} mol bs 24987 units box remap yes rotate 0 0 0 1
create_atoms  1 single 27.7795184094435 0 17 mol bs 24987 units box remap yes rotate 0 0 0 1
Created 30 atoms
  create_atoms CPU = 0.0001887 secs
variable      check1 equal ${check}
variable      check1 equal 8836
if            "${check1} != ${check0}" then "create_bonds  single/bond 2 ${randatomj} $b" "next j"
create_bonds  single/bond 2 ${randatomj} $b
create_bonds  single/bond 2 6203 $b
create_bonds  single/bond 2 6203 8807
  2 = max # of 1-2 neighbors
  5 = max # of special neighbors
  special bonds CPU = 0.0024386 secs
next j
jump MDPBB.in loopj
variable      randnj equal round(random(v_ntop0,$(v_ntop0 + v_nbwall0),$s))
variable      randnj equal round(random(v_ntop0,7576,$s))
variable      randnj equal round(random(v_ntop0,7576,234897))
variable      randatomj equal ${randnj}
variable      randatomj equal 5272
variable      randzj equal z[${randatomj}]
variable      randzj equal z[5272]
if            "${randzj} < $(v_wthick - 0.7)" then "jump MDPBB.in loopj"
jump MDPBB.in loopj
variable      randnj equal round(random(v_ntop0,$(v_ntop0 + v_nbwall0),$s))
variable      randnj equal round(random(v_ntop0,7576,$s))
variable      randnj equal round(random(v_ntop0,7576,234897))
variable      randatomj equal ${randnj}
variable      randatomj equal 5489
variable      randzj equal z[${randatomj}]
variable      randzj equal z[5489]
if            "${randzj} < $(v_wthick - 0.7)" then "jump MDPBB.in loopj"
jump MDPBB.in loopj
variable      randnj equal round(random(v_ntop0,$(v_ntop0 + v_nbwall0),$s))
variable      randnj equal round(random(v_ntop0,7576,$s))
variable      randnj equal round(random(v_ntop0,7576,234897))
variable      randatomj equal ${randnj}
variable      randatomj equal 5116
variable      randzj equal z[${randatomj}]
variable      randzj equal z[5116]
if            "${randzj} < $(v_wthick - 0.7)" then "jump MDPBB.in loopj"
jump MDPBB.in loopj
variable      randnj equal round(random(v_ntop0,$(v_ntop0 + v_nbwall0),$s))
variable      randnj equal round(random(v_ntop0,7576,$s))
variable      randnj equal round(random(v_ntop0,7576,234897))
variable      randatomj equal ${randnj}
variable      randatomj equal 7388
variable      randzj equal z[${randatomj}]
variable      randzj equal z[7388]
if            "${randzj} < $(v_wthick - 0.7)" then "jump MDPBB.in loopj"
set           atom ${randatomj} type 4
set           atom 7388 type 4
  1 settings made for type
group         bwg id ${randatomj}                         # Add this atom to a bot-wall-grafted group
group         bwg id 7388                         
43 atoms in group bwg
variable      bwgcount equal count(bwg)
print         "bwg contains ${bwgcount}"
bwg contains 43
print         "j = $(v_j)"
j = 43
variable      x0 equal x[${randatomj}]
variable      x0 equal x[7388]
variable      y0 equal y[${randatomj}]
variable      y0 equal y[7388]
variable      check0 equal ${check}
variable      check0 equal 8836
variable      b equal ${check}+1
variable      b equal 8836+1
if            "${bwgcount} != $(v_j)" then "jump MDPBB.in loopj"
create_atoms  1 single ${x0} ${y0} ${z0} mol bs 24987 units box remap yes rotate 0 0 0 1
create_atoms  1 single 14.2866094677138 ${y0} ${z0} mol bs 24987 units box remap yes rotate 0 0 0 1
create_atoms  1 single 14.2866094677138 26.1921173574753 ${z0} mol bs 24987 units box remap yes rotate 0 0 0 1
create_atoms  1 single 14.2866094677138 26.1921173574753 17 mol bs 24987 units box remap yes rotate 0 0 0 1
Created 30 atoms
  create_atoms CPU = 0.0002353 secs
variable      check1 equal ${check}
variable      check1 equal 8866
if            "${check1} != ${check0}" then "create_bonds  single/bond 2 ${randatomj} $b" "next j"
create_bonds  single/bond 2 ${randatomj} $b
create_bonds  single/bond 2 7388 $b
create_bonds  single/bond 2 7388 8837
  2 = max # of 1-2 neighbors
  5 = max # of special neighbors
  special bonds CPU = 0.0031883 secs
next j
jump MDPBB.in loopj
variable      randnj equal round(random(v_ntop0,$(v_ntop0 + v_nbwall0),$s))
variable      randnj equal round(random(v_ntop0,7576,$s))
variable      randnj equal round(random(v_ntop0,7576,234897))
variable      randatomj equal ${randnj}
variable      randatomj equal 5764
variable      randzj equal z[${randatomj}]
variable      randzj equal z[5764]
if            "${randzj} < $(v_wthick - 0.7)" then "jump MDPBB.in loopj"
jump MDPBB.in loopj
variable      randnj equal round(random(v_ntop0,$(v_ntop0 + v_nbwall0),$s))
variable      randnj equal round(random(v_ntop0,7576,$s))
variable      randnj equal round(random(v_ntop0,7576,234897))
variable      randatomj equal ${randnj}
variable      randatomj equal 5506
variable      randzj equal z[${randatomj}]
variable      randzj equal z[5506]
if            "${randzj} < $(v_wthick - 0.7)" then "jump MDPBB.in loopj"
jump MDPBB.in loopj
variable      randnj equal round(random(v_ntop0,$(v_ntop0 + v_nbwall0),$s))
variable      randnj equal round(random(v_ntop0,7576,$s))
variable      randnj equal round(random(v_ntop0,7576,234897))
variable      randatomj equal ${randnj}
variable      randatomj equal 6419
variable      randzj equal z[${randatomj}]
variable      randzj equal z[6419]
if            "${randzj} < $(v_wthick - 0.7)" then "jump MDPBB.in loopj"
set           atom ${randatomj} type 4
set           atom 6419 type 4
  1 settings made for type
group         bwg id ${randatomj}                         # Add this atom to a bot-wall-grafted group
group         bwg id 6419                         
44 atoms in group bwg
variable      bwgcount equal count(bwg)
print         "bwg contains ${bwgcount}"
bwg contains 44
print         "j = $(v_j)"
j = 44
variable      x0 equal x[${randatomj}]
variable      x0 equal x[6419]
variable      y0 equal y[${randatomj}]
variable      y0 equal y[6419]
variable      check0 equal ${check}
variable      check0 equal 8866
variable      b equal ${check}+1
variable      b equal 8866+1
if            "${bwgcount} != $(v_j)" then "jump MDPBB.in loopj"
create_atoms  1 single ${x0} ${y0} ${z0} mol bs 24987 units box remap yes rotate 0 0 0 1
create_atoms  1 single 23.0173152535389 ${y0} ${z0} mol bs 24987 units box remap yes rotate 0 0 0 1
create_atoms  1 single 23.0173152535389 4.7622031559046 ${z0} mol bs 24987 units box remap yes rotate 0 0 0 1
create_atoms  1 single 23.0173152535389 4.7622031559046 17 mol bs 24987 units box remap yes rotate 0 0 0 1
Created 30 atoms
  create_atoms CPU = 0.0001761 secs
variable      check1 equal ${check}
variable      check1 equal 8896
if            "${check1} != ${check0}" then "create_bonds  single/bond 2 ${randatomj} $b" "next j"
create_bonds  single/bond 2 ${randatomj} $b
create_bonds  single/bond 2 6419 $b
create_bonds  single/bond 2 6419 8867
  2 = max # of 1-2 neighbors
  5 = max # of special neighbors
  special bonds CPU = 0.0023859 secs
next j
jump MDPBB.in loopj
variable      randnj equal round(random(v_ntop0,$(v_ntop0 + v_nbwall0),$s))
variable      randnj equal round(random(v_ntop0,7576,$s))
variable      randnj equal round(random(v_ntop0,7576,234897))
variable      randatomj equal ${randnj}
variable      randatomj equal 6355
variable      randzj equal z[${randatomj}]
variable      randzj equal z[6355]
if            "${randzj} < $(v_wthick - 0.7)" then "jump MDPBB.in loopj"
set           atom ${randatomj} type 4
set           atom 6355 type 4
  1 settings made for type
group         bwg id ${randatomj}                         # Add this atom to a bot-wall-grafted group
group         bwg id 6355                         
45 atoms in group bwg
variable      bwgcount equal count(bwg)
print         "bwg contains ${bwgcount}"
bwg contains 45
print         "j = $(v_j)"
j = 45
variable      x0 equal x[${randatomj}]
variable      x0 equal x[6355]
variable      y0 equal y[${randatomj}]
variable      y0 equal y[6355]
variable      check0 equal ${check}
variable      check0 equal 8896
variable      b equal ${check}+1
variable      b equal 8896+1
if            "${bwgcount} != $(v_j)" then "jump MDPBB.in loopj"
create_atoms  1 single ${x0} ${y0} ${z0} mol bs 24987 units box remap yes rotate 0 0 0 1
create_atoms  1 single 27.7795184094435 ${y0} ${z0} mol bs 24987 units box remap yes rotate 0 0 0 1
create_atoms  1 single 27.7795184094435 3.1748021039364 ${z0} mol bs 24987 units box remap yes rotate 0 0 0 1
create_atoms  1 single 27.7795184094435 3.1748021039364 17 mol bs 24987 units box remap yes rotate 0 0 0 1
Created 30 atoms
  create_atoms CPU = 0.0001608 secs
variable      check1 equal ${check}
variable      check1 equal 8926
if            "${check1} != ${check0}" then "create_bonds  single/bond 2 ${randatomj} $b" "next j"
create_bonds  single/bond 2 ${randatomj} $b
create_bonds  single/bond 2 6355 $b
create_bonds  single/bond 2 6355 8897
  2 = max # of 1-2 neighbors
  5 = max # of special neighbors
  special bonds CPU = 0.0029311 secs
next j
jump MDPBB.in loopj
variable      randnj equal round(random(v_ntop0,$(v_ntop0 + v_nbwall0),$s))
variable      randnj equal round(random(v_ntop0,7576,$s))
variable      randnj equal round(random(v_ntop0,7576,234897))
variable      randatomj equal ${randnj}
variable      randatomj equal 7313
variable      randzj equal z[${randatomj}]
variable      randzj equal z[7313]
if            "${randzj} < $(v_wthick - 0.7)" then "jump MDPBB.in loopj"
jump MDPBB.in loopj
variable      randnj equal round(random(v_ntop0,$(v_ntop0 + v_nbwall0),$s))
variable      randnj equal round(random(v_ntop0,7576,$s))
variable      randnj equal round(random(v_ntop0,7576,234897))
variable      randatomj equal ${randnj}
variable      randatomj equal 4947
variable      randzj equal z[${randatomj}]
variable      randzj equal z[4947]
if            "${randzj} < $(v_wthick - 0.7)" then "jump MDPBB.in loopj"
jump MDPBB.in loopj
variable      randnj equal round(random(v_ntop0,$(v_ntop0 + v_nbwall0),$s))
variable      randnj equal round(random(v_ntop0,7576,$s))
variable      randnj equal round(random(v_ntop0,7576,234897))
variable      randatomj equal ${randnj}
variable      randatomj equal 5689
variable      randzj equal z[${randatomj}]
variable      randzj equal z[5689]
if            "${randzj} < $(v_wthick - 0.7)" then "jump MDPBB.in loopj"
jump MDPBB.in loopj
variable      randnj equal round(random(v_ntop0,$(v_ntop0 + v_nbwall0),$s))
variable      randnj equal round(random(v_ntop0,7576,$s))
variable      randnj equal round(random(v_ntop0,7576,234897))
variable      randatomj equal ${randnj}
variable      randatomj equal 4712
variable      randzj equal z[${randatomj}]
variable      randzj equal z[4712]
if            "${randzj} < $(v_wthick - 0.7)" then "jump MDPBB.in loopj"
jump MDPBB.in loopj
variable      randnj equal round(random(v_ntop0,$(v_ntop0 + v_nbwall0),$s))
variable      randnj equal round(random(v_ntop0,7576,$s))
variable      randnj equal round(random(v_ntop0,7576,234897))
variable      randatomj equal ${randnj}
variable      randatomj equal 7556
variable      randzj equal z[${randatomj}]
variable      randzj equal z[7556]
if            "${randzj} < $(v_wthick - 0.7)" then "jump MDPBB.in loopj"
set           atom ${randatomj} type 4
set           atom 7556 type 4
  1 settings made for type
group         bwg id ${randatomj}                         # Add this atom to a bot-wall-grafted group
group         bwg id 7556                         
46 atoms in group bwg
variable      bwgcount equal count(bwg)
print         "bwg contains ${bwgcount}"
bwg contains 46
print         "j = $(v_j)"
j = 46
variable      x0 equal x[${randatomj}]
variable      x0 equal x[7556]
variable      y0 equal y[${randatomj}]
variable      y0 equal y[7556]
variable      check0 equal ${check}
variable      check0 equal 8926
variable      b equal ${check}+1
variable      b equal 8926+1
if            "${bwgcount} != $(v_j)" then "jump MDPBB.in loopj"
create_atoms  1 single ${x0} ${y0} ${z0} mol bs 24987 units box remap yes rotate 0 0 0 1
create_atoms  1 single 20.6362136755866 ${y0} ${z0} mol bs 24987 units box remap yes rotate 0 0 0 1
create_atoms  1 single 20.6362136755866 29.3669194614117 ${z0} mol bs 24987 units box remap yes rotate 0 0 0 1
create_atoms  1 single 20.6362136755866 29.3669194614117 17 mol bs 24987 units box remap yes rotate 0 0 0 1
Created 30 atoms
  create_atoms CPU = 0.0001644 secs
variable      check1 equal ${check}
variable      check1 equal 8956
if            "${check1} != ${check0}" then "create_bonds  single/bond 2 ${randatomj} $b" "next j"
create_bonds  single/bond 2 ${randatomj} $b
create_bonds  single/bond 2 7556 $b
create_bonds  single/bond 2 7556 8927
  2 = max # of 1-2 neighbors
  5 = max # of special neighbors
  special bonds CPU = 0.0030456 secs
next j
jump MDPBB.in loopj
variable      randnj equal round(random(v_ntop0,$(v_ntop0 + v_nbwall0),$s))
variable      randnj equal round(random(v_ntop0,7576,$s))
variable      randnj equal round(random(v_ntop0,7576,234897))
variable      randatomj equal ${randnj}
variable      randatomj equal 6259
variable      randzj equal z[${randatomj}]
variable      randzj equal z[6259]
if            "${randzj} < $(v_wthick - 0.7)" then "jump MDPBB.in loopj"
set           atom ${randatomj} type 4
set           atom 6259 type 4
  1 settings made for type
group         bwg id ${randatomj}                         # Add this atom to a bot-wall-grafted group
group         bwg id 6259                         
47 atoms in group bwg
variable      bwgcount equal count(bwg)
print         "bwg contains ${bwgcount}"
bwg contains 47
print         "j = $(v_j)"
j = 47
variable      x0 equal x[${randatomj}]
variable      x0 equal x[6259]
variable      y0 equal y[${randatomj}]
variable      y0 equal y[6259]
variable      check0 equal ${check}
variable      check0 equal 8956
variable      b equal ${check}+1
variable      b equal 8956+1
if            "${bwgcount} != $(v_j)" then "jump MDPBB.in loopj"
create_atoms  1 single ${x0} ${y0} ${z0} mol bs 24987 units box remap yes rotate 0 0 0 1
create_atoms  1 single 19.8425131496025 ${y0} ${z0} mol bs 24987 units box remap yes rotate 0 0 0 1
create_atoms  1 single 19.8425131496025 1.5874010519682 ${z0} mol bs 24987 units box remap yes rotate 0 0 0 1
create_atoms  1 single 19.8425131496025 1.5874010519682 17 mol bs 24987 units box remap yes rotate 0 0 0 1
Created 30 atoms
  create_atoms CPU = 0.0001863 secs
variable      check1 equal ${check}
variable      check1 equal 8986
if            "${check1} != ${check0}" then "create_bonds  single/bond 2 ${randatomj} $b" "next j"
create_bonds  single/bond 2 ${randatomj} $b
create_bonds  single/bond 2 6259 $b
create_bonds  single/bond 2 6259 8957
  2 = max # of 1-2 neighbors
  5 = max # of special neighbors
  special bonds CPU = 0.0042762 secs
next j
jump MDPBB.in loopj
variable      randnj equal round(random(v_ntop0,$(v_ntop0 + v_nbwall0),$s))
variable      randnj equal round(random(v_ntop0,7576,$s))
variable      randnj equal round(random(v_ntop0,7576,234897))
variable      randatomj equal ${randnj}
variable      randatomj equal 5615
variable      randzj equal z[${randatomj}]
variable      randzj equal z[5615]
if            "${randzj} < $(v_wthick - 0.7)" then "jump MDPBB.in loopj"
jump MDPBB.in loopj
variable      randnj equal round(random(v_ntop0,$(v_ntop0 + v_nbwall0),$s))
variable      randnj equal round(random(v_ntop0,7576,$s))
variable      randnj equal round(random(v_ntop0,7576,234897))
variable      randatomj equal ${randnj}
variable      randatomj equal 5972
variable      randzj equal z[${randatomj}]
variable      randzj equal z[5972]
if            "${randzj} < $(v_wthick - 0.7)" then "jump MDPBB.in loopj"
jump MDPBB.in loopj
variable      randnj equal round(random(v_ntop0,$(v_ntop0 + v_nbwall0),$s))
variable      randnj equal round(random(v_ntop0,7576,$s))
variable      randnj equal round(random(v_ntop0,7576,234897))
variable      randatomj equal ${randnj}
variable      randatomj equal 5542
variable      randzj equal z[${randatomj}]
variable      randzj equal z[5542]
if            "${randzj} < $(v_wthick - 0.7)" then "jump MDPBB.in loopj"
jump MDPBB.in loopj
variable      randnj equal round(random(v_ntop0,$(v_ntop0 + v_nbwall0),$s))
variable      randnj equal round(random(v_ntop0,7576,$s))
variable      randnj equal round(random(v_ntop0,7576,234897))
variable      randatomj equal ${randnj}
variable      randatomj equal 5059
variable      randzj equal z[${randatomj}]
variable      randzj equal z[5059]
if            "${randzj} < $(v_wthick - 0.7)" then "jump MDPBB.in loopj"
jump MDPBB.in loopj
variable      randnj equal round(random(v_ntop0,$(v_ntop0 + v_nbwall0),$s))
variable      randnj equal round(random(v_ntop0,7576,$s))
variable      randnj equal round(random(v_ntop0,7576,234897))
variable      randatomj equal ${randnj}
variable      randatomj equal 4738
variable      randzj equal z[${randatomj}]
variable      randzj equal z[4738]
if            "${randzj} < $(v_wthick - 0.7)" then "jump MDPBB.in loopj"
jump MDPBB.in loopj
variable      randnj equal round(random(v_ntop0,$(v_ntop0 + v_nbwall0),$s))
variable      randnj equal round(random(v_ntop0,7576,$s))
variable      randnj equal round(random(v_ntop0,7576,234897))
variable      randatomj equal ${randnj}
variable      randatomj equal 5140
variable      randzj equal z[${randatomj}]
variable      randzj equal z[5140]
if            "${randzj} < $(v_wthick - 0.7)" then "jump MDPBB.in loopj"
jump MDPBB.in loopj
variable      randnj equal round(random(v_ntop0,$(v_ntop0 + v_nbwall0),$s))
variable      randnj equal round(random(v_ntop0,7576,$s))
variable      randnj equal round(random(v_ntop0,7576,234897))
variable      randatomj equal ${randnj}
variable      randatomj equal 4955
variable      randzj equal z[${randatomj}]
variable      randzj equal z[4955]
if            "${randzj} < $(v_wthick - 0.7)" then "jump MDPBB.in loopj"
jump MDPBB.in loopj
variable      randnj equal round(random(v_ntop0,$(v_ntop0 + v_nbwall0),$s))
variable      randnj equal round(random(v_ntop0,7576,$s))
variable      randnj equal round(random(v_ntop0,7576,234897))
variable      randatomj equal ${randnj}
variable      randatomj equal 5839
variable      randzj equal z[${randatomj}]
variable      randzj equal z[5839]
if            "${randzj} < $(v_wthick - 0.7)" then "jump MDPBB.in loopj"
jump MDPBB.in loopj
variable      randnj equal round(random(v_ntop0,$(v_ntop0 + v_nbwall0),$s))
variable      randnj equal round(random(v_ntop0,7576,$s))
variable      randnj equal round(random(v_ntop0,7576,234897))
variable      randatomj equal ${randnj}
variable      randatomj equal 6227
variable      randzj equal z[${randatomj}]
variable      randzj equal z[6227]
if            "${randzj} < $(v_wthick - 0.7)" then "jump MDPBB.in loopj"
set           atom ${randatomj} type 4
set           atom 6227 type 4
  1 settings made for type
group         bwg id ${randatomj}                         # Add this atom to a bot-wall-grafted group
group         bwg id 6227                         
48 atoms in group bwg
variable      bwgcount equal count(bwg)
print         "bwg contains ${bwgcount}"
bwg contains 48
print         "j = $(v_j)"
j = 48
variable      x0 equal x[${randatomj}]
variable      x0 equal x[6227]
variable      y0 equal y[${randatomj}]
variable      y0 equal y[6227]
variable      check0 equal ${check}
variable      check0 equal 8986
variable      b equal ${check}+1
variable      b equal 8986+1
if            "${bwgcount} != $(v_j)" then "jump MDPBB.in loopj"
create_atoms  1 single ${x0} ${y0} ${z0} mol bs 24987 units box remap yes rotate 0 0 0 1
create_atoms  1 single 7.1433047338569 ${y0} ${z0} mol bs 24987 units box remap yes rotate 0 0 0 1
create_atoms  1 single 7.1433047338569 1.5874010519682 ${z0} mol bs 24987 units box remap yes rotate 0 0 0 1
create_atoms  1 single 7.1433047338569 1.5874010519682 17 mol bs 24987 units box remap yes rotate 0 0 0 1
Created 30 atoms
  create_atoms CPU = 0.0001528 secs
variable      check1 equal ${check}
variable      check1 equal 9016
if            "${check1} != ${check0}" then "create_bonds  single/bond 2 ${randatomj} $b" "next j"
create_bonds  single/bond 2 ${randatomj} $b
create_bonds  single/bond 2 6227 $b
create_bonds  single/bond 2 6227 8987
  2 = max # of 1-2 neighbors
  5 = max # of special neighbors
  special bonds CPU = 0.0024803 secs
next j
jump MDPBB.in loopj
variable      randnj equal round(random(v_ntop0,$(v_ntop0 + v_nbwall0),$s))
variable      randnj equal round(random(v_ntop0,7576,$s))
variable      randnj equal round(random(v_ntop0,7576,234897))
variable      randatomj equal ${randnj}
variable      randatomj equal 5928
variable      randzj equal z[${randatomj}]
variable      randzj equal z[5928]
if            "${randzj} < $(v_wthick - 0.7)" then "jump MDPBB.in loopj"
jump MDPBB.in loopj
variable      randnj equal round(random(v_ntop0,$(v_ntop0 + v_nbwall0),$s))
variable      randnj equal round(random(v_ntop0,7576,$s))
variable      randnj equal round(random(v_ntop0,7576,234897))
variable      randatomj equal ${randnj}
variable      randatomj equal 6258
variable      randzj equal z[${randatomj}]
variable      randzj equal z[6258]
if            "${randzj} < $(v_wthick - 0.7)" then "jump MDPBB.in loopj"
jump MDPBB.in loopj
variable      randnj equal round(random(v_ntop0,$(v_ntop0 + v_nbwall0),$s))
variable      randnj equal round(random(v_ntop0,7576,$s))
variable      randnj equal round(random(v_ntop0,7576,234897))
variable      randatomj equal ${randnj}
variable      randatomj equal 6844
variable      randzj equal z[${randatomj}]
variable      randzj equal z[6844]
if            "${randzj} < $(v_wthick - 0.7)" then "jump MDPBB.in loopj"
set           atom ${randatomj} type 4
set           atom 6844 type 4
  1 settings made for type
group         bwg id ${randatomj}                         # Add this atom to a bot-wall-grafted group
group         bwg id 6844                         
49 atoms in group bwg
variable      bwgcount equal count(bwg)
print         "bwg contains ${bwgcount}"
bwg contains 49
print         "j = $(v_j)"
j = 49
variable      x0 equal x[${randatomj}]
variable      x0 equal x[6844]
variable      y0 equal y[${randatomj}]
variable      y0 equal y[6844]
variable      check0 equal ${check}
variable      check0 equal 9016
variable      b equal ${check}+1
variable      b equal 9016+1
if            "${bwgcount} != $(v_j)" then "jump MDPBB.in loopj"
create_atoms  1 single ${x0} ${y0} ${z0} mol bs 24987 units box remap yes rotate 0 0 0 1
create_atoms  1 single 9.5244063118092 ${y0} ${z0} mol bs 24987 units box remap yes rotate 0 0 0 1
create_atoms  1 single 9.5244063118092 15.0803099936979 ${z0} mol bs 24987 units box remap yes rotate 0 0 0 1
create_atoms  1 single 9.5244063118092 15.0803099936979 17 mol bs 24987 units box remap yes rotate 0 0 0 1
Created 30 atoms
  create_atoms CPU = 0.0001966 secs
variable      check1 equal ${check}
variable      check1 equal 9046
if            "${check1} != ${check0}" then "create_bonds  single/bond 2 ${randatomj} $b" "next j"
create_bonds  single/bond 2 ${randatomj} $b
create_bonds  single/bond 2 6844 $b
create_bonds  single/bond 2 6844 9017
  2 = max # of 1-2 neighbors
  5 = max # of special neighbors
  special bonds CPU = 0.0042574 secs
next j
jump MDPBB.in loopj
variable      randnj equal round(random(v_ntop0,$(v_ntop0 + v_nbwall0),$s))
variable      randnj equal round(random(v_ntop0,7576,$s))
variable      randnj equal round(random(v_ntop0,7576,234897))
variable      randatomj equal ${randnj}
variable      randatomj equal 6310
variable      randzj equal z[${randatomj}]
variable      randzj equal z[6310]
if            "${randzj} < $(v_wthick - 0.7)" then "jump MDPBB.in loopj"
jump MDPBB.in loopj
variable      randnj equal round(random(v_ntop0,$(v_ntop0 + v_nbwall0),$s))
variable      randnj equal round(random(v_ntop0,7576,$s))
variable      randnj equal round(random(v_ntop0,7576,234897))
variable      randatomj equal ${randnj}
variable      randatomj equal 7520
variable      randzj equal z[${randatomj}]
variable      randzj equal z[7520]
if            "${randzj} < $(v_wthick - 0.7)" then "jump MDPBB.in loopj"
set           atom ${randatomj} type 4
set           atom 7520 type 4
  1 settings made for type
group         bwg id ${randatomj}                         # Add this atom to a bot-wall-grafted group
group         bwg id 7520                         
50 atoms in group bwg
variable      bwgcount equal count(bwg)
print         "bwg contains ${bwgcount}"
bwg contains 50
print         "j = $(v_j)"
j = 50
variable      x0 equal x[${randatomj}]
variable      x0 equal x[7520]
variable      y0 equal y[${randatomj}]
variable      y0 equal y[7520]
variable      check0 equal ${check}
variable      check0 equal 9046
variable      b equal ${check}+1
variable      b equal 9046+1
if            "${bwgcount} != $(v_j)" then "jump MDPBB.in loopj"
create_atoms  1 single ${x0} ${y0} ${z0} mol bs 24987 units box remap yes rotate 0 0 0 1
create_atoms  1 single 6.3496042078728 ${y0} ${z0} mol bs 24987 units box remap yes rotate 0 0 0 1
create_atoms  1 single 6.3496042078728 29.3669194614117 ${z0} mol bs 24987 units box remap yes rotate 0 0 0 1
create_atoms  1 single 6.3496042078728 29.3669194614117 17 mol bs 24987 units box remap yes rotate 0 0 0 1
Created 30 atoms
  create_atoms CPU = 0.0001852 secs
variable      check1 equal ${check}
variable      check1 equal 9076
if            "${check1} != ${check0}" then "create_bonds  single/bond 2 ${randatomj} $b" "next j"
create_bonds  single/bond 2 ${randatomj} $b
create_bonds  single/bond 2 7520 $b
create_bonds  single/bond 2 7520 9047
  2 = max # of 1-2 neighbors
  5 = max # of special neighbors
  special bonds CPU = 0.0032607 secs
next j
jump MDPBB.in loopj
variable      randnj equal round(random(v_ntop0,$(v_ntop0 + v_nbwall0),$s))
variable      randnj equal round(random(v_ntop0,7576,$s))
variable      randnj equal round(random(v_ntop0,7576,234897))
variable      randatomj equal ${randnj}
variable      randatomj equal 7014
variable      randzj equal z[${randatomj}]
variable      randzj equal z[7014]
if            "${randzj} < $(v_wthick - 0.7)" then "jump MDPBB.in loopj"
jump MDPBB.in loopj
variable      randnj equal round(random(v_ntop0,$(v_ntop0 + v_nbwall0),$s))
variable      randnj equal round(random(v_ntop0,7576,$s))
variable      randnj equal round(random(v_ntop0,7576,234897))
variable      randatomj equal ${randnj}
variable      randatomj equal 7322
variable      randzj equal z[${randatomj}]
variable      randzj equal z[7322]
if            "${randzj} < $(v_wthick - 0.7)" then "jump MDPBB.in loopj"
jump MDPBB.in loopj
variable      randnj equal round(random(v_ntop0,$(v_ntop0 + v_nbwall0),$s))
variable      randnj equal round(random(v_ntop0,7576,$s))
variable      randnj equal round(random(v_ntop0,7576,234897))
variable      randatomj equal ${randnj}
variable      randatomj equal 4760
variable      randzj equal z[${randatomj}]
variable      randzj equal z[4760]
if            "${randzj} < $(v_wthick - 0.7)" then "jump MDPBB.in loopj"
jump MDPBB.in loopj
variable      randnj equal round(random(v_ntop0,$(v_ntop0 + v_nbwall0),$s))
variable      randnj equal round(random(v_ntop0,7576,$s))
variable      randnj equal round(random(v_ntop0,7576,234897))
variable      randatomj equal ${randnj}
variable      randatomj equal 7269
variable      randzj equal z[${randatomj}]
variable      randzj equal z[7269]
if            "${randzj} < $(v_wthick - 0.7)" then "jump MDPBB.in loopj"
jump MDPBB.in loopj
variable      randnj equal round(random(v_ntop0,$(v_ntop0 + v_nbwall0),$s))
variable      randnj equal round(random(v_ntop0,7576,$s))
variable      randnj equal round(random(v_ntop0,7576,234897))
variable      randatomj equal ${randnj}
variable      randatomj equal 5867
variable      randzj equal z[${randatomj}]
variable      randzj equal z[5867]
if            "${randzj} < $(v_wthick - 0.7)" then "jump MDPBB.in loopj"
jump MDPBB.in loopj
variable      randnj equal round(random(v_ntop0,$(v_ntop0 + v_nbwall0),$s))
variable      randnj equal round(random(v_ntop0,7576,$s))
variable      randnj equal round(random(v_ntop0,7576,234897))
variable      randatomj equal ${randnj}
variable      randatomj equal 7454
variable      randzj equal z[${randatomj}]
variable      randzj equal z[7454]
if            "${randzj} < $(v_wthick - 0.7)" then "jump MDPBB.in loopj"
jump MDPBB.in loopj
variable      randnj equal round(random(v_ntop0,$(v_ntop0 + v_nbwall0),$s))
variable      randnj equal round(random(v_ntop0,7576,$s))
variable      randnj equal round(random(v_ntop0,7576,234897))
variable      randatomj equal ${randnj}
variable      randatomj equal 7033
variable      randzj equal z[${randatomj}]
variable      randzj equal z[7033]
if            "${randzj} < $(v_wthick - 0.7)" then "jump MDPBB.in loopj"
jump MDPBB.in loopj
variable      randnj equal round(random(v_ntop0,$(v_ntop0 + v_nbwall0),$s))
variable      randnj equal round(random(v_ntop0,7576,$s))
variable      randnj equal round(random(v_ntop0,7576,234897))
variable      randatomj equal ${randnj}
variable      randatomj equal 6723
variable      randzj equal z[${randatomj}]
variable      randzj equal z[6723]
if            "${randzj} < $(v_wthick - 0.7)" then "jump MDPBB.in loopj"
set           atom ${randatomj} type 4
set           atom 6723 type 4
  1 settings made for type
group         bwg id ${randatomj}                         # Add this atom to a bot-wall-grafted group
group         bwg id 6723                         
51 atoms in group bwg
variable      bwgcount equal count(bwg)
print         "bwg contains ${bwgcount}"
bwg contains 51
print         "j = $(v_j)"
j = 51
variable      x0 equal x[${randatomj}]
variable      x0 equal x[6723]
variable      y0 equal y[${randatomj}]
variable      y0 equal y[6723]
variable      check0 equal ${check}
variable      check0 equal 9076
variable      b equal ${check}+1
variable      b equal 9076+1
if            "${bwgcount} != $(v_j)" then "jump MDPBB.in loopj"
create_atoms  1 single ${x0} ${y0} ${z0} mol bs 24987 units box remap yes rotate 0 0 0 1
create_atoms  1 single 23.0173152535389 ${y0} ${z0} mol bs 24987 units box remap yes rotate 0 0 0 1
create_atoms  1 single 23.0173152535389 11.1118073637774 ${z0} mol bs 24987 units box remap yes rotate 0 0 0 1
create_atoms  1 single 23.0173152535389 11.1118073637774 17 mol bs 24987 units box remap yes rotate 0 0 0 1
Created 30 atoms
  create_atoms CPU = 0.0001755 secs
variable      check1 equal ${check}
variable      check1 equal 9106
if            "${check1} != ${check0}" then "create_bonds  single/bond 2 ${randatomj} $b" "next j"
create_bonds  single/bond 2 ${randatomj} $b
create_bonds  single/bond 2 6723 $b
create_bonds  single/bond 2 6723 9077
  2 = max # of 1-2 neighbors
  5 = max # of special neighbors
  special bonds CPU = 0.0026428 secs
next j
jump MDPBB.in loopj
variable      randnj equal round(random(v_ntop0,$(v_ntop0 + v_nbwall0),$s))
variable      randnj equal round(random(v_ntop0,7576,$s))
variable      randnj equal round(random(v_ntop0,7576,234897))
variable      randatomj equal ${randnj}
variable      randatomj equal 7082
variable      randzj equal z[${randatomj}]
variable      randzj equal z[7082]
if            "${randzj} < $(v_wthick - 0.7)" then "jump MDPBB.in loopj"
jump MDPBB.in loopj
variable      randnj equal round(random(v_ntop0,$(v_ntop0 + v_nbwall0),$s))
variable      randnj equal round(random(v_ntop0,7576,$s))
variable      randnj equal round(random(v_ntop0,7576,234897))
variable      randatomj equal ${randnj}
variable      randatomj equal 7054
variable      randzj equal z[${randatomj}]
variable      randzj equal z[7054]
if            "${randzj} < $(v_wthick - 0.7)" then "jump MDPBB.in loopj"
jump MDPBB.in loopj
variable      randnj equal round(random(v_ntop0,$(v_ntop0 + v_nbwall0),$s))
variable      randnj equal round(random(v_ntop0,7576,$s))
variable      randnj equal round(random(v_ntop0,7576,234897))
variable      randatomj equal ${randnj}
variable      randatomj equal 7400
variable      randzj equal z[${randatomj}]
variable      randzj equal z[7400]
if            "${randzj} < $(v_wthick - 0.7)" then "jump MDPBB.in loopj"
set           atom ${randatomj} type 4
set           atom 7400 type 4
  1 settings made for type
group         bwg id ${randatomj}                         # Add this atom to a bot-wall-grafted group
group         bwg id 7400                         
52 atoms in group bwg
variable      bwgcount equal count(bwg)
print         "bwg contains ${bwgcount}"
bwg contains 52
print         "j = $(v_j)"
j = 52
variable      x0 equal x[${randatomj}]
variable      x0 equal x[7400]
variable      y0 equal y[${randatomj}]
variable      y0 equal y[7400]
variable      check0 equal ${check}
variable      check0 equal 9106
variable      b equal ${check}+1
variable      b equal 9106+1
if            "${bwgcount} != $(v_j)" then "jump MDPBB.in loopj"
create_atoms  1 single ${x0} ${y0} ${z0} mol bs 24987 units box remap yes rotate 0 0 0 1
create_atoms  1 single 19.0488126236184 ${y0} ${z0} mol bs 24987 units box remap yes rotate 0 0 0 1
create_atoms  1 single 19.0488126236184 26.1921173574753 ${z0} mol bs 24987 units box remap yes rotate 0 0 0 1
create_atoms  1 single 19.0488126236184 26.1921173574753 17 mol bs 24987 units box remap yes rotate 0 0 0 1
Created 30 atoms
  create_atoms CPU = 0.0001959 secs
variable      check1 equal ${check}
variable      check1 equal 9136
if            "${check1} != ${check0}" then "create_bonds  single/bond 2 ${randatomj} $b" "next j"
create_bonds  single/bond 2 ${randatomj} $b
create_bonds  single/bond 2 7400 $b
create_bonds  single/bond 2 7400 9107
  2 = max # of 1-2 neighbors
  5 = max # of special neighbors
  special bonds CPU = 0.0026809 secs
next j
jump MDPBB.in loopj
variable      randnj equal round(random(v_ntop0,$(v_ntop0 + v_nbwall0),$s))
variable      randnj equal round(random(v_ntop0,7576,$s))
variable      randnj equal round(random(v_ntop0,7576,234897))
variable      randatomj equal ${randnj}
variable      randatomj equal 6968
variable      randzj equal z[${randatomj}]
variable      randzj equal z[6968]
if            "${randzj} < $(v_wthick - 0.7)" then "jump MDPBB.in loopj"
set           atom ${randatomj} type 4
set           atom 6968 type 4
  1 settings made for type
group         bwg id ${randatomj}                         # Add this atom to a bot-wall-grafted group
group         bwg id 6968                         
53 atoms in group bwg
variable      bwgcount equal count(bwg)
print         "bwg contains ${bwgcount}"
bwg contains 53
print         "j = $(v_j)"
j = 53
variable      x0 equal x[${randatomj}]
variable      x0 equal x[6968]
variable      y0 equal y[${randatomj}]
variable      y0 equal y[6968]
variable      check0 equal ${check}
variable      check0 equal 9136
variable      b equal ${check}+1
variable      b equal 9136+1
if            "${bwgcount} != $(v_j)" then "jump MDPBB.in loopj"
create_atoms  1 single ${x0} ${y0} ${z0} mol bs 24987 units box remap yes rotate 0 0 0 1
create_atoms  1 single 28.5732189354276 ${y0} ${z0} mol bs 24987 units box remap yes rotate 0 0 0 1
create_atoms  1 single 28.5732189354276 16.6677110456661 ${z0} mol bs 24987 units box remap yes rotate 0 0 0 1
create_atoms  1 single 28.5732189354276 16.6677110456661 17 mol bs 24987 units box remap yes rotate 0 0 0 1
Created 30 atoms
  create_atoms CPU = 0.0001505 secs
variable      check1 equal ${check}
variable      check1 equal 9166
if            "${check1} != ${check0}" then "create_bonds  single/bond 2 ${randatomj} $b" "next j"
create_bonds  single/bond 2 ${randatomj} $b
create_bonds  single/bond 2 6968 $b
create_bonds  single/bond 2 6968 9137
  2 = max # of 1-2 neighbors
  5 = max # of special neighbors
  special bonds CPU = 0.0039308 secs
next j
jump MDPBB.in loopj
variable      randnj equal round(random(v_ntop0,$(v_ntop0 + v_nbwall0),$s))
variable      randnj equal round(random(v_ntop0,7576,$s))
variable      randnj equal round(random(v_ntop0,7576,234897))
variable      randatomj equal ${randnj}
variable      randatomj equal 6030
variable      randzj equal z[${randatomj}]
variable      randzj equal z[6030]
if            "${randzj} < $(v_wthick - 0.7)" then "jump MDPBB.in loopj"
jump MDPBB.in loopj
variable      randnj equal round(random(v_ntop0,$(v_ntop0 + v_nbwall0),$s))
variable      randnj equal round(random(v_ntop0,7576,$s))
variable      randnj equal round(random(v_ntop0,7576,234897))
variable      randatomj equal ${randnj}
variable      randatomj equal 5147
variable      randzj equal z[${randatomj}]
variable      randzj equal z[5147]
if            "${randzj} < $(v_wthick - 0.7)" then "jump MDPBB.in loopj"
jump MDPBB.in loopj
variable      randnj equal round(random(v_ntop0,$(v_ntop0 + v_nbwall0),$s))
variable      randnj equal round(random(v_ntop0,7576,$s))
variable      randnj equal round(random(v_ntop0,7576,234897))
variable      randatomj equal ${randnj}
variable      randatomj equal 6960
variable      randzj equal z[${randatomj}]
variable      randzj equal z[6960]
if            "${randzj} < $(v_wthick - 0.7)" then "jump MDPBB.in loopj"
set           atom ${randatomj} type 4
set           atom 6960 type 4
  1 settings made for type
group         bwg id ${randatomj}                         # Add this atom to a bot-wall-grafted group
group         bwg id 6960                         
54 atoms in group bwg
variable      bwgcount equal count(bwg)
print         "bwg contains ${bwgcount}"
bwg contains 54
print         "j = $(v_j)"
j = 54
variable      x0 equal x[${randatomj}]
variable      x0 equal x[6960]
variable      y0 equal y[${randatomj}]
variable      y0 equal y[6960]
variable      check0 equal ${check}
variable      check0 equal 9166
variable      b equal ${check}+1
variable      b equal 9166+1
if            "${bwgcount} != $(v_j)" then "jump MDPBB.in loopj"
create_atoms  1 single ${x0} ${y0} ${z0} mol bs 24987 units box remap yes rotate 0 0 0 1
create_atoms  1 single 25.3984168314912 ${y0} ${z0} mol bs 24987 units box remap yes rotate 0 0 0 1
create_atoms  1 single 25.3984168314912 16.6677110456661 ${z0} mol bs 24987 units box remap yes rotate 0 0 0 1
create_atoms  1 single 25.3984168314912 16.6677110456661 17 mol bs 24987 units box remap yes rotate 0 0 0 1
Created 30 atoms
  create_atoms CPU = 0.000188 secs
variable      check1 equal ${check}
variable      check1 equal 9196
if            "${check1} != ${check0}" then "create_bonds  single/bond 2 ${randatomj} $b" "next j"
create_bonds  single/bond 2 ${randatomj} $b
create_bonds  single/bond 2 6960 $b
create_bonds  single/bond 2 6960 9167
  2 = max # of 1-2 neighbors
  5 = max # of special neighbors
  special bonds CPU = 0.0039539 secs
next j
jump MDPBB.in loopj
variable      randnj equal round(random(v_ntop0,$(v_ntop0 + v_nbwall0),$s))
variable      randnj equal round(random(v_ntop0,7576,$s))
variable      randnj equal round(random(v_ntop0,7576,234897))
variable      randatomj equal ${randnj}
variable      randatomj equal 7023
variable      randzj equal z[${randatomj}]
variable      randzj equal z[7023]
if            "${randzj} < $(v_wthick - 0.7)" then "jump MDPBB.in loopj"
set           atom ${randatomj} type 4
set           atom 7023 type 4
  1 settings made for type
group         bwg id ${randatomj}                         # Add this atom to a bot-wall-grafted group
group         bwg id 7023                         
55 atoms in group bwg
variable      bwgcount equal count(bwg)
print         "bwg contains ${bwgcount}"
bwg contains 55
print         "j = $(v_j)"
j = 55
variable      x0 equal x[${randatomj}]
variable      x0 equal x[7023]
variable      y0 equal y[${randatomj}]
variable      y0 equal y[7023]
variable      check0 equal ${check}
variable      check0 equal 9196
variable      b equal ${check}+1
variable      b equal 9196+1
if            "${bwgcount} != $(v_j)" then "jump MDPBB.in loopj"
create_atoms  1 single ${x0} ${y0} ${z0} mol bs 24987 units box remap yes rotate 0 0 0 1
create_atoms  1 single 21.4299142015707 ${y0} ${z0} mol bs 24987 units box remap yes rotate 0 0 0 1
create_atoms  1 single 21.4299142015707 17.4614115716502 ${z0} mol bs 24987 units box remap yes rotate 0 0 0 1
create_atoms  1 single 21.4299142015707 17.4614115716502 17 mol bs 24987 units box remap yes rotate 0 0 0 1
Created 30 atoms
  create_atoms CPU = 0.0001842 secs
variable      check1 equal ${check}
variable      check1 equal 9226
if            "${check1} != ${check0}" then "create_bonds  single/bond 2 ${randatomj} $b" "next j"
create_bonds  single/bond 2 ${randatomj} $b
create_bonds  single/bond 2 7023 $b
create_bonds  single/bond 2 7023 9197
  2 = max # of 1-2 neighbors
  5 = max # of special neighbors
  special bonds CPU = 0.0024216 secs
next j
jump MDPBB.in loopj
variable      randnj equal round(random(v_ntop0,$(v_ntop0 + v_nbwall0),$s))
variable      randnj equal round(random(v_ntop0,7576,$s))
variable      randnj equal round(random(v_ntop0,7576,234897))
variable      randatomj equal ${randnj}
variable      randatomj equal 7308
variable      randzj equal z[${randatomj}]
variable      randzj equal z[7308]
if            "${randzj} < $(v_wthick - 0.7)" then "jump MDPBB.in loopj"
set           atom ${randatomj} type 4
set           atom 7308 type 4
  1 settings made for type
group         bwg id ${randatomj}                         # Add this atom to a bot-wall-grafted group
group         bwg id 7308                         
56 atoms in group bwg
variable      bwgcount equal count(bwg)
print         "bwg contains ${bwgcount}"
bwg contains 56
print         "j = $(v_j)"
j = 56
variable      x0 equal x[${randatomj}]
variable      x0 equal x[7308]
variable      y0 equal y[${randatomj}]
variable      y0 equal y[7308]
variable      check0 equal ${check}
variable      check0 equal 9226
variable      b equal ${check}+1
variable      b equal 9226+1
if            "${bwgcount} != $(v_j)" then "jump MDPBB.in loopj"
create_atoms  1 single ${x0} ${y0} ${z0} mol bs 24987 units box remap yes rotate 0 0 0 1
create_atoms  1 single 12.6992084157456 ${y0} ${z0} mol bs 24987 units box remap yes rotate 0 0 0 1
create_atoms  1 single 12.6992084157456 24.6047163055071 ${z0} mol bs 24987 units box remap yes rotate 0 0 0 1
create_atoms  1 single 12.6992084157456 24.6047163055071 17 mol bs 24987 units box remap yes rotate 0 0 0 1
Created 30 atoms
  create_atoms CPU = 0.0001594 secs
variable      check1 equal ${check}
variable      check1 equal 9256
if            "${check1} != ${check0}" then "create_bonds  single/bond 2 ${randatomj} $b" "next j"
create_bonds  single/bond 2 ${randatomj} $b
create_bonds  single/bond 2 7308 $b
create_bonds  single/bond 2 7308 9227
  2 = max # of 1-2 neighbors
  5 = max # of special neighbors
  special bonds CPU = 0.0025378 secs
next j
jump MDPBB.in loopj
variable      randnj equal round(random(v_ntop0,$(v_ntop0 + v_nbwall0),$s))
variable      randnj equal round(random(v_ntop0,7576,$s))
variable      randnj equal round(random(v_ntop0,7576,234897))
variable      randatomj equal ${randnj}
variable      randatomj equal 6204
variable      randzj equal z[${randatomj}]
variable      randzj equal z[6204]
if            "${randzj} < $(v_wthick - 0.7)" then "jump MDPBB.in loopj"
set           atom ${randatomj} type 4
set           atom 6204 type 4
  1 settings made for type
group         bwg id ${randatomj}                         # Add this atom to a bot-wall-grafted group
group         bwg id 6204                         
57 atoms in group bwg
variable      bwgcount equal count(bwg)
print         "bwg contains ${bwgcount}"
bwg contains 57
print         "j = $(v_j)"
j = 57
variable      x0 equal x[${randatomj}]
variable      x0 equal x[6204]
variable      y0 equal y[${randatomj}]
variable      y0 equal y[6204]
variable      check0 equal ${check}
variable      check0 equal 9256
variable      b equal ${check}+1
variable      b equal 9256+1
if            "${bwgcount} != $(v_j)" then "jump MDPBB.in loopj"
create_atoms  1 single ${x0} ${y0} ${z0} mol bs 24987 units box remap yes rotate 0 0 0 1
create_atoms  1 single 26.9858178834594 ${y0} ${z0} mol bs 24987 units box remap yes rotate 0 0 0 1
create_atoms  1 single 26.9858178834594 0.7937005259841 ${z0} mol bs 24987 units box remap yes rotate 0 0 0 1
create_atoms  1 single 26.9858178834594 0.7937005259841 17 mol bs 24987 units box remap yes rotate 0 0 0 1
Created 30 atoms
  create_atoms CPU = 0.0001893 secs
variable      check1 equal ${check}
variable      check1 equal 9286
if            "${check1} != ${check0}" then "create_bonds  single/bond 2 ${randatomj} $b" "next j"
create_bonds  single/bond 2 ${randatomj} $b
create_bonds  single/bond 2 6204 $b
create_bonds  single/bond 2 6204 9257
  2 = max # of 1-2 neighbors
  5 = max # of special neighbors
  special bonds CPU = 0.0023593 secs
next j
jump MDPBB.in loopj
variable      randnj equal round(random(v_ntop0,$(v_ntop0 + v_nbwall0),$s))
variable      randnj equal round(random(v_ntop0,7576,$s))
variable      randnj equal round(random(v_ntop0,7576,234897))
variable      randatomj equal ${randnj}
variable      randatomj equal 4705
variable      randzj equal z[${randatomj}]
variable      randzj equal z[4705]
if            "${randzj} < $(v_wthick - 0.7)" then "jump MDPBB.in loopj"
jump MDPBB.in loopj
variable      randnj equal round(random(v_ntop0,$(v_ntop0 + v_nbwall0),$s))
variable      randnj equal round(random(v_ntop0,7576,$s))
variable      randnj equal round(random(v_ntop0,7576,234897))
variable      randatomj equal ${randnj}
variable      randatomj equal 5341
variable      randzj equal z[${randatomj}]
variable      randzj equal z[5341]
if            "${randzj} < $(v_wthick - 0.7)" then "jump MDPBB.in loopj"
jump MDPBB.in loopj
variable      randnj equal round(random(v_ntop0,$(v_ntop0 + v_nbwall0),$s))
variable      randnj equal round(random(v_ntop0,7576,$s))
variable      randnj equal round(random(v_ntop0,7576,234897))
variable      randatomj equal ${randnj}
variable      randatomj equal 6176
variable      randzj equal z[${randatomj}]
variable      randzj equal z[6176]
if            "${randzj} < $(v_wthick - 0.7)" then "jump MDPBB.in loopj"
set           atom ${randatomj} type 4
set           atom 6176 type 4
  1 settings made for type
group         bwg id ${randatomj}                         # Add this atom to a bot-wall-grafted group
group         bwg id 6176                         
58 atoms in group bwg
variable      bwgcount equal count(bwg)
print         "bwg contains ${bwgcount}"
bwg contains 58
print         "j = $(v_j)"
j = 58
variable      x0 equal x[${randatomj}]
variable      x0 equal x[6176]
variable      y0 equal y[${randatomj}]
variable      y0 equal y[6176]
variable      check0 equal ${check}
variable      check0 equal 9286
variable      b equal ${check}+1
variable      b equal 9286+1
if            "${bwgcount} != $(v_j)" then "jump MDPBB.in loopj"
create_atoms  1 single ${x0} ${y0} ${z0} mol bs 24987 units box remap yes rotate 0 0 0 1
create_atoms  1 single 15.874010519682 ${y0} ${z0} mol bs 24987 units box remap yes rotate 0 0 0 1
create_atoms  1 single 15.874010519682 0.7937005259841 ${z0} mol bs 24987 units box remap yes rotate 0 0 0 1
create_atoms  1 single 15.874010519682 0.7937005259841 17 mol bs 24987 units box remap yes rotate 0 0 0 1
Created 30 atoms
  create_atoms CPU = 0.0001948 secs
variable      check1 equal ${check}
variable      check1 equal 9316
if            "${check1} != ${check0}" then "create_bonds  single/bond 2 ${randatomj} $b" "next j"
create_bonds  single/bond 2 ${randatomj} $b
create_bonds  single/bond 2 6176 $b
create_bonds  single/bond 2 6176 9287
  2 = max # of 1-2 neighbors
  5 = max # of special neighbors
  special bonds CPU = 0.0037503 secs
next j
jump MDPBB.in loopj
variable      randnj equal round(random(v_ntop0,$(v_ntop0 + v_nbwall0),$s))
variable      randnj equal round(random(v_ntop0,7576,$s))
variable      randnj equal round(random(v_ntop0,7576,234897))
variable      randatomj equal ${randnj}
variable      randatomj equal 6012
variable      randzj equal z[${randatomj}]
variable      randzj equal z[6012]
if            "${randzj} < $(v_wthick - 0.7)" then "jump MDPBB.in loopj"
jump MDPBB.in loopj
variable      randnj equal round(random(v_ntop0,$(v_ntop0 + v_nbwall0),$s))
variable      randnj equal round(random(v_ntop0,7576,$s))
variable      randnj equal round(random(v_ntop0,7576,234897))
variable      randatomj equal ${randnj}
variable      randatomj equal 5316
variable      randzj equal z[${randatomj}]
variable      randzj equal z[5316]
if            "${randzj} < $(v_wthick - 0.7)" then "jump MDPBB.in loopj"
jump MDPBB.in loopj
variable      randnj equal round(random(v_ntop0,$(v_ntop0 + v_nbwall0),$s))
variable      randnj equal round(random(v_ntop0,7576,$s))
variable      randnj equal round(random(v_ntop0,7576,234897))
variable      randatomj equal ${randnj}
variable      randatomj equal 6952
variable      randzj equal z[${randatomj}]
variable      randzj equal z[6952]
if            "${randzj} < $(v_wthick - 0.7)" then "jump MDPBB.in loopj"
set           atom ${randatomj} type 4
set           atom 6952 type 4
  1 settings made for type
group         bwg id ${randatomj}                         # Add this atom to a bot-wall-grafted group
group         bwg id 6952                         
59 atoms in group bwg
variable      bwgcount equal count(bwg)
print         "bwg contains ${bwgcount}"
bwg contains 59
print         "j = $(v_j)"
j = 59
variable      x0 equal x[${randatomj}]
variable      x0 equal x[6952]
variable      y0 equal y[${randatomj}]
variable      y0 equal y[6952]
variable      check0 equal ${check}
variable      check0 equal 9316
variable      b equal ${check}+1
variable      b equal 9316+1
if            "${bwgcount} != $(v_j)" then "jump MDPBB.in loopj"
create_atoms  1 single ${x0} ${y0} ${z0} mol bs 24987 units box remap yes rotate 0 0 0 1
create_atoms  1 single 22.2236147275548 ${y0} ${z0} mol bs 24987 units box remap yes rotate 0 0 0 1
create_atoms  1 single 22.2236147275548 16.6677110456661 ${z0} mol bs 24987 units box remap yes rotate 0 0 0 1
create_atoms  1 single 22.2236147275548 16.6677110456661 17 mol bs 24987 units box remap yes rotate 0 0 0 1
Created 30 atoms
  create_atoms CPU = 0.000164 secs
variable      check1 equal ${check}
variable      check1 equal 9346
if            "${check1} != ${check0}" then "create_bonds  single/bond 2 ${randatomj} $b" "next j"
create_bonds  single/bond 2 ${randatomj} $b
create_bonds  single/bond 2 6952 $b
create_bonds  single/bond 2 6952 9317
  2 = max # of 1-2 neighbors
  5 = max # of special neighbors
  special bonds CPU = 0.0036413 secs
next j
jump MDPBB.in loopj
variable      randnj equal round(random(v_ntop0,$(v_ntop0 + v_nbwall0),$s))
variable      randnj equal round(random(v_ntop0,7576,$s))
variable      randnj equal round(random(v_ntop0,7576,234897))
variable      randatomj equal ${randnj}
variable      randatomj equal 7168
variable      randzj equal z[${randatomj}]
variable      randzj equal z[7168]
if            "${randzj} < $(v_wthick - 0.7)" then "jump MDPBB.in loopj"
set           atom ${randatomj} type 4
set           atom 7168 type 4
  1 settings made for type
group         bwg id ${randatomj}                         # Add this atom to a bot-wall-grafted group
group         bwg id 7168                         
60 atoms in group bwg
variable      bwgcount equal count(bwg)
print         "bwg contains ${bwgcount}"
bwg contains 60
print         "j = $(v_j)"
j = 60
variable      x0 equal x[${randatomj}]
variable      x0 equal x[7168]
variable      y0 equal y[${randatomj}]
variable      y0 equal y[7168]
variable      check0 equal ${check}
variable      check0 equal 9346
variable      b equal ${check}+1
variable      b equal 9346+1
if            "${bwgcount} != $(v_j)" then "jump MDPBB.in loopj"
create_atoms  1 single ${x0} ${y0} ${z0} mol bs 24987 units box remap yes rotate 0 0 0 1
create_atoms  1 single 17.4614115716502 ${y0} ${z0} mol bs 24987 units box remap yes rotate 0 0 0 1
create_atoms  1 single 17.4614115716502 21.4299142015707 ${z0} mol bs 24987 units box remap yes rotate 0 0 0 1
create_atoms  1 single 17.4614115716502 21.4299142015707 17 mol bs 24987 units box remap yes rotate 0 0 0 1
Created 30 atoms
  create_atoms CPU = 0.0001755 secs
variable      check1 equal ${check}
variable      check1 equal 9376
if            "${check1} != ${check0}" then "create_bonds  single/bond 2 ${randatomj} $b" "next j"
create_bonds  single/bond 2 ${randatomj} $b
create_bonds  single/bond 2 7168 $b
create_bonds  single/bond 2 7168 9347
  2 = max # of 1-2 neighbors
  5 = max # of special neighbors
  special bonds CPU = 0.0028242 secs
next j
jump MDPBB.in loopj

# Assign the beads to 2 different groups of grafted and non-grafted beads

group         gbeads type 2
120 atoms in group gbeads
group         fbeads type 3
3480 atoms in group fbeads

#--- Create harmonic bonds in the walls ---#
bond_coeff    3 harmonic 800.0 $(1.5874 * sqrt(2)/2)
bond_coeff    3 harmonic 800.0 1.1224613044555256103
create_bonds  many bwall bwall 3 0.5 1.2
Neighbor list info ...
  update every 1 steps, delay 10 steps, check yes
  max neighbors/atom: 4000, page size: 100000
  master list distance cutoff = 11.1225
  ghost atom cutoff = 11.1225
  binsize = 5.56123, bins = 6 6 13
  2 neighbor lists, perpetual/occasional/extra = 1 1 0
  (1) command create_bonds, occasional
      attributes: full, newton on
      pair build: full/bin
      stencil: full/bin/3d
      bin: standard
  (2) pair lj/cut, perpetual
      attributes: half, newton on
      pair build: half/bin/newton
      stencil: half/bin/3d/newton
      bin: standard
Added 14440 bonds, new total = 18040
  12 = max # of 1-2 neighbors
  12 = max # of special neighbors
  special bonds CPU = 0.0043456 secs
create_bonds  many twall twall 3 0.5 1.2
Added 14440 bonds, new total = 32480
  12 = max # of 1-2 neighbors
  12 = max # of special neighbors
  special bonds CPU = 0.0053635 secs

info system


fix           1 twall setforce 0.0 0.0 0.0  # Freeze top wall
fix           2 bwall setforce 0.0 0.0 0.0  # Freeze bottom wall

#dump           1 all image 250 stg0.*.jpg type type zoom 2 view 60 120 bond none none
#dump          2 all atom 50 dump.brush
#dump          3 all custom 100 dump.random.bin id x y z vx vy vz


#--- Minimize the system to obtain the initial structure for the PB bilayer ---#

timestep      0.010
minimize      0.0 1.0e-8 10000 100000
WARNING: Using 'neigh_modify every 1 delay 0 check yes' setting during minimization (src/min.cpp:168)
Neighbor list info ...
  update every 1 steps, delay 0 steps, check yes
  max neighbors/atom: 4000, page size: 100000
  master list distance cutoff = 11.1225
  ghost atom cutoff = 11.1225
  binsize = 5.56123, bins = 6 6 13
  1 neighbor lists, perpetual/occasional/extra = 1 0 0
  (1) pair lj/cut, perpetual
      attributes: half, newton on
      pair build: half/bin/newton
      stencil: half/bin/3d/newton
      bin: standard
WARNING: Inconsistent image flags (src/domain.cpp:784)
Per MPI rank memory allocation (min/avg/max) = 36.54 | 36.54 | 36.54 Mbytes
Step Temp E_pair E_mol TotEng Press 
       0            0 -0.018022855    6.6360714    6.6180485   0.42445461 
      64            0 -0.049435231    5.3885369    5.3391017   0.54255402 
Loop time of 2.61642 on 1 procs for 64 steps with 9376 atoms

100.3% CPU use with 1 MPI tasks x 1 OpenMP threads

Minimization stats:
  Stopping criterion = linesearch alpha is zero
  Energy initial, next-to-last, final = 
         6.61804850207      5.33910170445      5.33910170445
  Force two-norm initial, final = 508.997 102.912
  Force max component initial, final = 30.7507 4.63214
  Final line search alpha, max atom move = 1.02941e-08 4.76837e-08
  Iterations, force evaluations = 64 237

MPI task timing breakdown:
Section |  min time  |  avg time  |  max time  |%varavg| %total
---------------------------------------------------------------
Pair    | 2.434      | 2.434      | 2.434      |   0.0 | 93.03
Bond    | 0.12481    | 0.12481    | 0.12481    |   0.0 |  4.77
Neigh   | 0          | 0          | 0          |   0.0 |  0.00
Comm    | 0.021902   | 0.021902   | 0.021902   |   0.0 |  0.84
Output  | 0          | 0          | 0          |   0.0 |  0.00
Modify  | 0.0073416  | 0.0073416  | 0.0073416  |   0.0 |  0.28
Other   |            | 0.02833    |            |       |  1.08

Nlocal:    9376 ave 9376 max 9376 min
Histogram: 1 0 0 0 0 0 0 0 0 0
Nghost:    19680 ave 19680 max 19680 min
Histogram: 1 0 0 0 0 0 0 0 0 0
Neighs:    5.118e+06 ave 5.118e+06 max 5.118e+06 min
Histogram: 1 0 0 0 0 0 0 0 0 0

Total # of neighbors = 5118000
Ave neighs/atom = 545.862
Ave special neighs/atom = 6.92833
Neighbor list builds = 0
Dangerous builds = 0

#--- Shrink the simulation box such that it encloses the system exactly ---#

variable z_f equal bound(all,zmin)
variable z_c equal bound(all,zmax)

change_box all z final ${z_f} $(v_z_c + 0.1) units box
change_box all z final 0 $(v_z_c + 0.1) units box
change_box all z final 0 70.099999999999994316 units box
  orthogonal box = (0 0 0) to (30 30 70.1)

info variables                              # For diagnostics

minimize      0.0 1.0e-8 10000 100000
WARNING: Using 'neigh_modify every 1 delay 0 check yes' setting during minimization (src/min.cpp:168)
WARNING: Inconsistent image flags (src/domain.cpp:784)
Per MPI rank memory allocation (min/avg/max) = 36.54 | 36.54 | 36.54 Mbytes
Step Temp E_pair E_mol TotEng Press 
      64            0 -0.049435231    5.3885369    5.3391017   0.55725948 
      65            0 -0.049435231    5.3885369    5.3391017   0.55725948 
Loop time of 0.253494 on 1 procs for 1 steps with 9376 atoms

98.6% CPU use with 1 MPI tasks x 1 OpenMP threads

Minimization stats:
  Stopping criterion = linesearch alpha is zero
  Energy initial, next-to-last, final = 
         5.33910170445      5.33910170445      5.33910170445
  Force two-norm initial, final = 102.912 102.912
  Force max component initial, final = 4.63214 4.63214
  Final line search alpha, max atom move = 1.02941e-08 4.76837e-08
  Iterations, force evaluations = 1 22

MPI task timing breakdown:
Section |  min time  |  avg time  |  max time  |%varavg| %total
---------------------------------------------------------------
Pair    | 0.23584    | 0.23584    | 0.23584    |   0.0 | 93.04
Bond    | 0.012222   | 0.012222   | 0.012222   |   0.0 |  4.82
Neigh   | 0          | 0          | 0          |   0.0 |  0.00
Comm    | 0.0021594  | 0.0021594  | 0.0021594  |   0.0 |  0.85
Output  | 0          | 0          | 0          |   0.0 |  0.00
Modify  | 0.0007144  | 0.0007144  | 0.0007144  |   0.0 |  0.28
Other   |            | 0.002555   |            |       |  1.01

Nlocal:    9376 ave 9376 max 9376 min
Histogram: 1 0 0 0 0 0 0 0 0 0
Nghost:    19680 ave 19680 max 19680 min
Histogram: 1 0 0 0 0 0 0 0 0 0
Neighs:    5.14004e+06 ave 5.14004e+06 max 5.14004e+06 min
Histogram: 1 0 0 0 0 0 0 0 0 0

Total # of neighbors = 5140042
Ave neighs/atom = 548.213
Ave special neighs/atom = 6.92833
Neighbor list builds = 0
Dangerous builds = 0

#--- Remove the fixes for the restart file ---#
unfix         1
unfix         2

#--- Write Restart File ---#

write_restart  MDPBB.rst
#write_data     MDPBB.data
print        "Created a Polymer Brush Bilayer with Surface Coverage = $(v_M/(lx*ly))"
Created a Polymer Brush Bilayer with Surface Coverage = 0.066666666666666665741

label          sim

include        ecs.in
# This is an input script that creates a mono disperse polymer brush bilayer
# A coarse grained bead-spring model is used for the polymers which are end
# grafted to the surfaces of 2 opposing FCC walls at random sites.

clear
OMP_NUM_THREADS environment is not set. Defaulting to 1 thread. (src/comm.cpp:88)
  using 1 OpenMP thread(s) per MPI task


#--- Read in the Restart file ---#

read_restart    MDPBB.rst
  restoring atom style bond from restart
  orthogonal box = (0 0 0) to (30 30 70.1)
  1 by 1 by 1 MPI processor grid
  restoring pair style lj/cut from restart
  restoring bond style hybrid from restart
  9376 atoms
  32480 bonds
  12 = max # of 1-2 neighbors
  12 = max # of special neighbors
  special bonds CPU = 0.0048143 secs
  read_restart CPU = 0.0111528 secs
reset_timestep  0

#--- Redefine the bond coeffs ---#

bond_coeff    1 fene 30.0 1.5 0.0 0.0      # Values obtained from literature [Grest, Galushcko]
bond_coeff    2 fene 30.0 1.5 0.0 0.0       # This is the grafting bond between the polymer and the wall atom
bond_coeff    3 harmonic 800.0 $(1.5874 * sqrt(2)/2)
bond_coeff    3 harmonic 800.0 1.1224613044555256103

neigh_modify   every 1 delay 0 check yes

#--- Define variables ---#

# for dimensional values: eps = 4.14e-21 J at T = 300K and sigma = 0.5nm

#--- Moved to main.in ---#
#variable       Temp       equal ${Tstr} #[Grest96]
#variable       Tstep     equal 0.005                       # Timestep in Tau (default = 0.005)
#variable       Nequil    equal 10000                       # Number of timesteps to equilibrate
#variable       Ncomp     equal 200000                      # Number of timesteps to compress - until no more occilation of walls
#variable       Nshear    equal 1000000                     # Number of timesteps to shear - use approx 4ns for 10m/s
#variable       Nthermo   equal 1000                        # Number of timesteps between thermo data prints
#variable       Ndump_e   equal 10000
#variable       Ndump_c   equal 10000                       # Number of timesteps per dump file (compression)
#variable       Ndump_s   equal 10000                       # Number of timesteps per dump file (shear)
#variable       Pcomp     equal 1
variable        Pcomp2    equal ${Pcomp}
variable        Pcomp2    equal 1
variable        Vwall     equal $(v_Vwalli * v_Vscale)
variable        Vwall     equal 0.10000000000000000555

# For Equilibration - density profiles (10 for entire run)
variable       Nfreqe   equal ${Nequil}/10                  # Calculate bin averages every this many timesteps
variable       Nfreqe   equal 30000/10                  
variable       Neverye  equal 100                           # Use input values every this many timesteps
variable       Nrepeate equal ${Nfreqe}/${Neverye}          #s Number of times to use input values
variable       Nrepeate equal 3000/${Neverye}          
variable       Nrepeate equal 3000/100          


# For compression - density profiles (10 for entire run)
variable       Nfreqc   equal ${Ncomp}/10                  # Calculate bin averages every this many timesteps
variable       Nfreqc   equal 70000/10                  
variable       Neveryc  equal 100                          # Use input values every this many timesteps
variable       Nrepeatc equal ${Nfreqc}/${Neveryc}         # Number of times to use input values
variable       Nrepeatc equal 7000/${Neveryc}         
variable       Nrepeatc equal 7000/100         

# For Shear - density profiles (10 for entire run)
variable       Nfreqs   equal ${Nshear}/10                  # Calculate bin averages every this many timesteps
variable       Nfreqs   equal 200000/10                  
variable       Neverys  equal 100                          # Use input values every this many timesteps
variable       Nrepeats equal ${Nfreqs}/${Neverys}         # Number of times to use input values
variable       Nrepeats equal 20000/${Neverys}         
variable       Nrepeats equal 20000/100         


variable       binres   equal  0.001                       # Giving 1000 data points across the sim. box



variable       bwzmin  equal bound(bwall,zmin)
variable       bwzmax  equal bound(bwall,zmax)
variable       twzmin  equal bound(twall,zmin)
variable       twzmax  equal bound(twall,zmax)
variable       c       equal count(gbeads)
variable       surfcov equal $(v_M/(lx*ly))
variable       surfcov equal 0.066666666666666665741
variable       D       equal v_twzmin-v_bwzmax
variable       Dout    equal v_twzmax-v_bwzmin
variable       srate   equal (v_Vwall/v_D)


#--- Define regions and groups ---#

print        "bwzmin = ${bwzmin}"
bwzmin = 0
print        "bwzmax = ${bwzmax}"
bwzmax = 2.3811015779523
print        "twzmin = ${twzmin}"
twzmin = 67.6188984220477
print        "twzmax = ${twzmax}"
twzmax = 70

region         bwallb  block  INF INF INF INF ${bwzmin} $(v_bwzmin + 0.4) units box
region         bwallb  block  INF INF INF INF 0 $(v_bwzmin + 0.4) units box
region         bwallb  block  INF INF INF INF 0 0.4000000000000000222 units box
region         bwallm  block  INF INF INF INF $(v_bwzmin + 0.35) $(v_bwzmax - 0.35) units box
region         bwallm  block  INF INF INF INF 0.3499999999999999778 $(v_bwzmax - 0.35) units box
region         bwallm  block  INF INF INF INF 0.3499999999999999778 2.0311015779522998415 units box
region         bwallt  block  INF INF INF INF $(v_bwzmax - 0.7) $(v_bwzmax) units box
region         bwallt  block  INF INF INF INF 1.6811015779522999747 $(v_bwzmax) units box
region         bwallt  block  INF INF INF INF 1.6811015779522999747 2.3811015779522999303 units box
region         bmelt   block  INF INF INF INF $(v_bwzmax) $(v_twzmax / 2) units box
region         bmelt   block  INF INF INF INF 2.3811015779522999303 $(v_twzmax / 2) units box
region         bmelt   block  INF INF INF INF 2.3811015779522999303 35 units box
region         tmelt   block  INF INF INF INF $(v_twzmax / 2)  $(v_twzmin - 0.1) units box
region         tmelt   block  INF INF INF INF 35  $(v_twzmin - 0.1) units box
region         tmelt   block  INF INF INF INF 35  67.518898422047712415 units box
region         twallb  block  INF INF INF INF $(v_twzmin - 0.1) $(v_twzmin + 0.35) units box
region         twallb  block  INF INF INF INF 67.518898422047712415 $(v_twzmin + 0.35) units box
region         twallb  block  INF INF INF INF 67.518898422047712415 67.968898422047701047 units box
region         twallm  block  INF INF INF INF $(v_twzmin + 0.35) $(v_twzmax - 0.35) units box
region         twallm  block  INF INF INF INF 67.968898422047701047 $(v_twzmax - 0.35) units box
region         twallm  block  INF INF INF INF 67.968898422047701047 69.650000000000005684 units box
region         twallt  block  INF INF INF INF $(v_twzmax - 0.35) $(v_twzmax) units box
region         twallt  block  INF INF INF INF 69.650000000000005684 $(v_twzmax) units box
region         twallt  block  INF INF INF INF 69.650000000000005684 70 units box

group          bwsurf  region bwallt
722 atoms in group bwsurf
group          bwbulk  region bwallm
1444 atoms in group bwbulk
group          bwout   region bwallb
722 atoms in group bwout
group          bbeads  region bmelt
1800 atoms in group bbeads
group          tbeads  region tmelt
1800 atoms in group tbeads
group          abeads  union  bbeads tbeads
3600 atoms in group abeads
group          twsurf  region twallb
722 atoms in group twsurf
group          twbulk  region twallm
1444 atoms in group twbulk
group          twout   region twallt
722 atoms in group twout
group          rest4bot union abeads twall
6488 atoms in group rest4bot
group          rest4top union abeads bwall
6488 atoms in group rest4top
group          walls    union bwall twall
5776 atoms in group walls
group          alltop   union twall tbeads
4688 atoms in group alltop
# Other groups are: gbeads fbeads bwall twall

info system
info coeffs

#--- Exclude wall-wall interactions ---#

#neigh_modify exclude type 1 1
#neigh_modify exclude type 1 4
#neigh_modify exclude type 4 4


############
# Computes #
############

compute         Vir all pressure thermo_temp virial
compute         melTemp   abeads temp
compute         melPress  all    pressure melTemp
compute         wallTemp  walls  temp
compute         wallPress all    pressure wallTemp
variable        melDens   equal  $(mass(abeads))/(lx*ly*v_D)
variable        melDens   equal  3600/(lx*ly*v_D)

#--- Forces and Energies ---#

compute         fbwall  bwall group/group rest4bot
compute         ftwall  twall group/group rest4top
compute         fwalls  bwall group/group twall

#--- Like done in comp_shear.in ---#
group           rest_bot union abeads bwall
6488 atoms in group rest_bot
group           rest_bot2 subtract all bwsurf
8654 atoms in group rest_bot2
compute         ggbot bwsurf group/group rest_bot
compute         ggbot2 bwsurf group/group rest_bot

group           rest_top union abeads twall
6488 atoms in group rest_top
group           rest_top2 subtract all twsurf
8654 atoms in group rest_top2
compute         ggtop twsurf group/group rest_top
compute         ggtop2 twsurf group/group rest_top2


#--- Calculate the applied force on each atom for the pressure applied---#
variable Fcomp equal (${Pcomp}*lx*ly)
variable Fcomp equal (1*lx*ly)
variable Fcatom equal (-${Fcomp})/(count(twout))
variable Fcatom equal (-900)/(count(twout))


#compute	        peratom   all   stress/atom NULL
#compute	        p_all     all   reduce sum c_peratom[1] c_peratom[2] c_peratom[3]
#variable	      press_all equal -(c_p_all[1]+c_p_all[2]+c_p_all[3])/(3*v_volume)

#--- Method of Planes for local stress tensor ---#



info groups variables                              # For diagnostics


#################
# Equilibration #
#################

#--- Number Density profiles (Equil) ---#
compute         eabeads abeads chunk/atom bin/1d z lower ${binres} units reduced # Check bound keyword to maybe only bin melt area
compute         eabeads abeads chunk/atom bin/1d z lower 0.001 units reduced 
fix             abeads_edz abeads ave/chunk ${Neverye} ${Nrepeate} ${Nfreqe} eabeads density/number file abeads_edz
fix             abeads_edz abeads ave/chunk 100 ${Nrepeate} ${Nfreqe} eabeads density/number file abeads_edz
fix             abeads_edz abeads ave/chunk 100 30 ${Nfreqe} eabeads density/number file abeads_edz
fix             abeads_edz abeads ave/chunk 100 30 3000 eabeads density/number file abeads_edz
compute         ebbeads bbeads chunk/atom bin/1d z lower ${binres} units reduced # Check bound keyword to maybe only bin melt area
compute         ebbeads bbeads chunk/atom bin/1d z lower 0.001 units reduced 
fix             bbeads_edz bbeads  ave/chunk ${Neverye} ${Nrepeate} ${Nfreqe} ebbeads density/number file bbeads_edz
fix             bbeads_edz bbeads  ave/chunk 100 ${Nrepeate} ${Nfreqe} ebbeads density/number file bbeads_edz
fix             bbeads_edz bbeads  ave/chunk 100 30 ${Nfreqe} ebbeads density/number file bbeads_edz
fix             bbeads_edz bbeads  ave/chunk 100 30 3000 ebbeads density/number file bbeads_edz
compute         etbeads tbeads chunk/atom bin/1d z lower ${binres} units reduced # Check bound keyword to maybe only bin melt area
compute         etbeads tbeads chunk/atom bin/1d z lower 0.001 units reduced 
fix             tbeads_edz tbeads  ave/chunk ${Neverye} ${Nrepeate} ${Nfreqe} etbeads density/number file tbeads_edz
fix             tbeads_edz tbeads  ave/chunk 100 ${Nrepeate} ${Nfreqe} etbeads density/number file tbeads_edz
fix             tbeads_edz tbeads  ave/chunk 100 30 ${Nfreqe} etbeads density/number file tbeads_edz
fix             tbeads_edz tbeads  ave/chunk 100 30 3000 etbeads density/number file tbeads_edz

compute         mope all stress/mop/profile z lower $(zhi * v_binres) total
compute         mope all stress/mop/profile z lower 0.070099999999999995648 total
fix mope        all ave/time ${Neverye} ${Nrepeate} ${Nfreqe} c_mope[*] ave running overwrite file mope.time mode vector
fix mope        all ave/time 100 ${Nrepeate} ${Nfreqe} c_mope[*] ave running overwrite file mope.time mode vector
fix mope        all ave/time 100 30 ${Nfreqe} c_mope[*] ave running overwrite file mope.time mode vector
fix mope        all ave/time 100 30 3000 c_mope[*] ave running overwrite file mope.time mode vector

#--- Radius of gyration of the bottom brush chains ---#
compute         chunk_bot bbeads chunk/atom molecule
compute         rgbbeads bbeads gyration/chunk chunk_bot
variable        aveRg    equal  (ave(c_rgbbeads))


#--- Fixes (Equil) ---#

#velocity       abeads create ${Temp} 290842 dist gaussian
#fix             nvt_melt    abeads nvt temp ${Temp} ${Temp} 100.0

# NVE for all and langevin thermostat for melt
fix             nve_melt abeads nve
fix             lang_melt abeads langevin ${Temp} ${Temp} 0.1 798753
fix             lang_melt abeads langevin 1 ${Temp} 0.1 798753
fix             lang_melt abeads langevin 1 1 0.1 798753
fix             nve_walls  walls nve

#--- Langevin thermostat the bulk of the walls in y ---#
# Only thermostat the bulk of the wall not the surface or the outer layer
compute         Tempyt     twbulk temp/partial 0 1 0
fix             lang_tbulk twbulk langevin ${Temp} ${Temp} 0.1 87239 zero yes
fix             lang_tbulk twbulk langevin 1 ${Temp} 0.1 87239 zero yes
fix             lang_tbulk twbulk langevin 1 1 0.1 87239 zero yes
fix_modify      lang_tbulk temp Tempyt
compute         Tempyb     bwbulk temp/partial 0 1 0
fix             lang_bbulk bwbulk langevin ${Temp} ${Temp} 0.1 87239 zero yes
fix             lang_bbulk bwbulk langevin 1 ${Temp} 0.1 87239 zero yes
fix             lang_bbulk bwbulk langevin 1 1 0.1 87239 zero yes
fix_modify      lang_bbulk temp Tempyb

#--- Freeze the outer layer of the walls ---#
fix             freeze_bout bwout setforce 0.0 0.0 0.0
fix             freeze_tout twout setforce 0.0 0.0 0.0

#--- Thermo output ---#

thermo_style  custom step etotal ke pe epair temp c_melTemp c_wallTemp v_Fcatom v_Pcomp2 press pxx pyy pzz pxy pxz pyz c_Vir c_Vir[1] c_Vir[2] c_Vir[3] c_Vir[4] c_Vir[5] c_Vir[6] c_melPress c_wallPress v_melDens v_surfcov v_aveRg v_Vwall v_srate v_D v_bwzmax zhi c_fbwall[1] c_fbwall[3] c_ftwall[1] c_ftwall[3] c_ggbot[1] c_ggbot[3] c_ggtop[1] c_ggtop[3]
thermo        ${Nthermo}
thermo        1000
thermo_modify flush yes

#--- Dumps ---#
#dump           eq all image ${Ndump_e} stg1.*.jpg type type zoom 2 view 60 120 bond none none
dump            eqxyz all xyz ${Nequil} eq.xyz
dump            eqxyz all xyz 30000 eq.xyz

#--- Run Equilibration ---#
timestep    ${Tstep}
timestep    0.005
run         ${Nequil}
run         30000
WARNING: compute stress/mop/profile does not account for bond potentials (src/USER-MISC/compute_stress_mop_profile.cpp:193)
Neighbor list info ...
  update every 1 steps, delay 0 steps, check yes
  max neighbors/atom: 2000, page size: 100000
  master list distance cutoff = 1.42246
  ghost atom cutoff = 1.42246
  binsize = 0.711231, bins = 43 43 99
  9 neighbor lists, perpetual/occasional/extra = 1 8 0
  (1) pair lj/cut, perpetual
      attributes: half, newton on
      pair build: half/bin/newton
      stencil: half/bin/3d/newton
      bin: standard
  (2) compute group/group, occasional, copy from (1)
      attributes: half, newton on
      pair build: copy
      stencil: none
      bin: none
  (3) compute group/group, occasional, copy from (1)
      attributes: half, newton on
      pair build: copy
      stencil: none
      bin: none
  (4) compute group/group, occasional, copy from (1)
      attributes: half, newton on
      pair build: copy
      stencil: none
      bin: none
  (5) compute group/group, occasional, copy from (1)
      attributes: half, newton on
      pair build: copy
      stencil: none
      bin: none
  (6) compute group/group, occasional, copy from (1)
      attributes: half, newton on
      pair build: copy
      stencil: none
      bin: none
  (7) compute group/group, occasional, copy from (1)
      attributes: half, newton on
      pair build: copy
      stencil: none
      bin: none
  (8) compute group/group, occasional, copy from (1)
      attributes: half, newton on
      pair build: copy
      stencil: none
      bin: none
  (9) compute stress/mop/profile, occasional, copy from (1)
      attributes: half, newton on
      pair build: copy
      stencil: none
      bin: none
WARNING: Inconsistent image flags (src/domain.cpp:784)
Per MPI rank memory allocation (min/avg/max) = 10.57 | 10.57 | 10.57 Mbytes
Step TotEng KinEng PotEng E_pair Temp c_melTemp c_wallTemp v_Fcatom v_Pcomp2 Press Pxx Pyy Pzz Pxy Pxz Pyz c_Vir c_Vir[1] c_Vir[2] c_Vir[3] c_Vir[4] c_Vir[5] c_Vir[6] c_melPress c_wallPress v_melDens v_surfcov v_aveRg v_Vwall v_srate v_D v_bwzmax Zhi c_fbwall[1] c_fbwall[3] c_ftwall[1] c_ftwall[3] c_ggbot[1] c_ggbot[3] c_ggtop[1] c_ggtop[3] 
WARNING: One or more chunks do not contain all atoms in molecule (src/compute_chunk_atom.cpp:1161)
       0    6.4300024            0    6.4300024 -0.049435231            0            0            0   -1.2465374            1   0.29830313    1.0821911    1.0821763    -1.269458 -3.8745736e-05 2.4516568e-07 -6.1318788e-08   0.29830313    1.0821911    1.0821763    -1.269458 -3.8745736e-05 2.4516568e-07 -6.1318788e-08   0.29830313   0.29830313  0.061314149  0.066666667    3.8737558          0.1 0.0015328537    65.237797    2.3811016         70.1            0            0            0            0            0            0            0            0 
    1000    7.4364366    1.3878341    6.0486025 -0.025027263   0.92532142    1.0208496   0.86594813   -1.2465374            1  -0.37847396   0.57159471   0.57954885   -2.2865654 -0.0022449495  0.017663606 -0.0043227838  -0.51597417   0.41200558   0.45680928   -2.4167374 -0.00099051954  0.018868275 -0.0067799727   -0.4577393  -0.43670883  0.061579322  0.066666667    3.4916569          0.1 0.0015394831    64.956869    2.5164224         70.1 -0.00014794257 -0.00042488725 6.4559612e-05 0.00011253318 -0.00014794257 -0.00042488725 6.4559612e-05 0.00011253318 
    2000    6.8316282    1.3802416    5.4513867 -0.033265435    0.9202592    1.0232825   0.85621405   -1.2465374            1  0.027471065   0.77136577   0.80777258   -1.4967252 -0.0016021981  0.012745861 -0.032332763  -0.10927691   0.62074287   0.68337905   -1.6319527 -0.0010565894 0.0095271206 -0.032184519  -0.05090326  -0.03090259  0.061530421  0.066666667    3.2453515          0.1 0.0015382605    65.008494    2.4908828         70.1 -6.9682503e-05 -6.8085226e-05            0            0 -6.9682503e-05 -6.8085226e-05            0            0 
    3000    6.3491142    1.3765413    4.9725729 -0.038817777   0.91779208   0.99233043   0.87149845   -1.2465374            1  0.080258673   0.75542793      0.79229   -1.3069419 -0.0012675994  0.028568671  0.013307311 -0.056122699   0.60378308   0.66602272   -1.4381739 -0.001907012  0.028172148    0.0119747 0.00048527704  0.023650697  0.061542758  0.066666667    3.0469354          0.1 0.0015385689    64.995462    2.5012705         70.1 -0.00031523325 -0.00047656715 -4.0728154e-05 3.8682022e-05 -0.00031523325 -0.00047656715 -4.0728154e-05 3.8682022e-05 
    4000    5.9749248    1.4013504    4.5735744 -0.049216748   0.93433326    1.0007211   0.89312191   -1.2465374            1   0.27346823   0.87213069   0.87492436  -0.92665037 -0.0010171457  0.030280785 -0.0083696868   0.13462888   0.71622448   0.74999465   -1.0623325 -0.00055137037  0.032185829 -0.0087270737   0.19171551    0.2163816  0.061523207  0.066666667    2.8938657          0.1 0.0015380802    65.016116    2.4911793         70.1 -0.00017041821 -0.00014497843 0.0033599586 0.0035079288 -0.00017041821 -0.00014497843 0.0033599586 0.0035079288 
    5000    5.6728841    1.3926513    4.2802328 -0.055302441   0.92853323    1.0416333   0.85820963   -1.2465374            1  0.092800673   0.69223511   0.72105213   -1.1348852 0.0014037665  0.024646125  -0.01679076 -0.045176804   0.54449599   0.59090195   -1.2709283 -0.00054256572  0.025509938  -0.01732767  0.014243681  0.033380187  0.061563234  0.066666667    2.7571975          0.1 0.0015390808    64.973845    2.5105777         70.1 -0.00089152974 -0.0018158027 0.0022466374 0.0033048661 -0.00089152974 -0.0018158027 0.0022466374 0.0033048661 
    6000     5.370935    1.3606016    4.0103333 -0.063620919   0.90716451    1.0090491   0.84382674   -1.2465374            1   0.20925505   0.75026288   0.76496217  -0.88745989 -0.0022218973 -0.0014738705 -0.0062908522  0.074452907   0.60449242   0.64146432    -1.022598 0.00041708677 -0.0015956437 -0.0056465686   0.13201461   0.15169335  0.061506469  0.066666667    2.6495375          0.1 0.0015376617     65.03381    2.4885225         70.1 -0.00011356508 -0.0027322157 -0.0022461861  0.010633256 -0.00011356508 -0.0027322157 -0.0022461861  0.010633256 
    7000    5.1652671    1.3726364    3.7926306 -0.070460107   0.91518856    1.0136202   0.85400413   -1.2465374            1   0.33738795    0.8277589   0.82995183  -0.64554688 0.0049068724 0.0070481505 -0.0012865996   0.20139345   0.68147328   0.70513013  -0.78242305 0.0025662565 0.0089398511 -0.0018584152   0.25921591   0.27956549   0.06151117  0.066666667    2.5362143          0.1 0.0015377792     65.02884    2.4855341         70.1 -0.004691016 -0.0092065261 -0.00047715791 0.0069174854 -0.004691016 -0.0092065261 -0.00047715791 0.0069174854 
    8000    4.9739119    1.3492211    3.6246907 -0.086396077   0.89957671   0.99533123   0.84005793   -1.2465374            1   0.36487431   0.80880033   0.83788726  -0.55206466 -0.0016421993 0.0058671076 -0.028853792   0.23119969   0.67118779   0.70834043  -0.68592913 -0.00067822686 0.0096979889 -0.027861747   0.28797885   0.30809515  0.061582947  0.066666667    2.4583128          0.1 0.0015395737    64.953046    2.5238542         70.1 -0.00049664682 -0.015072227 -0.00084305179 0.0071170429 -0.00049664682 -0.015072227 -0.00084305179 0.0071170429 
    9000    4.7540911    1.3219045    3.4321866  -0.10500997   0.88136368   0.97976489   0.82019231   -1.2465374            1   0.39787681   0.82343928   0.83260983  -0.46241868 -0.0010155133  0.037610287 -0.0029506772    0.2669086    0.6825329   0.71108641  -0.59289352 -0.0026600754  0.037862352 -0.0035275474   0.32279977   0.34198564  0.061519274  0.066666667    2.3940699          0.1 0.0015379819    65.020273    2.4842382         70.1 0.0011016187 -0.013614947 -0.0018394114  0.021160103 0.0011016187 -0.013614947 -0.0018394114  0.021160103 
   10000    4.6409771    1.3426442    3.2983329  -0.12089348    0.8951916    1.0187712   0.81833137   -1.2465374            1   0.35268659   0.77537734   0.78621311  -0.50353069 0.0018693502  0.017564464 -0.013221169   0.21966358   0.63159677    0.6612944  -0.63390042 0.00064728397  0.019953386 -0.010816467   0.27777989   0.29457028  0.061514175  0.066666667    2.3488742          0.1 0.0015378544    65.025663    2.4937372         70.1 -9.6466098e-05 -0.027784977  0.002406985  0.030466549 -9.6466098e-05 -0.027784977  0.002406985  0.030466549 
   11000    4.5858851    1.3530833    3.2328018   -0.1201835   0.90215175    1.0160415   0.83133149   -1.2465374            1   0.50946558   0.86835431    0.8870597  -0.22701726 0.0037948799 -0.023545814 -0.009976068   0.37540832   0.72578412   0.75790453  -0.35746369 0.00085119338 -0.024918722 -0.010663665   0.43336891     0.451505  0.061573565  0.066666667    2.2832315          0.1 0.0015393391    64.962943    2.5197326         70.1 0.0069173139 -0.035183648 0.0027993174   0.06266589 0.0069173139 -0.035183648 0.0027993174   0.06266589 
   12000    4.4711749    1.3547724    3.1164026  -0.14104877   0.90327791    1.0114312   0.83603281   -1.2465374            1   0.45408536   0.82481572   0.82676143  -0.28932106 -0.0035091962  -0.01626994  0.013041596   0.31986076   0.68168663   0.69815681  -0.42026116 -0.0028152849 -0.018971682   0.01332122   0.37755835   0.39638777  0.061520351  0.066666667    2.2360576          0.1 0.0015380088    65.019135    2.4851263         70.1 -0.0037177319 -0.049970071 -0.0063466723  0.064305528 -0.0037177319 -0.049970071 -0.0063466723  0.064305528 
   13000    4.4447349      1.30722    3.1375149  -0.14243133   0.87157297    1.0007529   0.79121853   -1.2465374            1   0.45311306   0.79640349   0.82099247  -0.25805678 0.0062967594 -0.024968943 0.0079605089   0.32359972   0.66533903   0.69446808  -0.38900795 0.0014679499  -0.02306354 0.0086504919   0.38068816   0.39602462  0.061509535  0.066666667    2.1923206          0.1 0.0015377384    65.030568     2.487066         70.1  0.002187209 -0.050039987 -0.0032646112  0.080487706  0.002187209 -0.050039987 -0.0032646112  0.080487706 
   14000    4.4152303    1.3192361    3.0959942  -0.14469055   0.87958452   0.99596162   0.80721022   -1.2465374            1   0.49480591   0.83753414   0.83223351  -0.18534991 -0.0035959644 0.0080910349 -0.0060675048   0.36410208   0.69667598    0.7084387  -0.31280845 -0.0035020647 0.0067427805 -0.0062785275    0.4209172   0.43799079  0.061524034  0.066666667    2.1660567          0.1 0.0015381008    65.015243    2.4906031         70.1 -0.0010837439  -0.06133073 0.0043727548   0.10892838 -0.0010837439  -0.06133073 0.0043727548   0.10892838 
   15000    4.3711431    1.3092076    3.0619355  -0.14380953   0.87289815    1.0127215   0.78591093   -1.2465374            1   0.54677393   0.85624531   0.87146015 -0.087383688 0.00081854437 0.0091913754  0.015075522   0.41706367   0.72605962   0.74391475  -0.21878336 0.0019129578  0.008771948  0.015738011   0.47483486   0.48900273  0.061541796  0.066666667    2.1268834          0.1 0.0015385449    64.996478    2.4871431         70.1 0.0016905114 -0.071314541 -0.0042936664  0.068663083 0.0016905114 -0.071314541 -0.0042936664  0.068663083 
   16000    4.3694549    1.3191252    3.0503297  -0.14508455   0.87951061      1.01627     0.794434   -1.2465374            1   0.53739871   0.85197199   0.86677179  -0.10654766 -0.00079886886  0.017322436 -0.034596284   0.40670586   0.71753742   0.73903126   -0.2364511 -0.00036723128  0.017425022 -0.032887614   0.46467948   0.47942509  0.061505141  0.066666667    2.1106581          0.1 0.0015376285    65.035214    2.4862313         70.1 -0.005078999 -0.094660578 0.0098389038  0.078615259 -0.005078999 -0.094660578 0.0098389038  0.078615259 
   17000    4.3484083    1.2926586    3.0557497  -0.14456094    0.8618643   0.99562657   0.77865243   -1.2465374            1   0.56572279   0.87306455   0.88016961  -0.05606579 0.00042924857  0.034167708  0.011316208   0.43765213   0.74290273   0.75607949  -0.18602582 0.0011443109  0.032210824  0.014009191   0.49444814   0.50892679  0.061536589  0.066666667    2.0844632          0.1 0.0015384147    65.001978     2.487404         70.1 -0.0020347432 -0.079474732  0.018678705  0.088055263 -0.0020347432 -0.079474732  0.018678705  0.088055263 
   18000    4.3287978    1.2921708    3.0366271  -0.14669663   0.86153906   0.99966017   0.77561069   -1.2465374            1   0.54617154   0.85638769   0.86193412 -0.079807203 0.0049540183  0.018909108 -0.018829294   0.41814921    0.7265646   0.73913692  -0.21125389 0.0048587615  0.022657222 -0.019026367   0.47517531   0.48914543  0.061530191  0.066666667    2.0646263          0.1 0.0015382548    65.008737    2.4954817         70.1 -0.0031179731 -0.081186333 -0.0078441236  0.070116987 -0.0031179731 -0.081186333 -0.0078441236  0.070116987 
   19000    4.3343593    1.2874162    3.0469431  -0.14524608   0.85836901   0.98962687   0.77671729   -1.2465374            1   0.56591314   0.87427515   0.87110132 -0.047637062 0.00010841228 0.0063197648 -0.0089968714   0.43836187   0.74283421   0.74675589  -0.17450449 0.00057734685  0.005141096  -0.01144087   0.49481562   0.50945939  0.061540188  0.066666667    2.0491589          0.1 0.0015385047    64.998177     2.515738         70.1 -0.0050965619 -0.099311645 -0.0040790766  0.072837529 -0.0050965619 -0.099311645 -0.0040790766  0.072837529 
   20000    4.3461372    1.3006654    3.0454717  -0.14080634   0.86720277    1.0029535   0.78275263   -1.2465374            1   0.53483265   0.85149745   0.83852906 -0.085528575 0.0017031725  0.031774849  0.027662629   0.40596871   0.71871617   0.71206069  -0.21287074 0.0030128548  0.027745894  0.028494232   0.46318268   0.47761867  0.061530687  0.066666667    2.0223093          0.1 0.0015382672    65.008213    2.4899142         70.1 -0.0075504779 -0.072824396 0.0044388703  0.087645266 -0.0075504779 -0.072824396 0.0044388703  0.087645266 
   21000    4.3224315    1.3006309    3.0218007  -0.14614131   0.86717974    1.0070139   0.78018476   -1.2465374            1   0.54880771   0.85007569   0.86199801 -0.065650566 -0.0010157488 -0.0019725103  0.015231181    0.4199472   0.71900537   0.73468656  -0.19385034 -0.0027531243 -0.00072812066   0.01420181    0.4773928   0.49136211  0.061502731  0.066666667    2.0062315          0.1 0.0015375683    65.037762    2.4779843         70.1 -0.0033826221 -0.081875113 0.0012633028  0.099342801 -0.0033826221 -0.081875113 0.0012633028  0.099342801 
   22000    4.3278538    1.2934058     3.034448  -0.15056401   0.86236253    1.0045865    0.7738774   -1.2465374            1   0.56131772   0.85762018   0.87340215 -0.047069173 0.0027214864  0.011334585 -0.020057944   0.43317303   0.72660671   0.74517989  -0.17226752 0.0022618815  0.011576148 -0.019600405   0.49048016   0.50401059   0.06152625  0.066666667    2.0030812          0.1 0.0015381562    65.012901    2.4971097         70.1 0.00093353188  -0.06414461 0.0023408177  0.085002301 0.00093353188  -0.06414461 0.0023408177  0.085002301 
   23000    4.2925882    1.2875582      3.00503  -0.13962147   0.85846368   0.99087604   0.77609249   -1.2465374            1   0.56769683   0.86478742   0.87444189 -0.036138804 0.0016370896  -0.01035531 0.0017786692    0.4401315   0.73419525   0.75005934   -0.1638601 0.0015346399 -0.0095106711 0.0038837342   0.49665651   0.51117182  0.061530835  0.066666667    2.0026592          0.1 0.0015382709    65.008056    2.5107077         70.1 -0.0065624446 -0.086695126  -0.01012469  0.095581907 -0.0065624446 -0.086695126  -0.01012469  0.095581907 
   24000    4.2613425     1.268278    2.9930646  -0.14617088   0.84560882   0.98743085   0.75737127   -1.2465374            1   0.53814952   0.84157819   0.84434875 -0.071478386 0.0030091542 0.0010931082 0.0019290967   0.41249438   0.71470567   0.72025732  -0.19747986 0.0027519931 -0.0001271904 0.0011797709   0.46882285   0.48182104  0.061524616  0.066666667    1.9788969          0.1 0.0015381154    65.014627    2.4898479         70.1 -0.012103342  -0.10073223 -0.0014805992  0.087499766 -0.012103342  -0.10073223 -0.0014805992  0.087499766 
   25000    4.3088744    1.2787296    3.0301448  -0.14217478   0.85257734    1.0068426   0.75658635   -1.2465374            1   0.50844677   0.82145466   0.82083903  -0.11695337 0.0018646909 -0.024359441 0.0013108207   0.38175613   0.69248973    0.6959729  -0.24319423 0.00047938005 -0.023398223 -0.00049841949   0.43919196   0.45101095    0.0615399  0.066666667    1.9626677          0.1 0.0015384975    64.998481    2.5027475         70.1 0.0051601772  -0.10739882 0.0042033022   0.11924568 0.0051601772  -0.10739882 0.0042033022   0.11924568 
   26000    4.3315996    1.2999553    3.0316443  -0.14354435   0.86672932    1.0094746   0.77792006   -1.2465374            1    0.5479039   0.84366764   0.85547026 -0.055426202 0.0013391539 -0.030227144 0.0051900259   0.41911031   0.71433082   0.72789009  -0.18488997 0.0018719115  -0.02970346 0.0050529411   0.47669629   0.49031793  0.061511657  0.066666667    1.9599096          0.1 0.0015377914    65.028324    2.4968093         70.1 0.0039523274 -0.085124785 -0.0041940167  0.083769926 0.0039523274 -0.085124785 -0.0041940167  0.083769926 
   27000    4.2845241    1.2672686    3.0172555  -0.15144057   0.84493587   0.99675177   0.75046998   -1.2465374            1   0.56286301   0.85819302   0.87636837  -0.04597237 0.0013245536 -0.016534709 -0.024190392   0.43730787   0.73268891   0.75148979   -0.1722551 0.00096876427 -0.015983256 -0.023980531   0.49416806   0.50600281  0.061513264  0.066666667    1.9492613          0.1 0.0015378316    65.026626     2.488469         70.1  0.001697611 -0.080802521  0.008468008   0.12062916  0.001697611 -0.080802521  0.008468008   0.12062916 
   28000    4.3032827    1.2791874    3.0240953  -0.14080775   0.85288253    0.9979913   0.76259794   -1.2465374            1   0.57415628    0.8653721   0.87713867 -0.020041919 -0.0029806624 -0.019534062 -0.012262505   0.44742029   0.73986836   0.75007939  -0.14768687 -0.0023092795 -0.018315734 -0.012693182    0.5043512   0.51722538  0.061516378  0.066666667    1.9395594          0.1 0.0015379095    65.023334    2.4903222         70.1 0.0030098954  -0.11362274 0.0064811413  0.093408579 0.0030098954  -0.11362274 0.0064811413  0.093408579 
   29000    4.2703744    1.2686211    3.0017534  -0.14725018   0.84583758   0.98987991   0.75621638   -1.2465374            1   0.59938387   0.89437908   0.89221827  0.011554246 -0.00086947991 -0.024998768 -0.0043685717   0.47369474   0.76722604   0.76771476   -0.1138566 -0.0028140834 -0.023779395 -0.0044648517   0.53016292   0.54291568  0.061551883  0.066666667    1.9383382          0.1 0.0015387971    64.985827    2.5057001         70.1 -0.0069815568 -0.085131646 0.0010126419  0.084610285 -0.0069815568 -0.085131646 0.0010126419  0.084610285 
   30000    4.2901925    1.2714497    3.0187428  -0.14379035   0.84772355    1.0140234   0.74423172   -1.2465374            1   0.53935365   0.84422577   0.84680105 -0.072965863 0.0036061154  0.023400851 -0.025598575   0.41338427   0.71774231   0.72155878  -0.19914828 0.0028374412  0.021208732 -0.021172874   0.47122973   0.48150819  0.061528307  0.066666667    1.9377495          0.1 0.0015382077    65.010727    2.5006936         70.1 -0.002905907  -0.07721878 -0.00060735242  0.097148513 -0.002905907  -0.07721878 -0.00060735242  0.097148513 
Loop time of 42.2033 on 1 procs for 30000 steps with 9376 atoms

Performance: 307084.985 tau/day, 710.845 timesteps/s
99.3% CPU use with 1 MPI tasks x 1 OpenMP threads

MPI task timing breakdown:
Section |  min time  |  avg time  |  max time  |%varavg| %total
---------------------------------------------------------------
Pair    | 2.1843     | 2.1843     | 2.1843     |   0.0 |  5.18
Bond    | 9.6267     | 9.6267     | 9.6267     |   0.0 | 22.81
Neigh   | 10.122     | 10.122     | 10.122     |   0.0 | 23.98
Comm    | 0.74792    | 0.74792    | 0.74792    |   0.0 |  1.77
Output  | 0.065415   | 0.065415   | 0.065415   |   0.0 |  0.16
Modify  | 18.676     | 18.676     | 18.676     |   0.0 | 44.25
Other   |            | 0.7811     |            |       |  1.85

Nlocal:    9376 ave 9376 max 9376 min
Histogram: 1 0 0 0 0 0 0 0 0 0
Nghost:    1671 ave 1671 max 1671 min
Histogram: 1 0 0 0 0 0 0 0 0 0
Neighs:    5117 ave 5117 max 5117 min
Histogram: 1 0 0 0 0 0 0 0 0 0

Total # of neighbors = 5117
Ave neighs/atom = 0.545755
Ave special neighs/atom = 6.92833
Neighbor list builds = 3911
Dangerous builds = 0
#undump      eq
undump       eqxyz

#--- Unfix Equil ---#

unfix abeads_edz
unfix bbeads_edz
unfix tbeads_edz
unfix mope

unfix freeze_tout


###############
# Compression #
###############


#--- Bring the brushes closer together fit the sim box ---#

variable       bbzmax  equal bound(bbeads,zmax)
variable       tbzmin  equal bound(tbeads,zmin)
displace_atoms  alltop move 0.0 0.0 -$(v_tbzmin - v_bbzmax) units box
displace_atoms  alltop move 0.0 0.0 -35.686773140298001294 units box
variable z_f equal bound(all,zmin)
variable z_c equal bound(all,zmax)
change_box all z final ${z_f} $(v_z_c + 0.1) units box
change_box all z final 0 $(v_z_c + 0.1) units box
change_box all z final 0 34.413226859702000127 units box
  orthogonal box = (0 0 0) to (30 30 34.4132)

print         "D = $D"
D = 29.3239543080714
print         "D = $(v_twzmin - v_bwzmax)"
D = 29.323954308071439101
info variables

#--- Computes ---#

# Number density profiles and mop

compute         cabeads abeads chunk/atom bin/1d z lower ${binres} units reduced # Check bound keyword to maybe only bin melt area
compute         cabeads abeads chunk/atom bin/1d z lower 0.001 units reduced 
fix             abeads_cdz abeads  ave/chunk ${Neveryc} ${Nrepeatc} ${Nfreqc} cabeads density/number file abeads_cdz
fix             abeads_cdz abeads  ave/chunk 100 ${Nrepeatc} ${Nfreqc} cabeads density/number file abeads_cdz
fix             abeads_cdz abeads  ave/chunk 100 70 ${Nfreqc} cabeads density/number file abeads_cdz
fix             abeads_cdz abeads  ave/chunk 100 70 7000 cabeads density/number file abeads_cdz
compute         cbbeads bbeads chunk/atom bin/1d z lower ${binres} units reduced # Check bound keyword to maybe only bin melt area
compute         cbbeads bbeads chunk/atom bin/1d z lower 0.001 units reduced 
fix             bbeads_cdz bbeads  ave/chunk ${Neveryc} ${Nrepeatc} ${Nfreqc} cbbeads density/number file bbeads_cdz
fix             bbeads_cdz bbeads  ave/chunk 100 ${Nrepeatc} ${Nfreqc} cbbeads density/number file bbeads_cdz
fix             bbeads_cdz bbeads  ave/chunk 100 70 ${Nfreqc} cbbeads density/number file bbeads_cdz
fix             bbeads_cdz bbeads  ave/chunk 100 70 7000 cbbeads density/number file bbeads_cdz
compute         ctbeads tbeads chunk/atom bin/1d z lower ${binres} units reduced # Check bound keyword to maybe only bin melt area
compute         ctbeads tbeads chunk/atom bin/1d z lower 0.001 units reduced 
fix             tbeads_cdz tbeads  ave/chunk ${Neveryc} ${Nrepeatc} ${Nfreqc} ctbeads density/number file tbeads_cdz
fix             tbeads_cdz tbeads  ave/chunk 100 ${Nrepeatc} ${Nfreqc} ctbeads density/number file tbeads_cdz
fix             tbeads_cdz tbeads  ave/chunk 100 70 ${Nfreqc} ctbeads density/number file tbeads_cdz
fix             tbeads_cdz tbeads  ave/chunk 100 70 7000 ctbeads density/number file tbeads_cdz

compute         mopc all stress/mop/profile z lower $(zhi * v_binres) total
compute         mopc all stress/mop/profile z lower 0.034413226859702002181 total
fix mopc        all ave/time ${Neveryc} ${Nrepeatc} ${Nfreqc} c_mopc[*] ave running overwrite file mopc.time mode vector
fix mopc        all ave/time 100 ${Nrepeatc} ${Nfreqc} c_mopc[*] ave running overwrite file mopc.time mode vector
fix mopc        all ave/time 100 70 ${Nfreqc} c_mopc[*] ave running overwrite file mopc.time mode vector
fix mopc        all ave/time 100 70 7000 c_mopc[*] ave running overwrite file mopc.time mode vector


#--- Fixes ---#
fix             freeze_tout twout setforce 0.0 0.0 NULL
fix             comp_tout twout aveforce 0.0 0.0 ${Fcatom}
fix             comp_tout twout aveforce 0.0 0.0 -1.24653739612188
fix             rwalls all wall/reflect zlo EDGE zhi EDGE




#--- Dumps ---#
#dump           comp all image ${Ndump_c} stg2.*.jpg type type zoom 2 view 60 120 bond none none
dump            cpxyz all xyz ${Ncomp} cp.xyz
dump            cpxyz all xyz 70000 cp.xyz

#--- Run Compression ---#
timestep    ${Tstep}
timestep    0.005
run         ${Ncomp}
run         70000
WARNING: compute stress/mop/profile does not account for bond potentials (src/USER-MISC/compute_stress_mop_profile.cpp:193)
WARNING: compute stress/mop/profile does not account for bond potentials (src/USER-MISC/compute_stress_mop_profile.cpp:193)
Neighbor list info ...
  update every 1 steps, delay 0 steps, check yes
  max neighbors/atom: 2000, page size: 100000
  master list distance cutoff = 1.42246
  ghost atom cutoff = 1.42246
  binsize = 0.711231, bins = 43 43 49
  10 neighbor lists, perpetual/occasional/extra = 1 9 0
  (1) pair lj/cut, perpetual
      attributes: half, newton on
      pair build: half/bin/newton
      stencil: half/bin/3d/newton
      bin: standard
  (2) compute group/group, occasional, copy from (1)
      attributes: half, newton on
      pair build: copy
      stencil: none
      bin: none
  (3) compute group/group, occasional, copy from (1)
      attributes: half, newton on
      pair build: copy
      stencil: none
      bin: none
  (4) compute group/group, occasional, copy from (1)
      attributes: half, newton on
      pair build: copy
      stencil: none
      bin: none
  (5) compute group/group, occasional, copy from (1)
      attributes: half, newton on
      pair build: copy
      stencil: none
      bin: none
  (6) compute group/group, occasional, copy from (1)
      attributes: half, newton on
      pair build: copy
      stencil: none
      bin: none
  (7) compute group/group, occasional, copy from (1)
      attributes: half, newton on
      pair build: copy
      stencil: none
      bin: none
  (8) compute group/group, occasional, copy from (1)
      attributes: half, newton on
      pair build: copy
      stencil: none
      bin: none
  (9) compute stress/mop/profile, occasional, copy from (1)
      attributes: half, newton on
      pair build: copy
      stencil: none
      bin: none
  (10) compute stress/mop/profile, occasional, copy from (1)
      attributes: half, newton on
      pair build: copy
      stencil: none
      bin: none
WARNING: Inconsistent image flags (src/domain.cpp:784)
Per MPI rank memory allocation (min/avg/max) = 8.843 | 8.843 | 8.843 Mbytes
Step TotEng KinEng PotEng E_pair Temp c_melTemp c_wallTemp v_Fcatom v_Pcomp2 Press Pxx Pyy Pzz Pxy Pxz Pyz c_Vir c_Vir[1] c_Vir[2] c_Vir[3] c_Vir[4] c_Vir[5] c_Vir[6] c_melPress c_wallPress v_melDens v_surfcov v_aveRg v_Vwall v_srate v_D v_bwzmax Zhi c_fbwall[1] c_fbwall[3] c_ftwall[1] c_ftwall[3] c_ggbot[1] c_ggbot[3] c_ggtop[1] c_ggtop[3] 
   30000    4.2901925    1.2714497    3.0187428  -0.14379035   0.84772355    1.0140234   0.74423172   -1.2465374            1    1.0986674    1.7196942    1.7249401  -0.14863201 0.0073456839  0.047667708 -0.052144488   0.84206684    1.4620464    1.4698206  -0.40566654 0.0057798888  0.043202346 -0.043129303   0.95989848   0.98083578   0.13640725  0.066666667    1.9377495          0.1 0.0034101813    29.323954    2.5006936    34.413227 -0.002905907  -0.07721878 -0.00060735242  0.097148513 -0.002905907  -0.07721878 -0.00060735242  0.097148513 
   31000    4.2777433     1.293838    2.9839053  -0.14883087   0.86265068    1.0064925   0.77315733   -1.2465374            1     1.338943     1.889009     1.902265   0.22555498 0.00020472694 0.0066019537  0.016375391    1.0778241      1.62548    1.6504298 -0.042437564 -0.0012263515 0.0030876206  0.016628351    1.1947806    1.2219865   0.14134803  0.066666667    1.9335364          0.1 0.0035337007    28.298945    2.4997259    34.413227 0.0042987691  -0.11132716 -0.0010643253    0.1758612 0.0042987691  -0.11132716 -0.0010643253    0.1758612 
   32000    4.3094048    1.3040543    3.0053505  -0.15498258   0.86946229    1.0068089   0.78401795   -1.2465374            1    1.2218443    1.8131211    1.7935928  0.058818886 0.0093544098 -0.038491798 0.0014499878   0.95866351    1.5517451    1.5308102  -0.20656477  0.011893371 -0.031228783 0.00040481805    1.0756568     1.104851    0.1484726  0.066666667    1.9247122          0.1  0.003711815    26.940998    2.5167347    34.413227  0.013785403 -0.097962231  0.012382185    0.1944624  0.013785403 -0.097962231  0.012382185    0.1944624 
   33000    4.2565451    1.2606861     2.995859   -0.1570007   0.84054704   0.97708843   0.75559953   -1.2465374            1    1.2273054    1.8115188    1.8082578  0.062139487 0.0096495784 -0.082822032 -0.0085272334    0.9728771    1.5565626    1.5548787  -0.19281002 0.0061314703 -0.083053042   -0.0027908    1.0864168    1.1137657   0.15315179  0.066666667    1.9242885          0.1 0.0038287948    26.117879     2.489504    34.413227 -0.0054766875 -0.083870404 -0.0037665578   0.17071055 -0.0054766875 -0.083870404 -0.0037665578   0.17071055 
   34000    4.3082907    1.2760102    3.0322804  -0.15484004   0.85076423    0.9908683   0.76359821   -1.2465374            1    1.1905581     1.752257     1.771528  0.047889193 0.0092043265  0.027672353 -0.050590051   0.93303712    1.4961128    1.5171089  -0.21411033 0.0097214047  0.026299266 -0.048324526    1.0481781    1.0754171    0.1575414  0.066666667    1.9158468          0.1 0.0039385351    25.390151    2.4888651    34.413227 -0.00036090839 -0.077856707  0.018702015   0.19291576 -0.00036090839 -0.077856707  0.018702015   0.19291576 
   35000    4.2623778    1.2639462    2.9984316  -0.15947003    0.8427207   0.99887574   0.74555026   -1.2465374            1    1.1688561    1.7441436    1.7454216  0.017002961 -0.0093477196  0.027297896  0.030816263   0.91376983    1.4899146    1.4935095  -0.24211461 -0.0096111614  0.027146753  0.030848435    1.0298413    1.0527846   0.16119614  0.066666667    1.9115716          0.1 0.0040299034     24.81449    2.4801246    34.413227 -0.0025332168   -0.1116958 -0.015629603   0.19668917 -0.0025332168   -0.1116958 -0.015629603   0.19668917 
   36000    4.2965333    1.2868175    3.0097158  -0.15642367   0.85796985    1.0005833   0.76924123   -1.2465374            1    1.3375119    1.8642451    1.9023124   0.24597828 0.0020976241 -0.0027381356 -0.044841298    1.0778099     1.601048    1.6466927 -0.014311042 0.0058799562 -0.0063042566 -0.045623786    1.1940797    1.2212421    0.1648863  0.066666667    1.9158549          0.1 0.0041221574    24.259142    2.4747651    34.413227 -0.0060737139  -0.10145174 -0.0038253878    0.1661505 -0.0060737139  -0.10145174 -0.0038253878    0.1661505 
   37000    4.2970869    1.2705419     3.026545  -0.15021701   0.84711827    1.0026917   0.75031108   -1.2465374            1    1.2799092    1.8453631    1.8279709    0.1663935 -0.0059934799 -0.017990256 -0.039788082    1.0234918    1.5819982    1.5823031 -0.093825962 -0.0082266904 -0.014027346 -0.041264012    1.1400067    1.1633943   0.16848822  0.066666667    1.9044066          0.1 0.0042122056    23.740532    2.5085088    34.413227 -0.0087268025 -0.084381031 0.0030605883    0.1755207 -0.0087268025 -0.084381031 0.0030605883    0.1755207 
   38000    4.2740564    1.2601135     3.013943  -0.15510512   0.84016525   0.99193652   0.74572635   -1.2465374            1    1.2540668    1.8199121    1.8219287   0.12035961 6.0807205e-05  -0.06328873  0.037495242   0.99975407    1.5594094    1.5725161   -0.1326632 -0.0022360092  -0.06971693  0.030840425    1.1150192    1.1388017   0.17120007  0.066666667    1.9099023          0.1 0.0042800018    23.364476    2.4905693    34.413227  -0.00451387 -0.085834671 0.0069219213   0.19966482  -0.00451387 -0.085834671 0.0069219213   0.19966482 
   39000    4.2998869    1.2871981    3.0126888  -0.16333079    0.8582236    1.0085741   0.76467324   -1.2465374            1    1.3046395    1.8459305    1.8675762   0.20041189 0.0042003952 -0.044354341 -0.014043484    1.0448606     1.582627    1.6111401 -0.059185112 0.0072331477 -0.044090453 -0.010361088    1.1620591    1.1874411   0.17417605  0.066666667    1.9065787          0.1 0.0043544013     22.96527    2.4906514    34.413227 0.00067970628 -0.092250278  0.013504658   0.19479533 0.00067970628 -0.092250278  0.013504658   0.19479533 
   40000     4.266526    1.2703587    2.9961673  -0.15370695   0.84699615   0.99335593   0.75593089   -1.2465374            1    1.3066958    1.8609018    1.8748618   0.18432382 -0.0077204896  0.090510492 -0.0056177953    1.0503154    1.6003178    1.6205768  -0.06994833 -0.0092269402  0.092886979 -0.006510594    1.1657455    1.1912658   0.17719445  0.066666667    1.9055441          0.1 0.0044298613     22.57407    2.4933828    34.413227 -0.003064753  -0.10315159 -3.8100673e-05   0.20416904 -0.003064753  -0.10315159 -3.8100673e-05   0.20416904 
   41000    4.2784605    1.2704346    3.0080259  -0.16316986   0.84704671   0.99091573   0.75753371   -1.2465374            1    1.1541956    1.7411148    1.7699477 -0.048475548 -0.009428555  0.068244481 -0.064776729   0.89779994    1.4828881    1.5089036  -0.29839183 -0.011659747  0.066757071 -0.066657996    1.0129464    1.0390492   0.17998745  0.066666667     1.890485          0.1 0.0044996861    22.223772    2.4856954    34.413227 -0.0062889383 -0.084207141 0.0089685681    0.2106296 -0.0062889383 -0.084207141 0.0089685681    0.2106296 
   42000    4.2712239      1.26731    3.0039139  -0.16902512   0.84496347   0.99340268   0.75260196   -1.2465374            1     1.214531     1.797221    1.8013936  0.044978315 0.0035511392 -0.0017093743  0.048003948   0.95876585    1.5356297    1.5455432  -0.20487538 0.0032166913 0.00053155533  0.045290037    1.0742013    1.0990955   0.18321398  0.066666667    1.8752926          0.1 0.0045803495    21.832395    2.5100389    34.413227 0.00097164186 -0.099594865 0.0048712022   0.16400267 0.00097164186 -0.099594865 0.0048712022   0.16400267 
   43000     4.278141    1.2682095    3.0099315  -0.15712914   0.84556316    1.0061531   0.74562934   -1.2465374            1    1.2118948    1.7959759    1.8025341  0.037174485  0.017988686    0.1056204 -0.031191629   0.95594819    1.5418895    1.5463006  -0.22034557  0.011747869    0.1063075 -0.031185138    1.0728653    1.0949777   0.18583923  0.066666667     1.864124          0.1 0.0046459807    21.523981    2.4983662    34.413227 0.00072701558 -0.070315734 -0.00045221265   0.17354452 0.00072701558 -0.070315734 -0.00045221265   0.17354452 
   44000    4.2528211     1.271238    2.9815831  -0.16214953    0.8475824     1.010794   0.74601516   -1.2465374            1    1.1367498    1.7461162    1.7462819 -0.082148606   0.01451445  0.082625328  0.024284535     0.880192    1.4897118    1.4893489  -0.33848468  0.015365559  0.087052318  0.022584255   0.99764837    1.0192935   0.18807809  0.066666667    1.8690521          0.1 0.0047019523    21.267761    2.4843529    34.413227 -0.0019900987 -0.091581557 0.0063344284    0.1634851 -0.0019900987 -0.091581557 0.0063344284    0.1634851 
   45000    4.2710348    1.2707467    3.0002881    -0.158226   0.84725481   0.99495646   0.75535334   -1.2465374            1    1.2561348    1.8265457    1.8302613   0.11159746 0.0032000282  0.053546964 -0.042520794   0.99967616    1.5694584    1.5762145   -0.1466445 -0.0023185764  0.061352027 -0.038034074    1.1152922    1.1405188   0.19131488  0.066666667    1.8567504          0.1 0.0047828721    20.907939     2.491861    34.413227 0.0058669459 -0.071799586 0.0024598549   0.17882868 0.0058669459 -0.071799586 0.0024598549   0.17882868 
   46000    4.3123776    1.2874893    3.0248883  -0.15798231   0.85841775    1.0210878   0.75718988   -1.2465374            1    1.2995668     1.856232    1.8567248   0.18574375 0.0054119772  0.062522619 -0.056977276    1.0397292    1.5996174    1.5936254 -0.074055212 -0.00015425024  0.060170701 -0.056988424    1.1583817    1.1809143   0.19468195  0.066666667    1.8549786          0.1 0.0048670488    20.546332    2.4823698    34.413227 -0.0055792105 -0.093767682 -0.004183467   0.18582325 -0.0055792105 -0.093767682 -0.004183467   0.18582325 
   47000     4.327113    1.2919551    3.0351578  -0.15728361   0.86139529    1.0190777   0.76327621   -1.2465374            1    1.2236947    1.8019625    1.7943264  0.074795328 -0.00044737419   0.18528202  0.015385573   0.96295582    1.5443016    1.5316704  -0.18710456 -0.00059561472   0.18084966  0.016905466    1.0813748    1.1052758   0.19731506  0.066666667    1.8453264          0.1 0.0049328764    20.272148    2.4831833    34.413227 -0.0046237329 -0.091427638 0.0072763013   0.20660281 -0.0046237329 -0.091427638 0.0072763013   0.20660281 
   48000    4.2721847    1.2659982    3.0061865  -0.16991827   0.84408882   0.97840581   0.76052816   -1.2465374            1    1.2233212    1.8201731    1.8136133  0.036177362 0.00032831991   0.12907907 0.0020940372   0.96782089    1.5625353    1.5649634  -0.22403606  0.001384608   0.12778387 0.0029592149    1.0815137    1.1096284   0.19993572  0.066666667    1.8370945          0.1  0.004998393     20.00643    2.5089352    34.413227 0.0024334749 -0.086285639 -0.0013153763   0.18292037 0.0024334749 -0.086285639 -0.0013153763   0.18292037 
   49000    4.2648856    1.2623901    3.0024956  -0.16454649   0.84168314   0.99625556   0.74549882   -1.2465374            1    1.4320749    1.9628483    1.9405555   0.39282084 -0.00073085071  0.062945533   0.05066297    1.1773027    1.7069357    1.6853464   0.13962602 -0.0025221243  0.062797532  0.045171842    1.2930697    1.3163079    0.2024351  0.066666667    1.8392957          0.1 0.0050608775    19.759419    2.4826266    34.413227 0.0052279678  -0.10125072 0.0049275368   0.21209231 0.0052279678  -0.10125072 0.0049275368   0.21209231 
   50000     4.232202      1.27435     2.957852  -0.17113467   0.84965729    1.0179592   0.74491806   -1.2465374            1    1.2368991     1.805276    1.8169592  0.088462004 0.00043983794 -0.012129464  0.019988979   0.97971318    1.5484651    1.5631509   -0.1724764 -0.0017869099  -0.01629707  0.013404869    1.0980022    1.1186101   0.20546865  0.066666667     1.847287          0.1 0.0051367163     19.46769    2.4939875    34.413227 0.0040005542  -0.11516941 -0.00039242471   0.19141368 0.0040005542  -0.11516941 -0.00039242471   0.19141368 
   51000    4.2371293    1.2655839    2.9715453  -0.16460234   0.84381261    1.0026065   0.74499783   -1.2465374            1    1.2500448    1.8166423    1.8334121   0.10007986 -0.0018261093 -0.023132228  0.037329335     0.994628    1.5590734    1.5770815  -0.15227092 0.0003628369 -0.024496215  0.032330028     1.111133    1.1335398   0.20743666  0.066666667    1.8550766          0.1 0.0051859165    19.282995    2.5012102    34.413227 0.0082351987 -0.084838274 -0.0042926888   0.16966872 0.0082351987 -0.084838274 -0.0042926888   0.16966872 
   52000    4.2620331    1.2786858    2.9833473  -0.16144039   0.85254811   0.99119176   0.76629253   -1.2465374            1    1.2033694    1.7776156    1.7929489  0.039543645  0.013830192  0.006312326 -0.031244798   0.94530845    1.5157711    1.5369212  -0.21676689  0.010205423  0.007052311 -0.025663636     1.060487    1.0881908   0.20986736  0.066666667    1.8324599          0.1  0.005246684    19.059658    2.4814655    34.413227 -0.0032249536 -0.075899112 -0.0039545833    0.1913302 -0.0032249536 -0.075899112 -0.0039545833    0.1913302 
   53000     4.236821    1.2666981    2.9701229  -0.16008992   0.84455549    1.0026157   0.74619805   -1.2465374            1    1.3856055    1.9210177     1.926125   0.30967389 -0.011822273   0.04489963 -0.025314384    1.1299639    1.6695977    1.6656985  0.054595561 -0.005203192  0.046964154 -0.022175005    1.2464699    1.2690995   0.21274335  0.066666667    1.8274815          0.1 0.0053185836    18.801998     2.479048    34.413227 -0.0052829375  -0.10582336 0.00094197077   0.19503237 -0.0052829375  -0.10582336 0.00094197077   0.19503237 
   54000    4.2653918    1.2811175    2.9842743  -0.16332152   0.85416944   0.99933773   0.76384797   -1.2465374            1    1.2511034    1.8332827    1.7987496   0.12127803  0.017461546  0.037910343 -0.036333657   0.99255173    1.5773468    1.5443196  -0.14401124  0.010694131  0.037687605 -0.029334645    1.1086769    1.1349783   0.21651832  0.066666667    1.8308913          0.1 0.0054129581    18.474187    2.5021818    34.413227 0.0037565286  -0.10970405 -0.0069178784    0.1877617 0.0037565286  -0.10970405 -0.0069178784    0.1877617 
   55000    4.2745365    1.2763369    2.9981996  -0.16374953   0.85098204    1.0037437   0.75592784   -1.2465374            1    1.2590036    1.8272107    1.8424073   0.10739274 -0.0023657036  0.076069197 -0.034443444    1.0014167    1.5706854    1.5815686    -0.148004 -0.0012963405  0.079963106 -0.034537611    1.1180538    1.1423665   0.21915103  0.066666667    1.8393378          0.1 0.0054787757    18.252253    2.4901436    34.413227 -0.0015662939 -0.098672292 0.00034113739   0.20211095 -0.0015662939 -0.098672292 0.00034113739   0.20211095 
   56000    4.2864964    1.2768606    3.0096358  -0.16272764   0.85133121    1.0011369   0.75811919   -1.2465374            1     1.221005    1.7937105    1.7933971  0.075907487 -0.005021753   0.10552687 -0.031476713   0.96331246    1.5363062    1.5355408  -0.18190954 -0.0041058657   0.10389248 -0.030270478    1.0796467    1.1046708   0.22318297  0.066666667    1.8311533          0.1 0.0055795742    17.922515    2.4957124    34.413227 -0.011554846 -0.090035644 -0.0064065078   0.18994234 -0.011554846 -0.090035644 -0.0064065078   0.18994234 
   57000    4.2490729    1.2863415    2.9627313  -0.17698497   0.85765249    1.0027823    0.7673556   -1.2465374            1    1.2169795    1.7926489    1.8091015  0.049188017 -0.0029278341   0.06035471 0.0019973006   0.95737347    1.5309078    1.5495609  -0.20834832 -0.005192986  0.059199398 -0.0015598355    1.0738989    1.1004541   0.22653198  0.066666667    1.8306811          0.1 0.0056632994    17.657551    2.5117448    34.413227 0.0018409879 -0.095778673 0.0072682068      0.17594 0.0018409879 -0.095778673 0.0072682068      0.17594 
   58000    4.2280591    1.2511137    2.9769453  -0.16672219   0.83416479   0.99585611   0.73354264   -1.2465374            1    1.3138246    1.8663763    1.8669603   0.20813721   0.01910001  0.021112077 -0.041266169    1.0613282    1.6108429    1.6152368 -0.042095061  0.014666817  0.022979451 -0.038805762    1.1770488    1.1981041   0.22908763  0.066666667    1.8464074          0.1 0.0057271907    17.460568    2.4851113    34.413227 0.0085161999  -0.11026679 -0.0083407075   0.19535287 0.0085161999  -0.11026679 -0.0083407075   0.19535287 
   59000    4.2497263    1.2769773     2.972749  -0.17306002     0.851409   0.99999636   0.75895627   -1.2465374            1     1.187106    1.7622477    1.7849472  0.014123186 -0.0032150109 0.0033409224 -0.020990658    0.9293899    1.5101595    1.5267495  -0.24873929 -0.0042810853 0.0062784919  -0.02099327    1.0455916    1.0709044   0.23323724  0.066666667    1.8409393          0.1 0.0058309311     17.14992    2.4940392    34.413227 0.0082279073  -0.10345799 0.0032575849   0.15975927 0.0082279073  -0.10345799 0.0032575849   0.15975927 
   60000    4.2584203    1.2833172     2.975103  -0.16325072   0.85563607    1.0141609   0.75699103   -1.2465374            1    1.3248392    1.8674259    1.8954981   0.21159346 -0.020302697  -0.10059133 -0.076391955    1.0658435    1.6062979    1.6338742 -0.042641524 -0.016147621    -0.101507 -0.074937075    1.1836911    1.2069915   0.23672442  0.066666667    1.8196831          0.1 0.0059181104    16.897285      2.49602    34.413227 -0.0014503154 -0.078733587  -0.01114832   0.17939367 -0.0014503154 -0.078733587  -0.01114832   0.17939367 
   61000      4.21519    1.2455382    2.9696518  -0.16992061   0.83044738   0.97954624   0.73767226   -1.2465374            1    1.0953824    1.7105655    1.7061318  -0.13055012 0.0023520811 -0.053717632 -0.022632326    0.8440112    1.4569096    1.4584022  -0.38327827 0.0043977634 -0.055581875 -0.021184307   0.95783652   0.98155706   0.24021533  0.066666667    1.8272913          0.1 0.0060053833    16.651727    2.4931669    34.413227 -0.004556176 -0.079486768 -0.0052038267   0.19264076 -0.004556176 -0.079486768 -0.0052038267   0.19264076 
   62000    4.2589498    1.2603421    2.9986076  -0.15758589   0.84031771   0.99445982   0.74440132   -1.2465374            1    1.3956361    1.9347044    1.9343072    0.3178968 0.0040996951 -0.035100455 -0.049005559    1.1412773    1.6791931     1.679773  0.064865597 0.0056933732 -0.036442828 -0.048406502    1.2568356    1.2800778   0.24389891  0.066666667    1.8249741          0.1 0.0060974728    16.400237    2.4919797    34.413227 -0.00018602875 -0.091438559 -0.010343647   0.20221282 -0.00018602875 -0.091438559 -0.010343647   0.20221282 
   63000    4.2573588    1.2734074    2.9839514  -0.16260223   0.84902881   0.99937076   0.75548221   -1.2465374            1    1.2379863    1.8117206    1.8184329  0.083805283 -0.0026315843  0.024048208  0.038404307    0.9809906    1.5555375     1.559062  -0.17162767 -0.0056103469  0.027961933   0.03604793    1.0971196    1.1218573   0.24802246  0.066666667    1.8092192          0.1 0.0062005615    16.127572      2.49654    34.413227 0.0024161383  -0.11976132 -0.011746908   0.19550818 0.0024161383  -0.11976132 -0.011746908   0.19550818 
   64000     4.267233    1.2805856    2.9866474  -0.17186373   0.85381482    1.0256947   0.74684652   -1.2465374            1    1.3485957    1.9111709    1.8895387   0.24507735  0.014170832  0.076680483 -0.054921925    1.0901513     1.658654    1.6315699  -0.01977001  0.013935429  0.074316644  -0.05547621    1.2093392    1.2294078   0.25246983  0.066666667    1.7955308          0.1 0.0063117457    15.843477    2.5172932    34.413227 -0.0066762082 -0.093048676 -0.0058075585   0.19264084 -0.0066762082 -0.093048676 -0.0058075585   0.19264084 
   65000    4.2497539     1.256243     2.993511  -0.16475516   0.83758464   0.99114907    0.7420278   -1.2465374            1    1.2689839    1.8308408    1.8246433   0.15146744 0.0015492169  0.066438757 -0.014973151    1.0154523    1.5798412    1.5730115   -0.1064959 -0.00040245222  0.064534577 -0.013996857    1.1306259    1.1538103   0.25707075  0.066666667    1.7689113          0.1 0.0064267687    15.559919     2.491707    34.413227 -0.0026604554 -0.086313372  0.014723257   0.20042966 -0.0026604554 -0.086313372  0.014723257   0.20042966 
   66000    4.2769295    1.2784262    2.9985033  -0.15742573   0.85237506    1.0088065   0.75503406   -1.2465374            1    1.2215856    1.8065194     1.813714  0.044523316 0.0053063308  0.078864057 -0.053172549   0.96357705    1.5489388    1.5598796  -0.21808729 0.0087757245  0.083686682 -0.051167228    1.0808025    1.1043602   0.26103307  0.066666667    1.7620372          0.1 0.0065258268    15.323729    2.5100036    34.413227 -0.003161039  -0.10706758 -0.011954535   0.18619114 -0.003161039  -0.10706758 -0.011954535   0.18619114 
   67000    4.2485696    1.2737945    2.9747751  -0.16404695   0.84928693   0.98751379   0.76329054   -1.2465374            1    1.3436736    1.9002679    1.9164992   0.21425363 0.0041074562   0.15961841 -0.011890494    1.0865998    1.6485509    1.6544536  -0.04320516 0.00016901831    0.1574199 -0.0073681631    1.2013509    1.2289224   0.26454411  0.066666667    1.7405641          0.1 0.0066136027    15.120352    2.4929993    34.413227 -0.0032606481 -0.090120856 0.0028791409   0.21893503 -0.0032606481 -0.090120856 0.0028791409   0.21893503 
   68000    4.2542221    1.2884864    2.9657356  -0.16935378   0.85908256   0.99608615   0.77385021   -1.2465374            1    1.1433282     1.749151    1.7509383 -0.070104727 0.0080252597  0.098389618  0.014077912   0.88328935     1.487687    1.4918457  -0.32966467  0.005418021   0.10103915  0.014466065   0.99903664    1.0275809   0.26814926  0.066666667    1.7376012          0.1 0.0067037315    14.917065     2.482929    34.413227 0.0015910064  -0.10370492 -0.0028945071   0.18451803 0.0015910064  -0.10370492 -0.0027501304   0.18427995 
   69000    4.2503812    1.2663706    2.9840106  -0.16125986   0.84433712   0.98881725   0.75444281   -1.2465374            1    1.1574308    1.7707639    1.7429044 -0.041375811  0.017698889    0.1107759   -0.0310529   0.90185532    1.5088873    1.4931592  -0.29648062  0.015737623   0.10967991 -0.031960584    1.0167579    1.0425282   0.27170649  0.066666667    1.7277062          0.1 0.0067926622    14.721768    2.4960822    34.413227 -0.0055690449 -0.076513214 0.0040136952   0.18134522 -0.0055690449 -0.076513214 0.0040136952   0.18134522 
   70000    4.2567376    1.2899747    2.9667629   -0.1712249   0.86007486      1.01846   0.76151763   -1.2465374            1    1.2627202    1.8360743    1.8199806   0.13210578  0.010349837  0.050139988  0.002516902     1.002381    1.5766356    1.5580303  -0.12752294  0.012995888  0.049145994 0.0013793801    1.1207282     1.144373   0.27740681  0.066666667    1.7288022          0.1 0.0069351704    14.419256    2.4985997    34.413227 -0.0057793843  -0.10851236 0.0039321281   0.18599431 -0.0057793843  -0.10851236 0.0039321281   0.18599431 
   71000    4.2517934    1.2717825    2.9800109  -0.15947889   0.84794542    1.0033282   0.75125718   -1.2465374            1    1.3031287    1.8704932    1.8597413   0.17915168 -0.0019666909  0.070494427 -0.033900254     1.046461    1.6106737    1.6047741 -0.076064724 -0.0022573153  0.065993064 -0.035532434    1.1630498    1.1865399   0.28203944  0.066666667    1.7112865          0.1  0.007050986    14.182414    2.4978006    34.413227  0.010122792 -0.087653159 0.0080537468   0.20865035  0.010122792 -0.087653159 0.0080537468   0.20865035 
   72000    4.2672881    1.2761731     2.991115  -0.16479293    0.8508728   0.98393908   0.76809276   -1.2465374            1    1.3000944    1.8398742    1.8596564   0.20075246  0.011426939  0.066325738  0.033774369    1.0425405    1.5921334    1.5990382 -0.063550093  0.010007079  0.067448902   0.03973272    1.1568763    1.1857586   0.28525586  0.066666667    1.7022303          0.1 0.0071313966    14.022499    2.4776286    34.413227 0.0086673936  -0.10231619  0.024251633   0.18920275 0.0086673936  -0.10231619  0.024251633   0.18920275 
   73000    4.2238552    1.2543296    2.9695255  -0.16989578   0.83630895   0.97657163   0.74904158   -1.2465374            1    1.2713533    1.8368666    1.8319762   0.14521709 0.0096155214 -0.020750406 -0.028177089    1.0182078    1.5854727    1.5818568  -0.11270592   0.01243357  -0.02267427 -0.026344231    1.1316875    1.1578736     0.290467  0.066666667    1.6900045          0.1 0.0072616749    13.770928    2.4980263    34.413227 -0.0049341554 -0.092927714 0.0084961078   0.18060481 -0.0049341554 -0.092927714 0.0084961078   0.18060481 
   74000     4.246145    1.2558187    2.9903263  -0.16384353   0.83730176   0.99351756   0.74009252   -1.2465374            1    1.2224667    1.7965339    1.8168243  0.054041962 -0.0044854371   0.01474253 -0.053367932   0.96902077    1.5414683    1.5666753  -0.20108128 -0.00067973056 0.0096280815 -0.052271263    1.0844696    1.1070179   0.29544387  0.066666667    1.6786818          0.1 0.0073860968    13.538951    2.5169881    34.413227 -0.00038445216 -0.099378835 5.9058583e-05   0.17128763 -0.00038445216 -0.099378835 5.9058583e-05   0.17128763 
   75000    4.2328417    1.2652019    2.9676398  -0.17232691   0.84355791   0.99226681   0.75102808   -1.2465374            1     1.367494    1.9107025    1.9055915    0.2861879  0.012483736  -0.04675561  0.017452473    1.1121543     1.653157    1.6466753  0.036630628  0.012238226 -0.045350075  0.017153131    1.2274578    1.2521905   0.29885474  0.066666667    1.6760213          0.1 0.0074713685    13.384429    2.4970894    34.413227 0.0055432492  -0.11267107  0.013718528    0.2110401 0.0055432492  -0.11267107  0.013718528    0.2110401 
   76000    4.2428473    1.2578864     2.984961  -0.17220475   0.83868035   0.99954941   0.73857142   -1.2465374            1    1.2151369    1.7946944    1.7849113  0.065805081 0.0063440087 -0.012951696 0.0038467849   0.96127365    1.5417566    1.5330836  -0.19101926 0.00071004842 -0.010331032  0.006803442    1.0774234    1.0989872   0.30444501  0.066666667    1.6595018          0.1 0.0076111252    13.138662    2.4972195    34.413227 0.0082127128 -0.086608614 -0.0010780239   0.15315751 0.0082127128 -0.086608614 -0.0010780239   0.15315751 
   77000    4.2694932    1.2756386    2.9938546  -0.16611937   0.85051641   0.99639567   0.75975123   -1.2465374            1    1.2526453    1.8346166    1.8176736   0.10564575 0.0054880782  0.081603871 0.0020736092   0.99519936    1.5761714    1.5622742  -0.15284752 0.0012931919    0.0857441 0.0064016933    1.1109826    1.1368621   0.30961164  0.066666667     1.629184          0.1  0.007740291    12.919411    2.5008356    34.413227 0.0066269226 -0.091164645 -0.0040649482   0.16623462 0.0066269226 -0.091164645 -0.0040649482   0.16623462 
   78000    4.2069618    1.2331357    2.9738262  -0.16523367   0.82217812   0.99159977   0.71673633   -1.2465374            1    1.3092338    1.8532726    1.8659651   0.20846378 0.0044103196   0.04812193 -0.00047169892    1.0603657    1.6029178    1.6246095 -0.046430331  0.007957829  0.048156784 0.0025540862    1.1755916    1.1940078   0.31635449  0.066666667     1.612278          0.1 0.0079088622    12.644044    2.5096127    34.413227 -3.2211967e-05 -0.081910825  -0.00501306   0.18638154 -3.2211967e-05 -0.081910825 -0.0050053542   0.18623992 
   79000    4.2517501    1.2817891     2.969961  -0.16982837   0.85461725    1.0134857   0.75575783   -1.2465374            1    1.2243506    1.8046555    1.7891963  0.079200025     0.011406  0.018994827   0.02824964   0.96566336    1.5496193    1.5326299  -0.18525911   0.01201875  0.015923999  0.021912506    1.0834325    1.1065814   0.32118685  0.066666667    1.5979198          0.1 0.0080296713     12.45381    2.4951943    34.413227 0.0014251679   -0.0953532 0.0006861948   0.17570036 0.0014251679   -0.0953532 0.0006861948   0.17570036 
   80000    4.2297842    1.2651184    2.9646658  -0.17764397   0.84350223    1.0048768    0.7430791   -1.2465374            1    1.3362857    1.8919469    1.8957202   0.22118992 -0.012568227 -0.0078136982  -0.03192846    1.0809629    1.6370377    1.6366795 -0.030828648 -0.011410259 -0.0071037112   -0.0307501    1.1977316    1.2195169   0.32540215  0.066666667    1.5676308          0.1 0.0081350537    12.292482    2.4780542    34.413227 -0.0064547658  -0.10697407 -0.0055131353   0.18844104 -0.0064547658  -0.10697407 -0.0055131353   0.18844104 
   81000    4.2352792    1.2637976    2.9714815  -0.17328179   0.84262162   0.98687627   0.75286753   -1.2465374            1    1.2221256    1.7989587    1.8093213  0.058096782 -0.0039716468 0.0045983629   0.02368219   0.96706934     1.541158    1.5515946   -0.1915446 -0.0056517432 0.0003824791   0.02977945    1.0817464    1.1074485   0.32988582  0.066666667    1.5489386          0.1 0.0082471454    12.125408    2.5071458    34.413227 -0.00066646108  -0.11029454 -0.0067455609   0.19285164 -0.00069131453  -0.11025622 -0.0067455609   0.19285164 
   82000    4.2242223    1.2546917    2.9695306  -0.17419719   0.83655037   0.98568898   0.74375154   -1.2465374            1    1.3138668    1.8830697    1.8643483   0.19418251  0.009976475  0.056672244  0.016021006    1.0606483    1.6293925     1.612244 -0.059691578  0.008788001  0.054710346  0.018952193    1.1751874    1.1993277   0.33598542  0.066666667    1.5249745          0.1 0.0083996355    11.905278    2.4756662    34.413227 0.0021689217  -0.10211328 0.0080381706   0.18703631 0.0021689217  -0.10211328 0.0080381706   0.18703631 
   83000    4.2242115     1.263779    2.9604325  -0.17769009   0.84260923    1.0132111   0.73643548   -1.2465374            1     1.252036    1.8067908    1.8429515   0.10636572 -0.0012010936 -0.082897737  0.028982876    0.9969835    1.5482984      1.58404  -0.14138789 -0.0041846048  -0.08149139    0.0218493    1.1147207    1.1342988   0.34019819  0.066666667    1.5086469          0.1 0.0085049547    11.757852    2.4736175    34.413227 0.0034026594  -0.11803929 -0.0027286333   0.21120283 0.0034026594  -0.11803929 -0.0027286333   0.21120283 
   84000    4.2434833    1.2789105    2.9645728  -0.17109163   0.85269796     1.015042   0.75167228   -1.2465374            1    1.2182757    1.8009658    1.7922137   0.06164772 0.00058433396 -0.085605357 -0.0044489192   0.96016945    1.5453411    1.5337274  -0.19856016 -0.0007451376 -0.083952871 -0.00020987982    1.0781194    1.1003257   0.34570323  0.066666667    1.5051895          0.1 0.0086425807    11.570618    2.5157529    34.413227 -0.001527059  -0.10076622 -0.0085651803   0.18917258 -0.001527059  -0.10076622 -0.0085651803   0.18917258 
   85000      4.23091    1.2509862    2.9799237  -0.16848961   0.83407978   0.97174515   0.74843067   -1.2465374            1    1.2576278    1.8257554    1.8371655   0.10996245 0.0020883145 -0.098123485  0.032583024    1.0051571    1.5762738    1.5853919   -0.1461943  -0.00125574  -0.10053903  0.035374943    1.1180759     1.144709   0.35201051  0.066666667    1.4830188          0.1 0.0088002628    11.363297    2.4962969    34.413227 -1.9700318e-05 -0.095188948 -0.00087227249   0.19808475 -1.9700318e-05 -0.095188948 -0.00087227249   0.19808475 
   86000    4.2562053    1.2686051    2.9876002  -0.17521892   0.84582696   0.99133506   0.75529228   -1.2465374            1    1.2871471    1.8511249    1.8562328   0.15408368 0.00062119025  -0.12965445  0.032264964    1.0311206    1.5971248    1.6023999  -0.10616277 0.00094389107  -0.13191533  0.026994735    1.1463158    1.1719519   0.35618481  0.066666667    1.4719404          0.1 0.0089046202    11.230125    2.4914827    34.413227 0.0046766748  -0.10139115 0.0062708106   0.19858787 0.0046766748  -0.10139115 0.0062708106   0.19858787 
   87000    4.2442381    1.2825053    2.9617327  -0.18346927   0.85509475    1.0116699   0.75766467   -1.2465374            1    1.3880001    1.9142048    1.9383628   0.31143271  0.005801394 -0.019316156 0.00018495459    1.1291683    1.6541171    1.6813402    0.0520476 0.0037636249 -0.018477251  0.002954287    1.2467264    1.2704419   0.36147596  0.066666667    1.4327476          0.1  0.009036899    11.065743    2.4703798    34.413227 0.0017743867  -0.10041978 -0.0032945059   0.20199434 0.0017743867  -0.10041978 -0.0032945059   0.20199434 
   88000     4.226436    1.2572715    2.9691645  -0.16395063   0.83827038    0.9925337   0.74227811   -1.2465374            1    1.2986541    1.8773066    1.8503421   0.16831376 0.0044770741  0.012968277   0.01526453     1.044915    1.6194873    1.5933152  -0.07805753 0.00013563025  0.010099731  0.017969809    1.1602495    1.1833197   0.37054457  0.066666667    1.4174535          0.1 0.0092636141    10.794923    2.5092073    34.413227 -0.013640292  -0.12569885   0.00584965   0.22268041 -0.013640292  -0.12569885   0.00584965   0.22268041 
   89000    4.2596936    1.2713005    2.9883931  -0.17425913   0.84762406   0.98954289   0.75932652   -1.2465374            1    1.1287903    1.7293712    1.7426042 -0.085604357 -0.0031908739   0.14892655 0.0088079608   0.87221987     1.472354    1.4813565  -0.33705087 -0.0061338124   0.15056216 0.0013752917   0.98720682    1.0138034   0.37512977  0.066666667      1.40702          0.1 0.0093782441    10.662977     2.505355    34.413227 0.00050385245  -0.08053045 -0.0093095691   0.17887627 0.00050385245  -0.08053045 -0.0093095691   0.17887627 
   90000    4.2558609    1.2864346    2.9694262  -0.17720894   0.85771456    1.0118304   0.76181757   -1.2465374            1    1.2256348    1.7973971    1.8174359  0.062071459 0.0074422656  0.046452841 -0.042032534   0.96601004    1.5388128    1.5566903  -0.19747292 0.0061174768  0.051008056 -0.043738525    1.0835868     1.108058   0.38073851  0.066666667    1.3934459          0.1 0.0095184628    10.505898    2.5190256    34.413227 0.0017529472 -0.092601609 -0.0072426258   0.16775865 0.0017529472 -0.092601609 -0.0072426258   0.16775865 
   91000     4.229782    1.2413885    2.9883935  -0.16749016   0.82768058   0.96976251   0.73927795   -1.2465374            1    1.2043511    1.8014967    1.7803995  0.031157165 0.0042663442  0.082261114  0.020876347   0.95381742    1.5473334    1.5356232  -0.22150437 0.0009132888  0.080863737  0.015706177    1.0665059    1.0916627   0.38893687  0.066666667    1.3877245          0.1 0.0097234218    10.284445    2.5034102    34.413227 -0.0092771523  -0.10383742 -0.007554184     0.202157 -0.0092771523  -0.10383742 -0.007554184     0.202157 
   92000    4.2298828     1.282671    2.9472118  -0.18039938   0.85520523    1.0133661   0.75678691   -1.2465374            1    1.2775177    1.8337016    1.8321964   0.16665498  0.011927777 -0.026793948  0.036174452    1.0186524    1.5759413    1.5768247 -0.096808784  0.011490057 -0.024245466  0.033480626    1.1364077    1.1597624   0.39272446  0.066666667     1.363218          0.1 0.0098181116    10.185258     2.491527    34.413227 -0.0033378098  -0.12620515 0.0038639069   0.17968619 -0.0033378098  -0.12620515 0.0038639069   0.17968619 
   93000    4.2531733    1.2704283    2.9827449  -0.17228115   0.84704257    1.0102189   0.74549718   -1.2465374            1    1.3447698    1.8835807    1.8969888   0.25374002 0.0024475117  -0.10130011   0.03689473    1.0883754    1.6246139    1.6453073 -0.0047950771 0.0025549275 -0.098755806  0.036465501    1.2057649    1.2273803   0.40035019  0.066666667    1.3466824          0.1  0.010008755    9.9912528    2.4927096    34.413227 -0.014902057   -0.1188929  0.025648707    0.2068405 -0.014902057   -0.1188929  0.025648707    0.2068405 
   94000    4.2531043    1.2798771    2.9732272  -0.17209879   0.85334238   0.99034711   0.76810832   -1.2465374            1    1.3383804    1.8809707    1.8890337    0.2451367 0.0030507044 -0.097904273  0.050167995     1.080079    1.6219414     1.629839 -0.011543338 -0.0011257207  -0.09477747  0.046449464    1.1951594       1.2233   0.40510064  0.066666667    1.3311019          0.1  0.010127516    9.8740895    2.5041663    34.413227 -0.0060197733  -0.10011048  0.014422851   0.20374208 -0.0060197733  -0.10011048  0.014422851   0.20374208 
   95000    4.2255448    1.2656524    2.9598924  -0.17792004   0.84385824    1.0074651   0.74204399   -1.2465374            1    1.2441356    1.8062588    1.8303125  0.095835521 -0.008275331 -0.026782713  0.019567612   0.98870503    1.5564581    1.5733764  -0.16371948 -0.010208959 -0.032190982  0.020247864    1.1057746     1.127066   0.41055637  0.066666667    1.3209294          0.1  0.010263909    9.7428765    2.4856477    34.413227 -0.0045846909  -0.11075174 -0.00060201608   0.18904395 -0.0045846909  -0.11075174 -0.00060201608   0.18904395 
   96000    4.2420191    1.2809577    2.9610614  -0.17999039   0.85406288     1.024442   0.74802992   -1.2465374            1    1.2066036    1.8040404     1.785797   0.02997325 0.0065184367 -0.043227402  -0.01785544   0.94808411    1.5340216    1.5346058  -0.22437514 0.0071816227 -0.044545986 -0.018386084    1.0671264    1.0875613   0.41672879  0.066666667     1.299696          0.1   0.01041822    9.5985688    2.5050685    34.413227 0.0069624741  -0.11020409 0.0031139924   0.19012093 0.0069624741  -0.11020409 0.0031139924   0.19012093 
   97000    4.2647691    1.2807962    2.9839729  -0.17474208   0.85395523    1.0039448   0.76062908   -1.2465374            1    1.3227859    1.8691017    1.8901275   0.20912858  0.011210641 -0.011004005 -0.074902346     1.064299    1.6121839     1.636553 -0.055839747 0.0098931028 -0.0072236276 -0.077291281    1.1809595    1.2061254   0.42311117  0.066666667    1.2880508          0.1  0.010577779    9.4537802    2.5048388    34.413227 -0.005127293  -0.10237965 -0.0051465088   0.19375291 -0.005127293  -0.10237965 -0.0051465088   0.19375291 
   98000    4.2388162    1.2757705    2.9630457  -0.17869944   0.85060438   0.99764853   0.75911325   -1.2465374            1    1.3531552    1.9015912    1.9009746   0.25689993 0.0053229847   0.10014135 0.0026455044    1.0956827    1.6405705    1.6418726 0.0046049429 0.0041272022  0.093329777 0.0090269481    1.2116115    1.2372264   0.42743484  0.066666667    1.2738094          0.1  0.010685871    9.3581514    2.4859188    34.413227 0.0037689657  -0.10876364 -0.0089092355   0.19000626 0.0037689657  -0.10876364 -0.0089092355   0.19000626 
   99000    4.2365301    1.2651118    2.9714183  -0.17252598    0.8434978    1.0038521   0.74371052   -1.2465374            1    1.2546881    1.8221211    1.8332781   0.10866518 0.0032587625   0.13936186 -0.021400691   0.99936666    1.5689886    1.5748607  -0.14574927 -0.00058636708   0.13952809 -0.027856697    1.1160164    1.1380384   0.43617485  0.066666667    1.2590575          0.1  0.010904371    9.1706342    2.5079106    34.413227 -0.00091858932  -0.10102174 -0.0088247091   0.20826914 -0.00091858932  -0.10102174 -0.0088247091   0.20826914 
  100000    4.2668457    1.2743926    2.9924531   -0.1716675   0.84968572    1.0072038   0.75166703   -1.2465374            1    1.3268125    1.8704357    1.8786276   0.23137412 0.0073780479  0.082317515 -0.033211311     1.069618    1.6103129    1.6203641 -0.021823061 0.0034168884  0.081519933 -0.038549546    1.1866572    1.2097733   0.44219981  0.066666667    1.2572208          0.1  0.011054995    9.0456845    2.4759524    34.413227 -0.00099170526  -0.10756808 0.00010007041   0.18443067 -0.00099170526  -0.10756808 0.00010007041   0.18443067 
Loop time of 107.74 on 1 procs for 70000 steps with 9376 atoms

Performance: 280676.793 tau/day, 649.715 timesteps/s
99.2% CPU use with 1 MPI tasks x 1 OpenMP threads

MPI task timing breakdown:
Section |  min time  |  avg time  |  max time  |%varavg| %total
---------------------------------------------------------------
Pair    | 7.8884     | 7.8884     | 7.8884     |   0.0 |  7.32
Bond    | 22.451     | 22.451     | 22.451     |   0.0 | 20.84
Neigh   | 26.162     | 26.162     | 26.162     |   0.0 | 24.28
Comm    | 1.6927     | 1.6927     | 1.6927     |   0.0 |  1.57
Output  | 0.15107    | 0.15107    | 0.15107    |   0.0 |  0.14
Modify  | 47.612     | 47.612     | 47.612     |   0.0 | 44.19
Other   |            | 1.783      |            |       |  1.65

Nlocal:    9376 ave 9376 max 9376 min
Histogram: 1 0 0 0 0 0 0 0 0 0
Nghost:    1653 ave 1653 max 1653 min
Histogram: 1 0 0 0 0 0 0 0 0 0
Neighs:    9332 ave 9332 max 9332 min
Histogram: 1 0 0 0 0 0 0 0 0 0

Total # of neighbors = 9332
Ave neighs/atom = 0.995307
Ave special neighs/atom = 6.92833
Neighbor list builds = 9102
Dangerous builds = 0
#undump      comp
undump      cpxyz

unfix abeads_cdz
unfix bbeads_cdz
unfix tbeads_cdz
unfix mopc

###############
# Shearing    #
###############

#--- Keep only thermostat on walls ---#
unfix lang_melt

velocity    twout set $(v_Vwall/2) 0.0 0.0  units box
velocity    twout set 0.050000000000000002776 0.0 0.0  units box
velocity    bwout set -$(v_Vwall/2) 0.0 0.0  units box
velocity    bwout set -0.050000000000000002776 0.0 0.0  units box


#--- Number Density profiles ---#

compute         sabeads abeads chunk/atom bin/1d z lower ${binres} units reduced # Check bound keyword to maybe only bin melt area
compute         sabeads abeads chunk/atom bin/1d z lower 0.001 units reduced 
fix             abeads_sdz abeads  ave/chunk ${Neverys} ${Nrepeats} ${Nfreqs} sabeads density/number file abeads_sdz
fix             abeads_sdz abeads  ave/chunk 100 ${Nrepeats} ${Nfreqs} sabeads density/number file abeads_sdz
fix             abeads_sdz abeads  ave/chunk 100 200 ${Nfreqs} sabeads density/number file abeads_sdz
fix             abeads_sdz abeads  ave/chunk 100 200 20000 sabeads density/number file abeads_sdz
compute         sbbeads bbeads chunk/atom bin/1d z lower ${binres} units reduced # Check bound keyword to maybe only bin melt area
compute         sbbeads bbeads chunk/atom bin/1d z lower 0.001 units reduced 
fix             bbeads_sdz bbeads  ave/chunk ${Neverys} ${Nrepeats} ${Nfreqs} sbbeads density/number file bbeads_sdz
fix             bbeads_sdz bbeads  ave/chunk 100 ${Nrepeats} ${Nfreqs} sbbeads density/number file bbeads_sdz
fix             bbeads_sdz bbeads  ave/chunk 100 200 ${Nfreqs} sbbeads density/number file bbeads_sdz
fix             bbeads_sdz bbeads  ave/chunk 100 200 20000 sbbeads density/number file bbeads_sdz
compute         stbeads tbeads chunk/atom bin/1d z lower ${binres} units reduced # Check bound keyword to maybe only bin melt area
compute         stbeads tbeads chunk/atom bin/1d z lower 0.001 units reduced 
fix             tbeads_sdz tbeads  ave/chunk ${Neverys} ${Nrepeats} ${Nfreqs} stbeads density/number file tbeads_sdz
fix             tbeads_sdz tbeads  ave/chunk 100 ${Nrepeats} ${Nfreqs} stbeads density/number file tbeads_sdz
fix             tbeads_sdz tbeads  ave/chunk 100 200 ${Nfreqs} stbeads density/number file tbeads_sdz
fix             tbeads_sdz tbeads  ave/chunk 100 200 20000 stbeads density/number file tbeads_sdz

compute         mops all stress/mop/profile z lower $(zhi * v_binres) total
compute         mops all stress/mop/profile z lower 0.034413226859702002181 total
fix mops        all ave/time ${Neverys} ${Nrepeats} ${Nfreqs} c_mops[*] ave running overwrite file mops.time mode vector
fix mops        all ave/time 100 ${Nrepeats} ${Nfreqs} c_mops[*] ave running overwrite file mops.time mode vector
fix mops        all ave/time 100 200 ${Nfreqs} c_mops[*] ave running overwrite file mops.time mode vector
fix mops        all ave/time 100 200 20000 c_mops[*] ave running overwrite file mops.time mode vector


#--- Temperature and Velocity profiles ---#
compute        eall all chunk/atom bin/1d z lower ${binres} units reduced
compute        eall all chunk/atom bin/1d z lower 0.001 units reduced
#compute        biasT all temp/profile 1 1 1 xyz 100 100 100
fix            temp_prof   all ave/chunk ${Neverys} ${Nrepeats} ${Nfreqs} eall temp file temp_sz
fix            temp_prof   all ave/chunk 100 ${Nrepeats} ${Nfreqs} eall temp file temp_sz
fix            temp_prof   all ave/chunk 100 200 ${Nfreqs} eall temp file temp_sz
fix            temp_prof   all ave/chunk 100 200 20000 eall temp file temp_sz
#fix            temp_bias   all ave/chunk ${Neverys} ${Nrepeats} ${Nfreqs} eall temp bias biasT file tempb_sz
fix            vel_prof_x_s all ave/chunk ${Neverys} ${Nrepeats} ${Nfreqs} eall vx vy file velp_sz
fix            vel_prof_x_s all ave/chunk 100 ${Nrepeats} ${Nfreqs} eall vx vy file velp_sz
fix            vel_prof_x_s all ave/chunk 100 200 ${Nfreqs} eall vx vy file velp_sz
fix            vel_prof_x_s all ave/chunk 100 200 20000 eall vx vy file velp_sz


#--- Dumps ---#
#dump           shear all image ${Ndump_s} stg3.*.jpg type type zoom 2 view 60 120 bond none none
dump            shxyz all xyz ${Nshear} sh.xyz
dump            shxyz all xyz 200000 sh.xyz

#--- Run Shear ---#
timestep    ${Tstep}
timestep    0.005
run         ${Nshear}
run         200000
WARNING: compute stress/mop/profile does not account for bond potentials (src/USER-MISC/compute_stress_mop_profile.cpp:193)
WARNING: compute stress/mop/profile does not account for bond potentials (src/USER-MISC/compute_stress_mop_profile.cpp:193)
WARNING: compute stress/mop/profile does not account for bond potentials (src/USER-MISC/compute_stress_mop_profile.cpp:193)
Neighbor list info ...
  update every 1 steps, delay 0 steps, check yes
  max neighbors/atom: 2000, page size: 100000
  master list distance cutoff = 1.42246
  ghost atom cutoff = 1.42246
  binsize = 0.711231, bins = 43 43 49
  11 neighbor lists, perpetual/occasional/extra = 1 10 0
  (1) pair lj/cut, perpetual
      attributes: half, newton on
      pair build: half/bin/newton
      stencil: half/bin/3d/newton
      bin: standard
  (2) compute group/group, occasional, copy from (1)
      attributes: half, newton on
      pair build: copy
      stencil: none
      bin: none
  (3) compute group/group, occasional, copy from (1)
      attributes: half, newton on
      pair build: copy
      stencil: none
      bin: none
  (4) compute group/group, occasional, copy from (1)
      attributes: half, newton on
      pair build: copy
      stencil: none
      bin: none
  (5) compute group/group, occasional, copy from (1)
      attributes: half, newton on
      pair build: copy
      stencil: none
      bin: none
  (6) compute group/group, occasional, copy from (1)
      attributes: half, newton on
      pair build: copy
      stencil: none
      bin: none
  (7) compute group/group, occasional, copy from (1)
      attributes: half, newton on
      pair build: copy
      stencil: none
      bin: none
  (8) compute group/group, occasional, copy from (1)
      attributes: half, newton on
      pair build: copy
      stencil: none
      bin: none
  (9) compute stress/mop/profile, occasional, copy from (1)
      attributes: half, newton on
      pair build: copy
      stencil: none
      bin: none
  (10) compute stress/mop/profile, occasional, copy from (1)
      attributes: half, newton on
      pair build: copy
      stencil: none
      bin: none
  (11) compute stress/mop/profile, occasional, copy from (1)
      attributes: half, newton on
      pair build: copy
      stencil: none
      bin: none
WARNING: Inconsistent image flags (src/domain.cpp:784)
Per MPI rank memory allocation (min/avg/max) = 9.499 | 9.499 | 9.499 Mbytes
Step TotEng KinEng PotEng E_pair Temp c_melTemp c_wallTemp v_Fcatom v_Pcomp2 Press Pxx Pyy Pzz Pxy Pxz Pyz c_Vir c_Vir[1] c_Vir[2] c_Vir[3] c_Vir[4] c_Vir[5] c_Vir[6] c_melPress c_wallPress v_melDens v_surfcov v_aveRg v_Vwall v_srate v_D v_bwzmax Zhi c_fbwall[1] c_fbwall[3] c_ftwall[1] c_ftwall[3] c_ggbot[1] c_ggbot[3] c_ggtop[1] c_ggtop[3] 
  100000    4.2672254    1.2747724    2.9924531   -0.1716675    0.8499389    1.0072038   0.75207804   -1.2465374            1    1.3268891    1.8706688    1.8786276   0.23137091 0.0073780479  0.082317515 -0.033211311     1.069618    1.6103129    1.6203641 -0.021823061 0.0034168884  0.081519933 -0.038549546    1.1866572    1.2098499   0.44219981  0.066666667    1.2572208          0.1  0.011054995    9.0456845    2.4759524    34.413227 -0.00099170526  -0.10756808 0.00010007041   0.18443067 -0.00099170526  -0.10756808 0.00010007041   0.18443067 
  101000     4.360868    1.3758415    2.9850265  -0.17640041    0.9173255    1.0687975   0.82308645   -1.2465374            1    1.3371596    1.8540471    1.8902022   0.26722965 -0.001209336 -0.058125229  0.028309545     1.059491     1.597349    1.6257171 -0.044593086 -0.004099735 -0.060268726  0.022454564    1.1836875    1.2129631   0.49643232  0.066666667    1.1763907          0.1  0.012410808    8.0574931    2.5045559    34.413227 -9.9603075e-06  -0.15615594 0.0084226619   0.16465385 -9.9603075e-06  -0.15615594 0.0084226619   0.16465385 
  102000      4.47873    1.5192215    2.9595086  -0.23426211    1.0129224    1.2973629   0.83583345   -1.2465374            1    1.6577845    2.1326423    2.1237394   0.71697186  -0.00186898  -0.14228673   0.01702891    1.3511793    1.8465854    1.8374812   0.36947128 -0.006221906  -0.13697114  0.015780504    1.5019356    1.5070282   0.76696844  0.066666667    1.1096656          0.1  0.019174211    5.2153384    2.4931947    34.413227 0.0036672028   -0.2712819 -0.0012085178   0.26467458 0.0036672028   -0.2712819 -0.0012955141   0.26364908 
  103000    4.4482679    1.4410352    3.0072327  -0.21081613   0.96079261     1.199519   0.81218385   -1.2465374            1    1.4516499    1.9882348    1.9750582    0.3916568 -0.0063911118  0.030088152 -0.026421419    1.1608241    1.7145309     1.694847  0.073094341 -0.0033360824  0.024960011 -0.022353689    1.3002107    1.3122633   0.72955945  0.066666667    1.1426447          0.1  0.018238986    5.4827609    2.4985985    34.413227 0.0039580937  -0.19358222 0.0038386453   0.19297571 0.0039580937  -0.19358222 0.0038386453   0.19297571 
  104000    4.3433576     1.338398    3.0049595  -0.17022038   0.89236052    1.0731113   0.77987052   -1.2465374            1    1.3116569    1.8653847     1.867788   0.20179797 0.00085087924 -0.035261505 -0.029470231     1.041545     1.597774    1.6009386 -0.074077643 -0.0022254235 -0.036790897 -0.030302924    1.1662428    1.1869591   0.54555485  0.066666667    1.2231809          0.1  0.013638871    7.3319851    2.5043368    34.413227 8.6008479e-05  -0.15178969 -0.00060013224   0.16004663 8.6008479e-05  -0.15178969 -0.00060013224   0.16004663 
  105000    4.3400846    1.3141931    3.0258915  -0.17259223   0.87622218    1.0724299    0.7540966   -1.2465374            1     1.352473    1.8978229    1.8903779   0.26921818  0.015335499 -0.017853587  0.019065426     1.087246    1.6317429    1.6289525 0.0010426949 0.0096390152 -0.019157921  0.019311882    1.2118646    1.2278544   0.53551348  0.066666667    1.2318608          0.1  0.013387837    7.4694665    2.4831928    34.413227 -0.017210104  -0.12447251 -0.0031261759   0.13702883 -0.017210104  -0.12447251 -0.0031261759   0.13702883 
  106000    4.3879316    1.4126421    2.9752895  -0.19315816   0.94186186    1.1795246   0.79391271   -1.2465374            1    1.4462905    1.9677157    2.0193317   0.35182401 0.0033653902 -0.048542009 -0.035910336    1.1611948    1.6915724    1.7385929  0.053419157 0.00089266756 -0.039755604 -0.033773132    1.2982581    1.3092273   0.67471359  0.066666667    1.2155243          0.1   0.01686784    5.9284414    2.4958112    34.413227 -0.00047565464  -0.21202763 -0.0087228365   0.21477954 -0.00047565464  -0.21202763 -0.0087228365   0.21477954 
  107000    4.4016741    1.4272262    2.9744479  -0.23115292   0.95158562    1.2456919   0.76846232   -1.2465374            1    1.5895824     2.081378    2.1004023   0.58696702 -0.012752049  0.056027591 -0.012658644    1.3015435    1.7938195    1.8148626   0.29594833 -0.0049758361  0.054680145 -0.0044519906    1.4462955    1.4448304   0.77395338  0.066666667    1.2241137          0.1  0.019348835    5.1682699    2.4748887    34.413227 -0.010226129  -0.26858363  0.014825075   0.27456553 -0.010226129  -0.26858363  0.014825075   0.27456553 
  108000    4.3362953    1.3464718    2.9898235  -0.17437542   0.89774361    1.1208657   0.75884862   -1.2465374            1    1.3178056    1.8814875    1.8570235   0.21490598 0.0071803782 -0.046344848 -0.026579647    1.0460643    1.6106392    1.5972701 -0.069716301  0.007677323   -0.0491382 -0.026673115    1.1763112    1.1875587   0.62405447  0.066666667    1.3005836          0.1  0.015601362    6.4096969    2.4773751    34.413227 -0.003427246   -0.1761459 0.0022782031    0.1498602 -0.003427246   -0.1761459 0.0022782031    0.1498602 
  109000    4.3123898    1.3244861    2.9879037  -0.18112406   0.88308491    1.0695695   0.76701998   -1.2465374            1    1.3288797    1.8842382    1.8840169   0.21838405 0.0024296862 -0.023727803 -0.0085855673    1.0615755    1.6173189    1.6139978 -0.046590284 0.0020384413 -0.021240669 -0.0053980518    1.1858617    1.2045935   0.58863732  0.066666667     1.320834          0.1  0.014715933    6.7953557    2.4954056    34.413227 -0.0059839878  -0.12271786 0.00047590147   0.17506513 -0.0059839878  -0.12271786 0.00047590147   0.17506513 
  110000    4.3340121    1.3602102    2.9738019  -0.19638796   0.90690352    1.1202409   0.77410798   -1.2465374            1    1.3933059    1.9368267    1.9724924   0.27059849 -0.016017764  0.061906474  0.006721389    1.1187919    1.6601407    1.7006889 -0.0044539325 -0.010404964   0.06127835  0.010422998    1.2489662    1.2631315   0.67211702  0.066666667      1.30409          0.1  0.016802926    5.9513446    2.4839796    34.413227 -0.0025606701  -0.21104864 0.0065836125   0.19775313 -0.0025606701  -0.21104864 0.0065836125   0.19775313 
  111000     4.334307    1.3792576    2.9550494  -0.22398375   0.91960316     1.174599   0.76084811   -1.2465374            1    1.4671356    2.0129097    1.9968233   0.39167368   0.00912684  0.042462101 -0.021276796    1.1887775    1.7348415    1.7181176   0.11337344  0.010260676  0.048001147 -0.021455928    1.3252684    1.3306447   0.75444048  0.066666667    1.3150345          0.1  0.018861012    5.3019425    2.4847847    34.413227 -0.00074771874   -0.2840006 0.00064293494   0.21645819 -0.00074771874   -0.2840006 0.00064293494   0.21645819 
  112000    4.2839267    1.3303335    2.9535932  -0.20523263   0.88698361    1.0723338    0.7716263   -1.2465374            1    1.2650024    1.8576819    1.8327437   0.10458149 0.0013942749 -0.081166184 -0.028662111   0.99651803    1.5908461    1.5645542  -0.16584628 0.0031634264  -0.08221205 -0.030355248    1.1211255    1.1403949   0.67105759  0.066666667    1.3579077          0.1   0.01677644    5.9607403    2.4905625    34.413227 -0.0029888945  -0.16201638 -0.011399312   0.19291623 -0.0029888945  -0.16201638 -0.011399312   0.19291623 
  113000     4.274514    1.3051682    2.9693458  -0.18169343   0.87020493    1.0460522   0.76076699   -1.2465374            1    1.2747676    1.8649012    1.8523763   0.10702507 -0.037771752   0.01712115  -0.01626477     1.011362    1.5966844    1.5867611  -0.14935948 -0.039001806  0.018770424  -0.01215043    1.1329155    1.1532141   0.63571503  0.066666667    1.4112506          0.1  0.015892876    6.2921275    2.5217516    34.413227   0.01371981  -0.16906662  0.015261324   0.15211898   0.01371981  -0.16906662  0.015261324   0.15211898 
  114000     4.262102    1.3393734    2.9227285  -0.21228398   0.89301086     1.090619   0.77001544   -1.2465374            1    1.4879901    2.0142422    2.0018821   0.44784582 -0.00073187859  0.014529882 -0.026731005    1.2176813    1.7446653    1.7356515    0.1727272 -0.0020553843  0.015398014 -0.027394005    1.3444135    1.3612579   0.68563484  0.066666667    1.3931448          0.1  0.017140871    5.8340093    2.4947505    34.413227 -0.012973928  -0.23695231 -0.0017028315   0.16687513 -0.012973928  -0.23695231 -0.0017028315   0.16687513 
  115000    4.2739914    1.3332525     2.940739  -0.21227204    0.8889298    1.1059563   0.75383206   -1.2465374            1    1.4456157    1.9790126      2.00392   0.35391439  -0.01234422 -0.090062927 -0.021749668    1.1765422    1.7116886    1.7321145  0.085823504 -0.013973725 -0.090171963 -0.017898166    1.3050567    1.3171012   0.73594229  0.066666667    1.3901671          0.1  0.018398557    5.4352088    2.5078835    34.413227  0.015714654  -0.26325379  0.019474524   0.22821659  0.015714654  -0.26325379  0.019474524   0.22821659 
  116000    4.2674306    1.3227873    2.9446434  -0.19560543   0.88195224    1.0719225   0.76371486   -1.2465374            1    1.3467291    1.9060802    1.9175194   0.21658783 -0.015689416 -0.023588956 -0.019648332    1.0797678    1.6421607    1.6492856 -0.052143012 -0.014902651 -0.025374201 -0.020961706    1.2043274    1.2221695   0.68423916  0.066666667    1.3868956          0.1  0.017105979    5.8459092    2.4921648    34.413227 -0.0073660897  -0.17141534 0.0050311568   0.20165556 -0.0073660897  -0.17141534 0.0050311568   0.20165556 
  117000    4.2316179    1.2898654    2.9417524  -0.19208036     0.860002    1.0358036   0.75059076   -1.2465374            1    1.3743666    1.9298726    1.9320416   0.26118547  0.012234586 -0.090831718  0.040858841    1.1140494    1.6713708    1.6721406 -0.0013632488  0.012299943 -0.089099086  0.046893677    1.2344119     1.254004   0.66244932  0.066666667    1.3860429          0.1  0.016561233    6.0381978    2.4969172    34.413227 -0.0096537271  -0.17336217 -0.0052773309   0.18893612 -0.0096537271  -0.17336217 -0.0052773309   0.18893612 
  118000    4.2541418    1.3135581    2.9405836  -0.19988171   0.87579884    1.0781287    0.7498578   -1.2465374            1    1.5237808     2.047251    2.0405381   0.48355344 -0.018237547 -0.0090469612 -0.016715511     1.258682    1.7817189    1.7763692   0.21795796 -0.0098275401  -0.01200824 -0.016140995    1.3839629       1.3985   0.69482097  0.066666667     1.394335          0.1  0.017370524    5.7568786    2.4870741    34.413227 -0.021900789   -0.2018892 -0.001609083   0.20166272 -0.021900789   -0.2018892 -0.001609083   0.20166272 
  119000    4.2391937    1.3164684    2.9227253  -0.21127071   0.87773923    1.0926989   0.74392763   -1.2465374            1     1.364624    1.9264454    1.9259012   0.24152547 -0.0015543849  0.019791553 -0.026097308    1.0989379    1.6600477    1.6636803 -0.026914325 -0.0089738763  0.017918293  -0.02094485    1.2259118    1.2376501   0.71815634  0.066666667    1.4044819          0.1  0.017953909    5.5698178    2.4904924    34.413227 0.0093334702  -0.21406396  0.014550805   0.18009926 0.0093334702  -0.21406396  0.014550805   0.18009926 
  120000    4.2431844    1.3147339    2.9284505    -0.206783   0.87658274    1.0656608   0.75890045   -1.2465374            1    1.4339316    1.9752511    1.9746693   0.35187454 -0.0079828659  0.054457557 -0.021357194    1.1685956    1.7109418    1.7112006  0.083644359 -0.0087589216  0.059876146 -0.019474429    1.2924276    1.3100996   0.68714122  0.066666667    1.4229637          0.1   0.01717853    5.8212197    2.4887236    34.413227 -0.012027284   -0.1764532 -0.0010375194   0.17181348 -0.012027284   -0.1764532 -0.0010375194   0.17181348 
  121000    4.2237847    1.3003081    2.9234765  -0.20699334   0.86696456    1.0564605   0.74902016   -1.2465374            1    1.4872044    2.0106427    2.0025385   0.44843204 -0.0013970473  0.070361376 -0.0086134578    1.2247797    1.7437891    1.7491517   0.18139833 0.0032827524  0.074504049 -0.0062800088    1.3475426    1.3644415   0.67567311  0.066666667    1.4327602          0.1  0.016891828    5.9200225    2.4906896    34.413227 -0.00011309344  -0.20424436 -0.0011436839   0.18587661 -0.00011309344  -0.20424436 -0.0011436839   0.18587661 
  122000    4.2200798    1.3015048    2.9185751  -0.20605213   0.86776239    1.0582743   0.74918498   -1.2465374            1    1.3675833    1.9255033    1.9353402   0.24190632 -0.0094341447  0.026181966 -0.053407206    1.1049171    1.6657606    1.6706262 -0.021635687 -0.009790483  0.028700445 -0.052514952    1.2278907    1.2446096   0.70097379  0.066666667     1.435931          0.1  0.017524345    5.7063474    2.4934039    34.413227 0.0042669549  -0.23957555 0.0075982602   0.19951204 0.0042669549  -0.23957555 0.0075982602   0.19951204 
  123000    4.2400979    1.3221537    2.9179442   -0.2188928   0.88152983    1.0900816    0.7517123   -1.2465374            1    1.4827365    2.0037793    2.0155667   0.42886356 0.0030984117   0.14537949   0.04179063     1.215903    1.7329727    1.7483676   0.16636866 0.0067315985   0.14676036  0.043398001    1.3425728    1.3560668   0.70465444  0.066666667    1.4509092          0.1  0.017616361    5.6765413    2.5109506    34.413227 0.00067990719  -0.18658997  0.011343276   0.20976427 0.00067990719  -0.18658997  0.011343276   0.20976427 
  124000    4.2329243    1.3140205    2.9189037  -0.20857199   0.87610714    1.0578955    0.7629677   -1.2465374            1    1.4236533    1.9646537    1.9667386   0.33956749 -0.022333823   0.15899473 -0.0029438856    1.1584612    1.6982297    1.7014321  0.075721593 -0.025891634   0.15732486 -0.0022639518    1.2813908    1.3007236   0.68945845  0.066666667    1.4616812          0.1  0.017236461    5.8016549    2.4908749    34.413227  0.011303439  -0.18658573 -0.013583995    0.1582511  0.011303439  -0.18658573 -0.013583995    0.1582511 
  125000    4.2160331    1.2869903    2.9290429  -0.21033851   0.85808503    1.0441106   0.74230186   -1.2465374            1    1.5125844    2.0249167    2.0411686   0.47166798 -0.00074879743   0.11425966  0.036063228    1.2528475    1.7662575    1.7820401   0.21024491 -0.0029980522   0.11545259  0.031371712    1.3741753    1.3912566   0.69249496  0.066666667    1.4911273          0.1  0.017312374    5.7762153    2.4967717    34.413227 -0.0091113781  -0.19091674 -0.00030681831   0.18270433 -0.0091113781  -0.19091674 -0.00030681831   0.18270433 
  126000    4.2121093    1.2895305    2.9225788   -0.2166305   0.85977868    1.0618008   0.73402666   -1.2465374            1    1.3723372    1.9082379    1.9292979   0.27947568 -0.0087985838  -0.02915883 -0.067114308    1.1120876    1.6463289    1.6717546   0.01817923 -0.0057059062 -0.026600135 -0.059821348    1.2354711    1.2489537   0.70003125  0.066666667    1.5210329          0.1  0.017500781    5.7140306    2.4972706    34.413227 0.0006207012  -0.20637051 -0.003095611   0.17739448 0.0006207012  -0.20637051 -0.003095611   0.17739448 
  127000    4.2206758    1.2931424    2.9275334  -0.20737331    0.8621869    1.0608211    0.7385467   -1.2465374            1    1.4974445    2.0005553    2.0183048   0.47347321 0.0034488511  0.007358102 0.00040925448    1.2364659    1.7458041    1.7545385   0.20905525 -0.0022021133 0.0058767276 0.0060897715    1.3597356    1.3741748   0.69961979  0.066666667    1.5538625          0.1  0.017490495    5.7173911    2.4820744    34.413227 -0.0079003895  -0.16942351 0.0030987156   0.22979147 -0.0079003895  -0.16942351 0.0030987156   0.22979147 
  128000    4.2453052    1.3127119    2.9325933  -0.20195735   0.87523461    1.0508791   0.76592391   -1.2465374            1    1.3909917    1.9370647    1.9516793   0.28423095 -0.0048263285 -0.077659472  0.063188067    1.1260637    1.6720678    1.6859933  0.020129791 -0.00063455942 -0.076787305  0.060108081     1.248178    1.2688773     0.693305  0.066666667    1.5411305          0.1  0.017332625    5.7694665    2.4964205    34.413227 0.0015252147  -0.18501775 -0.0041026128   0.19776837 0.0015252147  -0.18501775 -0.0041026128   0.19776837 
  129000    4.2618405    1.3344577    2.9273828  -0.20652872   0.88973333    1.0721445   0.77620814   -1.2465374            1    1.3797473    1.9169998    1.9455537   0.27668833 0.0027438227  0.034618197 -0.019251276    1.1104306    1.6458475    1.6838193  0.001625039 -0.0027928491  0.040043526 -0.020020018     1.235016    1.2551618   0.69294085  0.066666667    1.5744949          0.1  0.017323521    5.7724985    2.4975328    34.413227 -0.00074347773  -0.18310352  -0.01205282   0.19589049 -0.00074347773  -0.18310352  -0.01205282   0.19589049 
  130000    4.2489417    1.3287135    2.9202282  -0.20898715   0.88590351    1.0677124   0.77275296   -1.2465374            1    1.4667449    2.0010964    2.0251241   0.37401433  0.016455488  0.092959543 -0.0054237564    1.1985875    1.7373378    1.7553467   0.10307811  0.010778556  0.093034526 -0.0062279772    1.3226579    1.3426745   0.69940209  0.066666667    1.5631406          0.1  0.017485052    5.7191707    2.4897437    34.413227 -0.007087907  -0.19037578  0.016865213   0.20657572 -0.007087907  -0.19037578  0.016865213   0.20657572 
  131000    4.2211789    1.3017708    2.9194081  -0.20621763   0.86793976    1.0624155   0.74689213   -1.2465374            1    1.2628779    1.8271065    1.8572847   0.10424242 -0.0064743325  0.035958895 -0.021326664     1.000158    1.5604504    1.6006206  -0.16059705 -0.0032570769  0.034038345 -0.022165675    1.1236129     1.139423   0.70153331  0.066666667    1.5467433          0.1  0.017538333    5.7017963    2.4896858    34.413227 -0.0086132276  -0.21716804 -0.0086760612   0.17473609 -0.0086132276  -0.21716804 -0.0086760612   0.17473609 
  132000    4.2339099    1.2812079    2.9527019  -0.20774706   0.85422974    1.0266833   0.74690401   -1.2465374            1    1.5138709    2.0116453    2.0352436   0.49472369 0.0064433727  0.032548342 -0.0044015763    1.2553009    1.7543583    1.7822475   0.22929697 0.0085320956  0.029862388 -0.0069898244    1.3746037    1.3945681   0.70051581  0.066666667    1.5789656          0.1  0.017512895    5.7100781    2.5103107    34.413227  0.012208034  -0.20112441 0.0048831031   0.14771764  0.012208034  -0.20112441 0.0048831031   0.14771764 
  133000    4.1931355    1.2846444    2.9084911  -0.21490232   0.85652095     1.047383   0.73772336   -1.2465374            1    1.4255017    1.9698499    1.9529155   0.35373968 0.00013888603 0.0042499817  0.011070289    1.1662382    1.7069629    1.6962756  0.095476078 0.00018422935 0.0015842237  0.011638114    1.2879463    1.3037936   0.69534541  0.066666667    1.6102873          0.1  0.017383635    5.7525367    2.4659295    34.413227 -0.00061933687   -0.2020148 -0.011782353   0.18497012 -0.00065459359  -0.20196764 -0.011784942   0.18484483 
  134000    4.2033559    1.2962065    2.9071494  -0.22353154   0.86422981     1.063834   0.73998543   -1.2465374            1    1.3338905    1.8754828    1.8912729   0.23491581 0.0074944003   0.06378262 -0.022584913    1.0722936    1.6084269      1.63021 -0.021756191 0.0066374166  0.058868354 -0.026214666    1.1959133    1.2102707   0.70248984  0.066666667    1.6216051          0.1  0.017562246    5.6940325    2.4859235    34.413227 0.0028328406  -0.17342216 -0.0053580404   0.21171655 0.0028328406  -0.17342216 -0.0053591217   0.21171512 
  135000    4.2150817    1.2897237     2.925358   -0.2022173   0.85990749    1.0371211   0.74961628   -1.2465374            1    1.4303879    1.9401812    1.9802084    0.3707741 -0.010653904  0.060639321 -0.0038950111    1.1700993    1.6759891    1.7223332   0.11197568 -0.013056801  0.057167695 -0.0019380122     1.290615    1.3098723   0.70302898  0.066666667    1.6271624          0.1  0.017575724    5.6896659    2.4949712    34.413227 -0.0022155667  -0.19310675 -0.0019369921   0.17932682 -0.0022155667  -0.19310675 -0.0019369921   0.17932682 
  136000    4.2004419    1.2939475    2.9064944  -0.22174637   0.86272366    1.0419813   0.75115904   -1.2465374            1    1.3534488    1.8904692     1.903615   0.26626202 -0.019860116  0.040011132 0.0043461119    1.0923078     1.634304    1.6388637 0.0037555811 -0.016942124  0.042734709 -2.3770218e-06    1.2133882    1.2323684    0.6949814  0.066666667    1.6261392          0.1  0.017374535    5.7555498    2.4966211    34.413227 0.0061475446  -0.18930213 -0.012357031    0.1945299 0.0061475446  -0.18930213 -0.012357031    0.1945299 
  137000    4.2060998    1.2914211    2.9146787  -0.20846703   0.86103925    1.0309748    0.7552839   -1.2465374            1    1.3706179    1.8971326    1.9560119   0.25870936 0.0073383957   0.07748904  0.010497566    1.1099868    1.6428858    1.6900026 -0.0029279684  0.004583718  0.079391099 0.0092673402    1.2297882    1.2508165   0.69623651  0.066666667    1.6111736          0.1  0.017405913    5.7451741    2.4917686    34.413227 -0.0098257763  -0.21416189 -0.00033141163   0.15691674 -0.0098257763  -0.21416189 -0.00033141163   0.15691674 
  138000    4.2188995    1.3132264    2.9056731  -0.21048446   0.87557766    1.0332605   0.77746077   -1.2465374            1    1.4323315    1.9643633    1.9728208   0.35981028 -0.020456838  0.040637648 -0.022097347    1.1672996    1.6958872    1.7088706  0.097141114 -0.014902632  0.039648834  -0.02094259    1.2873667    1.3122644   0.70721909  0.066666667    1.6459616          0.1  0.017680477    5.6559559    2.4889186    34.413227  0.008884319  -0.19372196  0.011474831   0.17347066  0.008884319  -0.19372196  0.011474831   0.17347066 
  139000    4.2211949    1.3175738    2.9036211  -0.22108195   0.87847623    1.0534634   0.76957572   -1.2465374            1    1.3071916    1.8591572    1.8823038   0.18011378 -0.0051344249  0.021736932 0.0018075521    1.0412824    1.5969282    1.6136819 -0.086762913 -0.0077443164  0.020297095 0.0037498857     1.163697    1.1847769   0.71450613  0.066666667    1.6444409          0.1  0.017862653    5.5982725    2.4899052    34.413227 -0.011677355  -0.19364082  0.018542199    0.2228785 -0.011677355  -0.19364082  0.018542199    0.2228785 
  140000    4.2221474    1.2934857    2.9286617  -0.22003926    0.8624158    1.0326334   0.75648497   -1.2465374            1    1.3772918    1.8849287    1.9459023   0.30104449 -0.0051665624  0.019722419 -0.039046866     1.116244    1.6213716    1.6863921  0.040968284 -0.0020558794  0.019243539 -0.038750516    1.2362381    1.2572977   0.69361961  0.066666667    1.6406781          0.1   0.01734049    5.7668496     2.485347    34.413227 2.2552028e-05  -0.21967453 -0.016073721   0.18352515 2.2552028e-05  -0.21967453 -0.016073721   0.18352515 
  141000    4.2281118    1.2973051    2.9308068  -0.21288482    0.8649623    1.0268557   0.76421957   -1.2465374            1    1.3933744     1.922033    1.9547602   0.30332987 0.0028931119 -0.067471315 -0.035588999    1.1315557    1.6587411    1.6942894  0.041636763 0.00081083589 -0.063489452 -0.035780663    1.2508785    1.2740516   0.69817839  0.066666667    1.6547481          0.1   0.01745446    5.7291948    2.5143662    34.413227 -0.014455668  -0.19847423 0.0063366835   0.19268709 -0.014455668  -0.19847423 0.0063366835   0.19268709 
  142000    4.2237771    1.3204268    2.9033502  -0.22220372   0.88037846    1.0535241   0.77262596   -1.2465374            1    1.2096126    1.7835268    1.8144947   0.03081638 -0.0053489532 -0.061238374  0.042750428   0.94312762    1.5202329    1.5461578  -0.23700791 -0.003666493 -0.058391288  0.039950709    1.0655493    1.0871909   0.70879156  0.066666667    1.6508935          0.1  0.017719789    5.6434081     2.483742    34.413227 -0.0062844719   -0.1956833  0.002310268   0.17729972 -0.0062844719   -0.1956833 0.0023165581   0.17709846 
  143000     4.178851    1.2846526    2.8941984  -0.22455777   0.85652645    1.0372441   0.74405088   -1.2465374            1    1.4070375    1.9251862    1.9604014   0.33552496 0.0026997984 -0.030030876  0.023723927    1.1477723    1.6637828    1.7008452   0.07868905 0.0033997262 -0.028916232  0.019598798    1.2683023    1.2865076   0.71392312  0.066666667    1.6848319          0.1  0.017848078    5.6028442    2.5133354    34.413227 0.0072259127  -0.19355104 0.0022280708   0.20830208 0.0072259127  -0.19355104 0.0022280708   0.20830208 
  144000    4.1979515    1.2735345     2.924417  -0.21094983    0.8491136    1.0190859    0.7433333   -1.2465374            1    1.4408373     1.966454    1.9747043   0.38135358 -0.0018192561 -0.045758948 0.0093020972     1.183816    1.7089901    1.7207886   0.12166909 -0.0017805978 -0.047741721  0.010568536    1.3022359    1.3224174   0.70492369  0.066666667     1.680334          0.1  0.017623092     5.674373    2.5056354    34.413227 -0.011230479  -0.18323525 -0.00094141836   0.19009171 -0.011230479  -0.18323525 -0.00094141836   0.19009171 
  145000    4.1935702    1.2907598    2.9028104  -0.20968611    0.8605983    1.0315535   0.75420742   -1.2465374            1     1.316925    1.8714519    1.8871181   0.19220491 -0.0054244303  0.065107388  0.034060349    1.0564273    1.6061574    1.6289512 -0.065826712 -0.0041492772    0.0675091  0.035134832     1.176296    1.1970563   0.69980073  0.066666667    1.6981572          0.1  0.017495018    5.7159129    2.4864608    34.413227 0.0086858157  -0.16453155  0.004201551   0.16779775 0.0086858157  -0.16453155  0.004201551   0.16779775 
  146000     4.198037    1.2898522    2.9081848  -0.21513133   0.85999319    1.0246747   0.75751205   -1.2465374            1    1.5103851    2.0129422    2.0216248   0.49658828 -0.0070108082 0.0050430131  0.029256972    1.2500706    1.7476306    1.7652927    0.2372884 -0.0039139005 0.0068188717  0.031362342    1.3691399    1.3913157   0.71148738  0.066666667    1.6958617          0.1  0.017787184    5.6220252     2.498868    34.413227 -0.00060263633  -0.18132256  0.006605449   0.21244287 -0.00060263633  -0.18132256  0.006605449   0.21244287 
  147000    4.1974235    1.3006286    2.8967949  -0.21477482   0.86717821     1.036254   0.76195976   -1.2465374            1    1.3729929    1.8992157    1.9230723   0.29669073 -0.00040651524 -0.086347766 -0.078394775    1.1105035    1.6408932     1.659417  0.031200371 -0.001405178  -0.08086504 -0.078384482    1.2309184     1.252578   0.70508719  0.066666667    1.7083443          0.1   0.01762718    5.6730573    2.4896391    34.413227 -0.0073929437  -0.20511409 -0.003320355   0.12904488 -0.0073929437  -0.20511409 -0.003320355   0.12904488 
  148000    4.1892222    1.2897599    2.8994623  -0.20787828   0.85993167    1.0215321   0.75937061   -1.2465374            1    1.2926369    1.8489474    1.8714932   0.15747007 -0.0079284508 -0.058507548 -0.0037409165     1.032341    1.5890189    1.6096684  -0.10166427 -0.0046472119 -0.062495519 -0.00015101363    1.1510452    1.1739327   0.69751046  0.066666667    1.7440316          0.1  0.017437761     5.734681    2.4794247    34.413227 0.0024656424   -0.1908547 0.0092285889   0.20409508 0.0024656424   -0.1908547 0.0092285889   0.20409508 
  149000    4.2060175    1.2919759    2.9140415  -0.20900461   0.86140916    1.0335479   0.75428084   -1.2465374            1    1.3710164    1.9010472    1.9455692   0.26643297 -0.017735923 -0.015404746  0.043194721    1.1102733     1.642555     1.680236  0.008029017 -0.015735894 -0.018621231  0.041698074    1.2303738     1.250916   0.69823289  0.066666667    1.7504087          0.1  0.017455822    5.7287476    2.4904988    34.413227 0.0056090566  -0.16801829 0.00044332116   0.17718085 0.0056090566  -0.16801829 0.00044332116   0.17718085 
  150000    4.2025648     1.300292    2.9022727  -0.20875723   0.86695383    1.0306071   0.76511466   -1.2465374            1    1.4496037    1.9761251    1.9947353   0.37795069  0.018345439  0.024253866  0.026554057    1.1871822     1.717591    1.7296185   0.11433718  0.011371401  0.025897475  0.024580526    1.3069409     1.329845   0.70684577  0.066666667    1.7592319          0.1  0.017671144    5.6589431    2.4813887    34.413227 0.0021163624  -0.18850494 -0.0014146071   0.20368185 0.0021163624  -0.18850494 -0.0014146071   0.20368185 
  151000    4.1926974    1.2785609    2.9141366  -0.21657884   0.85246482     1.031785   0.74085947   -1.2465374            1    1.3479479    1.8778031    1.9209964    0.2450441  0.016217333  0.023574014 -0.033950105    1.0899121     1.621127    1.6617948 -0.013185401  0.012569097  0.023624122  -0.03854934    1.2098077    1.2280523   0.71655209  0.066666667     1.724306          0.1  0.017913802    5.5822878    2.5056471    34.413227 0.0053862899  -0.17469011  0.017327309    0.2049282 0.0053862899  -0.17469011  0.017327309    0.2049282 
  152000    4.1922814    1.3002491    2.8920324  -0.21447045   0.86692517    1.0435128   0.75702526   -1.2465374            1    1.4970386    2.0162045    2.0218895   0.45302188 -0.012045502  0.031381247  -0.02927276    1.2346258    1.7526311     1.756213   0.19503344 -0.010268409  0.030231409 -0.032773289    1.3558842    1.3757803   0.70740937  0.066666667    1.7405584          0.1  0.017685234    5.6544346    2.4897022    34.413227 -0.016157784  -0.24203287 0.0097193943   0.22213029 -0.016157784  -0.24203287 0.0097193943   0.22213029 
  153000    4.2210742    1.3029466    2.9181275  -0.21889074   0.86872375    1.0245625   0.77175492   -1.2465374            1    1.4434714    1.9539267    1.9778545   0.39863295 -0.0058385899 0.0022317898  0.001065619    1.1805142    1.6858728    1.7182266   0.13744324 -0.0043913151  0.004118874 0.00045533515    1.2995705    1.3244151   0.70387006  0.066666667    1.7584906          0.1  0.017596751    5.6828671    2.4900607    34.413227 0.0093574386   -0.1702632 0.0056621264   0.19816381 0.0093574386   -0.1702632 0.0056621264   0.19816381 
  154000    4.1793268    1.2918537    2.8874731  -0.21632687   0.86132764    1.0327463   0.75464807   -1.2465374            1    1.4389573    1.9661652      1.97398   0.37672651 -0.0054327402 -0.0020163787 -0.0052280064    1.1782388    1.7067186    1.7159711   0.11202672 -0.0033940888 -0.0028228253 -0.0036366016    1.2982461      1.31895   0.70565042  0.066666667    1.7340268          0.1  0.017641261    5.6685292    2.5016892    34.413227 -0.0002275835   -0.1795068  0.003631321   0.20690583 -0.0002275835   -0.1795068  0.003631321   0.20690583 
  155000    4.1914195     1.283051    2.9083685   -0.2162499   0.85545858    1.0167082   0.75511536   -1.2465374            1    1.4662376    1.9694224    1.9971035   0.43218702  0.011457671  0.047866741 -0.013679699    1.2072957    1.7112845    1.7418575   0.16874516 0.0088121912  0.049279155 -0.012400506    1.3254393     1.348094   0.70274268  0.066666667    1.7412163          0.1  0.017568567    5.6919839    2.4865715    34.413227 0.0012507814  -0.18575213 -2.5675592e-05   0.19469192 0.0012507814  -0.18575213 -2.5675592e-05   0.19469192 
  156000    4.1762103    1.2822031    2.8940072  -0.21113511   0.85489328    1.0219896   0.75090629   -1.2465374            1    1.4120256    1.9351409    1.9716334   0.32930253 -0.016995714  0.021546212 -0.041182379    1.1532548    1.6805069    1.7117889  0.067468587 -0.015462807  0.028129663 -0.041747265    1.2720121    1.2932683   0.70237459  0.066666667    1.7603175          0.1  0.017559365    5.6949668    2.4790285    34.413227 0.0079868907    -0.165803  0.021131068   0.20549729 0.0079868907    -0.165803  0.021131068   0.20549729 
  157000    4.1526893    1.2722069    2.8804824  -0.20963558   0.84822842    1.0245844   0.73846963   -1.2465374            1    1.4084082    1.9642556    1.9473741   0.31359491 -0.0018839285  0.016655339 0.0031207267    1.1516548    1.7024742      1.68976  0.062730169 -0.0038324246   0.01412015 -0.001030777    1.2707137    1.2893494   0.70665031  0.066666667    1.7496601          0.1  0.017666258    5.6605084     2.491193    34.413227 -0.020048855  -0.20758789 -0.00035268162    0.1849759 -0.020048855  -0.20758789 -0.00035268162    0.1849759 
  158000    4.1826084    1.2929829    2.8896255  -0.21210132   0.86208056    1.0414805   0.75042717   -1.2465374            1    1.4239529    1.9737558    1.9545376    0.3435653 -0.0061695376 -0.066298034 0.0010334578    1.1630066    1.7120935    1.7011444  0.075781843 -0.002218689 -0.063297666 0.0067363981    1.2840288    1.3029307   0.70849207  0.066666667    1.7868471          0.1  0.017712302    5.6457936     2.486106    34.413227 -0.010831327  -0.23618358 0.0051187409   0.16503137 -0.010831327  -0.23618358 0.0051187409   0.16503137 
  159000    4.1451683    1.2697157    2.8754527  -0.22470003   0.84656739    1.0283524   0.73342495   -1.2465374            1      1.42548    1.9667122     1.959311   0.35041685 -0.014730373   0.16638088  -0.05374666    1.1692294    1.7125647    1.6999837  0.095139821   -0.0112953   0.16460812  -0.05030511    1.2887261    1.3059833   0.70999872  0.066666667    1.7807427          0.1  0.017749968     5.633813    2.5066516    34.413227 0.0052991474  -0.19241898 0.0061150056   0.21721843 0.0052991474  -0.19241898 0.0061150056   0.21721843 
  160000    4.1650693    1.2647633     2.900306  -0.22631198   0.84326549    1.0231864    0.7312842   -1.2465374            1    1.2993904    1.8432775    1.8758322   0.17906137 -0.0010184858  0.026045834 -0.027918588    1.0441392    1.5879939    1.6199159 -0.075492234 -0.0013758256  0.025410783 -0.029013624    1.1630356     1.180494   0.70176483  0.066666667    1.7611375          0.1  0.017544121    5.6999152    2.4916412    34.413227 0.0048953717  -0.20213885 -0.0040947588   0.17588812 0.0048953717  -0.20213885 -0.0040947588   0.17588812 
  161000    4.1869381    1.2874143    2.8995238  -0.22235133   0.85836774     1.041396   0.74445255   -1.2465374            1    1.3663412    1.8898517    1.8971318   0.31204006 -0.015400082 -0.0026932403  0.012258825    1.1065187    1.6317767    1.6390334  0.048745805 -0.013881058 0.0023146927  0.010577072     1.227531    1.2453288   0.70254905  0.066666667    1.7605853          0.1  0.017563726    5.6935526     2.463961    34.413227 -0.0065895494  -0.19798658 -0.0084758602   0.20506057 -0.0065895494  -0.19798658 -0.0084758602   0.20506057 
  162000    4.2116149    1.3021498    2.9094651  -0.22270979   0.86819245    1.0349265   0.76443355   -1.2465374            1    1.4233031    1.9332881    1.9742092   0.36241217 -0.0045927598   0.06291153 -0.046818251    1.1605068    1.6704067    1.7152226  0.095891026 -0.0053879029  0.064501332 -0.048544955    1.2807674    1.3030425   0.70773522  0.066666667    1.7305015          0.1   0.01769338    5.6518312    2.4850101    34.413227 -0.0043414756  -0.21435208 0.0015873072   0.20232829 -0.0043414756  -0.21435208 0.0015873072   0.20232829 
  163000    4.1848195    1.2913858    2.8934337  -0.20386459   0.86101571    1.0581278   0.73832389   -1.2465374            1    1.2845085    1.8507926    1.8661233   0.13660964 0.00087816959 -0.075591156  0.048084659    1.0238845    1.5921378    1.6070575  -0.12754183 0.0019521487 -0.076758836  0.047331391    1.1468411    1.1615518   0.69508986  0.066666667    1.7450687          0.1  0.017377246    5.7546517    2.4767494    34.413227 0.0030877758  -0.17692857 0.0075160341   0.17462862 0.0030877758  -0.17692857 0.0075160341   0.17462862 
  164000    4.1831351    1.2897353    2.8933998  -0.21306629   0.85991522    1.0416475   0.74680792   -1.2465374            1    1.4837568    1.9744365    2.0396971   0.43713676 -0.0072152078 -0.037043506  0.056326002    1.2234659     1.711246    1.7802585    0.1788932 -0.0069096249 -0.032570141  0.051309143    1.3445075    1.3627152   0.70139782  0.066666667    1.7692696          0.1  0.017534945    5.7028977    2.5031288    34.413227 -0.014765772  -0.19217807 -0.0091311466   0.19747632 -0.014765772  -0.19217807 -0.0091311466   0.19747632 
  165000    4.2206587    1.3054601    2.9151986  -0.21834621    0.8703996    1.0398299   0.76496078   -1.2465374            1    1.2410813    1.7709602    1.8451047   0.10717892 -0.012357801 -0.057199188 0.0013029135   0.97761681    1.5145124    1.5806177  -0.16227973 -0.0098814603 -0.059233264 0.0001555272    1.0984472    1.1202509    0.7057037  0.066666667    1.7690458          0.1  0.017642593    5.6681012    2.4831586    34.413227 -0.0053607505  -0.19203019  0.017459139   0.21183211 -0.0053607505  -0.19203019  0.017459139   0.21183211 
  166000     4.193842    1.2764518    2.9173902  -0.21150852   0.85105862    1.0292085   0.74018238   -1.2465374            1    1.4554623    1.9674445    1.9950507   0.40389179 -0.007443201  -0.14192957 -0.011077422    1.1978523    1.7037909    1.7392795   0.15048638 -0.006311718   -0.1436409 -0.019933732    1.3174484    1.3358662   0.71047931  0.066666667    1.7591843          0.1  0.017761983    5.6300021    2.5012744    34.413227  0.010664366  -0.17441369 0.0020844138     0.198615  0.010664366  -0.17441369 0.0020844138     0.198615 
  167000    4.1830284    1.2830765    2.8999519  -0.21988214   0.85547559    1.0400803   0.74057746   -1.2465374            1    1.3271696    1.8645361    1.8990485    0.2179242 -0.015882558  -0.16058442 -0.012439699    1.0682226    1.6032957     1.638126 -0.036754002 -0.0093959033  -0.15804823 -0.015893006    1.1890821    1.2063101   0.69714705  0.066666667    1.7820229          0.1  0.017428676    5.7376704    2.5089806    34.413227 -0.006410949  -0.17169286 0.0012124284    0.2029868 -0.006410949  -0.17169286 0.0012124284    0.2029868 
  168000    4.1942849    1.2898721    2.9044128  -0.20957506   0.86000643    1.0503732   0.74151809   -1.2465374            1    1.4275643    1.9576985    1.9589146   0.36607998 -0.021091776  -0.05393548 0.0090891539    1.1672458    1.7018697    1.6957403   0.10412751 -0.016861725 -0.055568976 0.0096733341    1.2893014    1.3055088   0.70028282  0.066666667    1.7941457          0.1  0.017507071    5.7119779    2.4790617    34.413227 -0.0033907872  -0.16898725 0.0008183752   0.23639175 -0.0033907872  -0.16898725 0.0008183752   0.23639175 
  169000    4.2048541    1.2949436    2.9099104  -0.20683131   0.86338783    1.0431349   0.75151833   -1.2465374            1    1.4876379    1.9780635    2.0321908   0.45265924 -0.0034869754  0.075384399  0.053866871    1.2262958    1.7255959    1.7612814   0.19201015 -0.0083468651  0.074032309  0.056153497    1.3475103    1.3664234    0.7094722  0.066666667    1.7907141          0.1  0.017736805     5.637994    2.4908139    34.413227 -0.014125532  -0.21256466 0.00089276267   0.20394105   -0.0142476  -0.21235063 0.00089276267   0.20394105 
  170000    4.1948236    1.2930482    2.9017753  -0.21756269   0.86212411    1.0363242    0.7537113   -1.2465374            1    1.3947492    1.9076639    1.9491748   0.32740879 -0.0041421705  0.083156028 -0.018794642    1.1337896     1.653309    1.6830453   0.06501461 -0.0048372929   0.08282971 -0.020526627    1.2542127    1.2743261   0.70808775  0.066666667    1.7847879          0.1  0.017702194    5.6490174    2.4808512    34.413227 0.0073313093  -0.16450245 0.0056694969   0.19910921 0.0073313093  -0.16450245 0.0056694969   0.19910921 
  171000    4.2136615    1.3029268    2.9107347   -0.2161298    0.8687105    1.0439832   0.75963036   -1.2465374            1    1.4665547    1.9856279    1.9994167    0.4146195 -0.0030766013  0.046960754 -0.039342062    1.2036015    1.7291969    1.7253887   0.15621888 -0.00030628836  0.049157283 -0.034732524    1.3249145    1.3452416   0.71291203  0.066666667    1.7883115          0.1  0.017822801    5.6107904    2.4925298    34.413227 -0.0091446192  -0.18759694 -0.0058668004   0.19319027 -0.0091446192  -0.18759694 -0.0058668004   0.19319027 
  172000     4.188879    1.2850604    2.9038187   -0.2157194    0.8567983    1.0246002   0.75237192   -1.2465374            1    1.2940345    1.8741184    1.8781018   0.12988325 -0.015211958  0.023896193  0.061097708    1.0346871    1.6078322    1.6211053  -0.12487629 -0.019520505  0.025011717    0.0612563    1.1537478    1.1749738   0.69939474  0.066666667    1.8128398          0.1  0.017484869    5.7192308    2.5027498    34.413227 -0.0056424684  -0.14287344  0.010641855   0.16757982 -0.0056424684  -0.14287344  0.010641855   0.16757982 
  173000    4.1845636    1.2870467    2.8975169  -0.21185673   0.85812267    1.0361415   0.74732933   -1.2465374            1    1.2947262    1.8483118    1.8659362   0.16993058 -0.007713476 -0.041558169  0.011593745    1.0349779    1.5918156    1.6059115 -0.092793472 -0.0061788033  -0.04411205 0.0074713651    1.1553797    1.1743244   0.70022816  0.066666667    1.8195928          0.1  0.017505704    5.7124238    2.4752611    34.413227 0.00074353891  -0.17797835  0.031879706   0.24017378 0.00074353891  -0.17797835  0.031879706   0.24017378 
  174000    4.1685231    1.2797735    2.8887496  -0.21721294   0.85327335    1.0370315   0.73890236   -1.2465374            1    1.4719742    2.0019121     2.000534   0.41347635 -0.016149454 -0.014722562 -0.011518264    1.2136937    1.7411638    1.7437387   0.15617854 -0.012954619 -0.012252427 -0.012122556    1.3341989    1.3514689   0.71698843  0.066666667    1.7965074          0.1  0.017924711    5.5788906    2.4960673    34.413227 -0.017083578  -0.21306295 0.0088665036   0.20531433 -0.017083578  -0.21306295 0.0088665036   0.20531433 
  175000    4.2152159    1.2934414    2.9217745  -0.22164466   0.86238622    1.0401432   0.75175681   -1.2465374            1    1.3169092    1.8619109    1.8806427   0.20817398 0.0026777062  -0.03645345  0.017031338    1.0558703    1.5980254    1.6191832 -0.049597644 0.0028331996 -0.033795538  0.017505081    1.1767371    1.1960424   0.70494323  0.066666667    1.8262663          0.1  0.017623581    5.6742158    2.4830184    34.413227 -0.014988971  -0.20829554 -0.024193359   0.19106643 -0.014988971  -0.20829554 -0.024193359   0.19106643 
  176000    4.1713604    1.2815675    2.8897928  -0.22538402   0.85446949    1.0334279   0.74308998   -1.2465374            1    1.4099287    1.9246867    1.9562747   0.34882485 0.0014561379 -0.059912622  0.057740617    1.1512862    1.6635866    1.7003517  0.089920346 0.00046853719 -0.062856864  0.054589388    1.2713727    1.2898423   0.70227236  0.066666667    1.8038105          0.1  0.017556809    5.6957959    2.4938296    34.413227 -0.0041401015  -0.19610503  0.008106369   0.19464998 -0.0041401015  -0.19610503  0.008106369   0.19464998 
  177000    4.1894719    1.2793368    2.9101351  -0.21152814   0.85298214    1.0292892    0.7432547   -1.2465374            1    1.4505508    1.9576753    1.9931333   0.40084374 -0.020662116  -0.13227629  0.026065088    1.1923585    1.6937885    1.7371614   0.14612546 -0.022639239  -0.12831808  0.026428415     1.311964    1.3309452   0.70246482  0.066666667    1.7916377          0.1  0.017561621    5.6942353    2.4840638    34.413227 -0.0073196239  -0.21386401 -0.00063267627   0.19039977 -0.0073199037  -0.21384687 -0.00063267627   0.19039977 
  178000    4.2079822    1.2949422      2.91304  -0.21382992   0.86338688    1.0362432   0.75581173   -1.2465374            1    1.3801295     1.922544    1.9167512   0.30109336 0.0086930441 -0.055972542 -0.0073527458    1.1187877    1.6575633    1.6524258  0.046374087 0.0091992531 -0.057007939 -0.0037755726    1.2392014    1.2597159   0.70586942  0.066666667      1.78431          0.1  0.017646735    5.6667705     2.479655    34.413227 -0.0034040153  -0.19363769 0.0073434823   0.19151828 -0.0034040153  -0.19363769 0.0073434823   0.19151828 
  179000    4.2091367    1.2958291    2.9133076   -0.2117085   0.86397824    1.0236688   0.76460812   -1.2465374            1     1.463351    1.9847764    1.9881407   0.41713601 0.0014240588 -0.022856113  0.024235249    1.2018303    1.7257226    1.7251649   0.15460336 0.0037470628 -0.024913932  0.025196452    1.3207827    1.3443986   0.70589815  0.066666667    1.7686614          0.1  0.017647454    5.6665398    2.5108076    34.413227 0.0023619592  -0.20504538 0.0086092843   0.16659039 0.0023619592  -0.20504538 0.0086092843   0.16659039 
  180000    4.1913523    1.2902144    2.9011379  -0.22719364   0.86023468    1.0261369    0.7569928   -1.2465374            1    1.3776833     1.901035    1.9126971   0.31931797 0.0022834395   0.14119063 0.0096769575    1.1172957    1.6365978    1.6586966  0.056592754 0.0020405439   0.14360196  0.011441677     1.236535    1.2584441   0.71179298  0.066666667    1.7881211          0.1  0.017794824    5.6196115    2.4905997    34.413227 -0.0096113287  -0.19609451 -0.013825536   0.20857178 -0.0096113287  -0.19609451 -0.013825536   0.20857178 
  181000    4.1651964    1.2881815     2.877015  -0.22488049   0.85887925    1.0072138   0.76658537   -1.2465374            1    1.2843261    1.8541911    1.8699998   0.12878744 -0.0082133472  0.052918158  0.016871947    1.0243488    1.5927098    1.6103262  -0.12998961 -0.0055410626   0.05087357   0.01464517    1.1413891    1.1672858   0.70787283  0.066666667    1.7969189          0.1  0.017696821    5.6507325    2.4785624    34.413227 -0.0094025465  -0.19885738 -0.010001724   0.20113931 -0.0094025465  -0.19885738 -0.010001724   0.20113931 
  182000    4.1622669     1.277545    2.8847219  -0.22451878   0.85178753    1.0249771    0.7440027   -1.2465374            1    1.3323104    1.8736161    1.9173216   0.20599347 -0.011730252 -0.028952418  0.043325792    1.0744797    1.6146233     1.657377 -0.048561253 -0.0094011002 -0.027340521  0.045369156    1.1935841    1.2132059   0.70641283  0.066666667    1.7851393          0.1  0.017660321    5.6624113    2.4863552    34.413227 -0.0037980823  -0.19188166  0.013931377   0.17927082 -0.0037980823  -0.19188166  0.013931377   0.17927082 
  183000    4.1823639    1.2941392    2.8882247  -0.21718218   0.86285152    1.0217943   0.76394726   -1.2465374            1    1.5185091    2.0230389    2.0485989   0.48388962 -0.0094802198 -0.0013876685 -0.045511323    1.2573294    1.7587782    1.7874246   0.22578552 -0.0092423053 0.00065127888 -0.043323782    1.3760641    1.3997745   0.70399761  0.066666667    1.7904239          0.1   0.01759994    5.6818375    2.4860632    34.413227 -0.0062118332  -0.17873541  0.007876118   0.18929379 -0.0062118332  -0.17873541  0.007876118   0.18929379 
  184000    4.1827272    1.3012775    2.8814498  -0.22306627   0.86761085    1.0448869   0.75728203   -1.2465374            1    1.2639424    1.8318608    1.8496927    0.1102737   0.01349683  -0.13605165   0.01375359    1.0013221    1.5682473    1.5879763   -0.1522574 0.0085901811  -0.13647929 0.0070261585    1.1227401    1.1425244   0.70725065  0.066666667    1.7851224          0.1  0.017681266    5.6557035     2.487284    34.413227 -0.025565667  -0.21370936  0.010134771   0.19909893 -0.025565667  -0.21370936  0.010134771   0.19909893 
  185000    4.2087079    1.3023702    2.9063377  -0.22060901   0.86833943    1.0309671   0.76713969   -1.2465374            1    1.3379821    1.8865212    1.9078889   0.21953623  -0.01352954  -0.14951923  0.022290892    1.0751413    1.6277057    1.6434193 -0.045701182 -0.011524217  -0.14740689  0.023872899    1.1949418    1.2181816   0.71721267  0.066666667    1.7727046          0.1  0.017930317    5.5771463    2.5079905    34.413227 -0.0079432241  -0.19075831 -0.0071661069   0.21329446 -0.0079432241  -0.19075831 -0.0071661069   0.21329446 
  186000    4.1881554    1.2917093    2.8964462  -0.21205624   0.86123135    1.0269632   0.75809583   -1.2465374            1    1.5046646    2.0265333    2.0310734   0.45638712 -0.015743253 -0.086146373 -0.0014675492    1.2439753    1.7695732    1.7666327   0.19572002 -0.017907042 -0.085579518 0.00011852016    1.3633106    1.3853293    0.7094578  0.066666667    1.7868966          0.1  0.017736445    5.6381084    2.4857643    34.413227  0.014957335  -0.18452085 -0.00013681369   0.17958929  0.014957335  -0.18452085 -0.00013681369   0.17958929 
  187000    4.1840825    1.2995608    2.8845217  -0.21907296   0.86646626    1.0267763   0.76671052   -1.2465374            1    1.3448419    1.9175071    1.9313763   0.18564224 -0.001331988   -0.1592536  0.039542208     1.082568     1.657795     1.663097 -0.073188098 -0.0046171327  -0.15587859  0.043291161    1.2018815    1.2255283   0.70508422  0.066666667    1.7969825          0.1  0.017627105    5.6730812    2.4942798    34.413227 0.0057173811  -0.19427793 -0.006203864   0.17111133 0.0057173811  -0.19427793 -0.006134185   0.17102563 
  188000    4.1874303    1.2786776    2.9087526  -0.21284056   0.85254268    1.0230737    0.7464148   -1.2465374            1    1.3666119    1.8936489    1.9438922    0.2622947  0.007761161  -0.16698551  0.019470495    1.1085527     1.638187    1.6806555 0.0068154209   0.01150606  -0.16815132   0.01620166     1.227436    1.2477286   0.70727189  0.066666667     1.816159          0.1  0.017681797    5.6555337    2.4936374    34.413227 -0.0025328966  -0.16105977 0.0071119741   0.22049381 -0.0025328966  -0.16105977 0.0071119741   0.22049381 
  189000    4.1772264    1.2783694     2.898857  -0.21689494   0.85233717    1.0303388   0.74155352   -1.2465374            1    1.3290929    1.8785595     1.891544   0.21717511 0.0098974261      -0.1331  -0.03246557    1.0710958    1.6266505    1.6310029 -0.044366074 0.0071152363   -0.1357749 -0.032512464    1.1908233    1.2093653    0.7036899  0.066666667     1.816967          0.1  0.017592248     5.684322    2.4889753    34.413227 -0.020718125  -0.16492732 0.0072269182   0.17333537 -0.020718125  -0.16492732 0.0072269182   0.17333537 
  190000     4.194005    1.2923174    2.9016876  -0.21675458   0.86163681    1.0206048   0.76271663   -1.2465374            1    1.4615091    1.9844211    1.9879705    0.4121357 0.0014962265 -0.069109873  0.030955423    1.2006971    1.7255805    1.7251356   0.15137515 0.0013885692 -0.075448295  0.031796509    1.3192935    1.3429127   0.70466084  0.066666667    1.8401601          0.1  0.017616521    5.6764897    2.4940628    34.413227 -0.0029631669  -0.16729296 8.2746813e-05    0.1760736 -0.0029631669  -0.16729296 8.2746813e-05    0.1760736 
  191000    4.1855495    1.2791424    2.9064071  -0.21870755   0.85285257    1.0141429   0.75248358   -1.2465374            1    1.3158989     1.897428    1.8762959   0.17397276 -0.010323802 -0.022010613  0.012393323    1.0577458     1.634713    1.6205964 -0.082072101 -0.012627877 -0.025546872  0.014789881    1.1755913    1.1980534   0.70995606  0.066666667    1.8299748          0.1  0.017748902    5.6341515    2.4740623    34.413227 0.0062693309  -0.20534263 0.0064043206   0.21898016 0.0062693309  -0.20534263 0.0064043206   0.21898016 
  192000    4.2086498    1.2914858     2.917164  -0.22350903   0.86108235    1.0232904   0.76014284   -1.2465374            1    1.4097067    1.9405586    1.9567396   0.33182187 0.0085170837  0.082886817 -0.010865512    1.1490625    1.6848337    1.6899501  0.072403682 0.0072838355  0.076970469 -0.010924368     1.267971    1.2907982   0.70213838  0.066666667    1.8266449          0.1   0.01755346    5.6968827    2.4797052    34.413227 -0.0073111701  -0.18674319  0.007143529   0.15626059 -0.0073111701  -0.18674319  0.007143529   0.15626059 
  193000    4.2002988     1.290783    2.9095158  -0.21301867   0.86061378     1.028697   0.75601276   -1.2465374            1    1.3217601    1.8662662    1.8899399    0.2090741 -0.011744479    0.0839948  0.071546418    1.0612577    1.6065553    1.6326167  -0.05539888 -0.0058169835  0.089650626  0.067124072    1.1807945    1.2022233   0.70127819  0.066666667    1.8123533          0.1  0.017531955    5.7038705    2.4913703    34.413227 0.0070797824  -0.20282923  0.011165803   0.17692904 0.0070797824  -0.20282923  0.011165803   0.17692904 
  194000    4.1799184    1.2915667    2.8883517  -0.22475355   0.86113629    1.0449589   0.74672654   -1.2465374            1    1.4366164    1.9745184    1.9848703   0.35046059  0.011382472  0.069245812  0.045119934    1.1759559    1.7102027    1.7279446  0.089720408 0.0084882084  0.071188123  0.042745848    1.2973823      1.31519    0.7124076  0.066666667    1.8029908          0.1   0.01781019    5.6147632    2.4941951    34.413227 -0.0066276956  -0.19985676   0.01624264   0.20212772 -0.0066276956  -0.19985676   0.01624264   0.20212772 
  195000     4.193131    1.2969305    2.8962005  -0.22481978   0.86471257    1.0429579   0.75377917   -1.2465374            1    1.3169612    1.8658831    1.8912384    0.1937621 0.0078133157  0.011133186  0.076868252    1.0552181    1.6033089    1.6284039 -0.066058343 0.0013250508  0.013081831  0.077684118     1.176412    1.1957673   0.71100655  0.066666667    1.8162819          0.1  0.017775164    5.6258272    2.4824619    34.413227 -0.020887313  -0.20694031 0.0059109675   0.17373812 -0.020887313  -0.20694031 0.0059109675   0.17373812 
  196000    4.1703188    1.2856137     2.884705  -0.21822686   0.85716725    1.0292728    0.7500589   -1.2465374            1    1.4848482    2.0013326    2.0245132   0.42869867 -0.0072137869  -0.08755741 -0.0046255427     1.225389    1.7450293    1.7626961   0.16844173 -0.0039104873 -0.086680151 -0.0069312466    1.3449927    1.3652445   0.71389439  0.066666667    1.8211398          0.1   0.01784736    5.6030696    2.5153648    34.413227 -0.0092039041   -0.2121845 0.0046894451   0.20583597 -0.0092039041   -0.2121845 0.0046894451   0.20583597 
  197000     4.186672     1.278651    2.9080209  -0.21676079   0.85252494    1.0279753   0.74333128   -1.2465374            1    1.4394032    1.9426849    1.9801647   0.39536005  0.020299969 -0.024502062 -0.011003713    1.1813493    1.6844961     1.728947   0.13060487  0.022746568 -0.024166526 -0.011630518    1.3008022    1.3199503   0.70471417  0.066666667    1.7980462          0.1  0.017617854    5.6760602    2.5051851    34.413227 -0.011478019  -0.15746381  0.013844371    0.1763781 -0.011478019  -0.15746381  0.013844371    0.1763781 
  198000    4.1752789    1.2877489    2.8875301  -0.21478757   0.85859082    1.0392361   0.74616074   -1.2465374            1    1.3263731    1.8684779    1.8930799   0.21756158 0.0051471948 -0.072237069 -0.048610284    1.0664831    1.6116362    1.6327603  -0.04494721 0.0034662023 -0.073991955 -0.043028587    1.1872445    1.2056117   0.70482352  0.066666667    1.8053412          0.1  0.017620588    5.6751795    2.4752085    34.413227 0.0059070762  -0.19649781 -0.011048069   0.21113721 0.0059070762  -0.19649781 -0.011060242   0.21093517 
  199000    4.1551423     1.282419    2.8727233  -0.22107717   0.85503723    1.0402149   0.73978195   -1.2465374            1    1.4664115    1.9857724    2.0039166   0.40954551 0.0059860946 -0.086536625 -0.067480197    1.2075971    1.7269375    1.7456547   0.15019919  0.010394989 -0.086048481 -0.068488835    1.3284723    1.3455364   0.70752406  0.066666667    1.7931504          0.1  0.017688101     5.653518    2.4888779    34.413227 -0.0055543684  -0.20638858 0.0046732291   0.18511551 -0.0055543684  -0.20638858 0.0046732291   0.18511551 
  200000    4.1994669    1.3005191    2.8989479  -0.22446033    0.8671052     1.032833   0.76397324   -1.2465374            1    1.3807435    1.9306583    1.9274795   0.28409279 0.0035389741 -0.047284772 -0.046919055    1.1182762    1.6572892    1.6719869  0.025552643 0.0044595201 -0.045948932 -0.044598316    1.2382936    1.2607262   0.70582932  0.066666667    1.7975921          0.1  0.017645733    5.6670924    2.4781918    34.413227 -0.0021567088  -0.19345541 0.0049114143   0.16041152 -0.0021567088  -0.19345541 0.0049114143   0.16041152 
  201000    4.1845814    1.2832334    2.9013481   -0.2125011   0.85558016    1.0170929   0.75507298   -1.2465374            1    1.4111644    1.9327899    1.9627747    0.3379285 0.0096262451 -0.067662017  0.051485634    1.1521856    1.6708617     1.708808   0.07688722 0.0091456955 -0.066550675  0.045273261     1.270374     1.292976   0.71346107  0.066666667    1.7672411          0.1  0.017836527    5.6064727    2.5035052    34.413227 -0.0088757142  -0.19025663 0.0095723185   0.17830889 -0.0088757142  -0.19025663 0.0095723185   0.17830889 
  202000    4.1754543    1.2735092    2.9019451   -0.2149085   0.84909669    1.0225069    0.7411739   -1.2465374            1     1.416441    1.9317131    1.9831739   0.33443591 -0.0068780761  0.068180505 -0.021946331    1.1594248    1.6774147    1.7218858  0.078973672 -0.0075788131  0.069854756 -0.020101661    1.2782422    1.2976235    0.7101786  0.066666667    1.7711365          0.1  0.017754465     5.632386     2.488765    34.413227 -0.013078624  -0.21042018  0.011005768   0.17628159 -0.013078624  -0.21042018  0.011005768   0.17628159 
  203000    4.1773539     1.283817    2.8935369  -0.21572917   0.85596928    1.0320777    0.7463661   -1.2465374            1    1.3395028    1.8940517    1.8945137   0.22994301 0.0024691763 0.0090289682  0.062565812    1.0804063    1.6307194    1.6355052 -0.025005613 0.0046559461  0.012116635  0.065289811    1.2003359    1.2195732   0.71589624  0.066666667       1.7819          0.1  0.017897406    5.5874019    2.5125843    34.413227 -0.0097704678  -0.18053884  0.010473037   0.19261577 -0.0097704678  -0.18053884  0.010473037   0.19261577 
  204000    4.1672761    1.2878833    2.8793929  -0.20765847   0.85868042    1.0275325    0.7535999   -1.2465374            1    1.3743165    1.9257721     1.944618   0.25255946 0.00031423733  0.045447548 -0.054115132    1.1143994    1.6681889     1.685491 -0.010481828 7.7558724e-05  0.045669186 -0.056604829    1.2338008    1.2549151   0.70758388  0.066666667    1.8185254          0.1  0.017689597      5.65304    2.4884954    34.413227 -0.0053914806     -0.19861  0.012389434   0.19380747 -0.0053914806     -0.19861  0.012389434   0.19380747 
  205000    4.1886827    1.2811431    2.9075396  -0.22245431   0.85418649    1.0211686   0.75027058   -1.2465374            1    1.3740154    1.8722473    1.9413659   0.30843294 0.0017881018  0.018647731 -0.058111794    1.1154585    1.6134584    1.6803601  0.052557043 0.0026052382  0.019858205 -0.057211042    1.2341204    1.2553534   0.71057486  0.066666667    1.8318643          0.1  0.017764372     5.629245     2.475244    34.413227 0.0019941563  -0.20757795 0.0019387906   0.18879354 0.0019941563  -0.20757795 0.0019387906   0.18879354 
  206000    4.1878387    1.2947412    2.8930975  -0.21506936   0.86325284    1.0200536   0.76568357   -1.2465374            1    1.4104194    1.9128284    1.9602037   0.35822622 -0.005824351  0.081647209   0.01570101    1.1491183    1.6501018    1.7016181  0.095634835 -0.006691387  0.076112512  0.016647144    1.2676506    1.2918871   0.71657217  0.066666667    1.8145662          0.1  0.017914304    5.5821314    2.4819105    34.413227 -0.00039085753  -0.18217196 0.0054839103    0.1866915 -0.00039085753  -0.18217196 0.0054839103    0.1866915 
  207000    4.1756724    1.2713202    2.9043522  -0.21695046   0.84763722    1.0078908   0.74791341   -1.2465374            1     1.332024    1.8710966    1.9138815   0.21109381 -0.0015459155  0.012546041 -0.021681287    1.0754495     1.610872    1.6578154 -0.042338723 -0.003479562  0.011585632 -0.022037087    1.1925685     1.214905   0.71696856  0.066666667    1.8692691          0.1  0.017924214    5.5790452    2.5114051    34.413227 -0.0064520544  -0.17168968 0.00071240928   0.19726395 -0.0064520544  -0.17168968 0.00071240928   0.19726395 
  208000    4.1473003    1.2849539    2.8623464  -0.22409592   0.85672728    1.0329565   0.74704896   -1.2465374            1     1.505968    2.0112581    2.0199763   0.48666949 -0.0080931579  0.029247051 -0.060757393     1.246642    1.7452898    1.7636174    0.2310188 -0.010220569  0.032075901 -0.057984746    1.3666737    1.3859363    0.7063104  0.066666667    1.8503526          0.1   0.01765776    5.6632325    2.4758659    34.413227 0.0099249266  -0.20245103  0.002922259   0.19254384 0.0099249266  -0.20245103  0.002922259   0.19254384 
  209000    4.1832719    1.2917711    2.8915008  -0.21665937   0.86127258    1.0197278    0.7626719   -1.2465374            1    1.4162371    1.9352251    1.9722488   0.34123744 -0.019425467 -0.040055509 0.0094393543    1.1555353    1.6708067    1.7089041  0.086895199 -0.021140187 -0.036453509 0.0072456394    1.2740298    1.2977426   0.72209849  0.066666667    1.8300871          0.1  0.018052462    5.5394105     2.515006    34.413227 -0.0044827272  -0.18994378 -0.0049747632   0.21350686 -0.0044827272  -0.18994378 -0.0049747632   0.21350686 
  210000    4.1770839    1.2805673    2.8965166  -0.21349717   0.85380259    1.0231339   0.74842258   -1.2465374            1    1.5055035    2.0109058    2.0231481    0.4824564 0.0083975773 -0.076988934 -0.0022815076    1.2470628     1.752978    1.7618549   0.22635547 0.0098210054 -0.074879329 0.0015276921    1.3659531    1.3866132   0.71640654  0.066666667    1.8237378          0.1  0.017910163     5.583422    2.4936075    34.413227 -0.0084891408  -0.18371772 -0.00047240582     0.187372 -0.0084891408  -0.18371772 -0.00047240582     0.187372 
  211000    4.1769824    1.2796909    2.8972915   -0.2165196   0.85321824    1.0295134   0.74349824   -1.2465374            1    1.3577314    1.9030033    1.9206775   0.24951358 0.0058067067  -0.16407842  0.013505418    1.0994677    1.6427481    1.6610228 -0.0053679007  0.007996179  -0.15998965  0.018477732    1.2190993    1.2380998   0.71147389  0.066666667    1.8258987          0.1  0.017786847    5.6221318    2.4985822    34.413227  -0.01142495  -0.18877941 -0.0044439953   0.19341634  -0.01142495  -0.18877941 -0.004427196   0.19339396 
  212000    4.1687457    1.2741616    2.8945841  -0.21110115   0.84953169    1.0282763   0.73828455   -1.2465374            1    1.4390073    1.9723209    1.9744636   0.37023732 0.0040553835  -0.12301138 0.0003589782    1.1818594    1.7221905     1.713776   0.10961157 0.0028766572  -0.12003395 -0.0012237272    1.3013472    1.3195194   0.69550059  0.066666667    1.8135226          0.1  0.017387515    5.7512532    2.4735202    34.413227 -0.0072975703  -0.20816452  0.011615152   0.16534487 -0.0072975703  -0.20816452  0.011615152   0.16534487 
  213000    4.1709597    1.2820279    2.8889318  -0.22291107   0.85477645    1.0229449   0.75012128   -1.2465374            1    1.3753615    1.9258867    1.9435826   0.25661523 -0.025245816 -0.027106189  0.033647689    1.1166261    1.6633404    1.6846719 0.0018659101 -0.025040512 -0.027299254  0.030531586    1.2354944    1.2564932   0.69721272  0.066666667     1.804717          0.1  0.017430318      5.73713    2.4847142    34.413227 0.0063963687  -0.17491466   0.01746775   0.19513395 0.0063963687  -0.17491466   0.01746775   0.19513395 
  214000     4.177838    1.2773979    2.9004401  -0.21174446   0.85168943    1.0108607   0.75264082   -1.2465374            1    1.4400958    1.9413556    1.9849117   0.39402022 -0.0034505539  -0.08783946 -0.011375767    1.1822948    1.6804819    1.7320003   0.13440227 -0.0056153149  -0.08905302   -0.0136582     1.299759    1.3226317   0.70655283  0.066666667    1.8069896          0.1  0.017663821    5.6612893    2.4937775    34.413227 -0.015468713  -0.19295387 -0.0027054871   0.19266971 -0.015468713  -0.19295387 -0.0027054871   0.19266971 
  215000      4.19299    1.2976057    2.8953844  -0.21959122   0.86516272    1.0366064    0.7584682   -1.2465374            1    1.3686194    1.8985812     1.931672    0.2756049 -0.00080142537 -0.015283603  0.020179907    1.1067401     1.634445    1.6671831  0.018592137 -0.0055377489 -0.013760472  0.016499261    1.2271959    1.2481635   0.71340478  0.066666667    1.8053587          0.1   0.01783512     5.606915    2.5145226    34.413227 -0.0086521506  -0.16518625 0.0046230404   0.19460286 -0.0086521506  -0.16518625 0.0046230404   0.19460286 
  216000    4.1679514    1.3056689    2.8622825  -0.22008891   0.87053875    1.0409958   0.76446009   -1.2465374            1    1.5232717    2.0411874    2.0318867   0.49674104 0.00042083247 -0.079243272 0.0079788763    1.2597651    1.7719191    1.7758774   0.23149892 -0.00015365537 -0.074415131 0.0063752508     1.380731    1.4023058   0.71321868  0.066666667    1.8334436          0.1  0.017830467    5.6083781    2.4850974    34.413227 0.0038863765  -0.21130648  0.010488321   0.21660574 0.0038863765  -0.21130648  0.010488321   0.21660574 
  217000    4.1688415    1.2813255     2.887516  -0.22193791   0.85430815    1.0246214   0.74831628   -1.2465374            1    1.4932527    2.0024824    2.0102481   0.46702762 0.0060398675 -0.0040499333 -0.052422542     1.234659     1.741727    1.7539302   0.20831993 0.0034832019 -0.0002945267 -0.052342982    1.3537222    1.3741896   0.70601062  0.066666667    1.8602667          0.1  0.017650266    5.6656371    2.4961442    34.413227 0.0043652312  -0.17392591 0.0081077261   0.20133796 0.0043652312  -0.17392591 0.0081077261   0.20133796 
  218000    4.1918065     1.278288    2.9135185  -0.21581781   0.85228288     1.020627   0.74751785   -1.2465374            1    1.3779919    1.9150897     1.941928   0.27695788 -0.0089654543 -0.039584321  0.030265085    1.1200112    1.6520133      1.68698  0.021040454 -0.011655059 -0.037647978  0.022006112    1.2386102    1.2593929   0.70243682  0.066666667    1.8660788          0.1  0.017560921    5.6944623    2.5106178    34.413227  0.010612637  -0.13116937 0.0049906672   0.18086313  0.010612637  -0.13116937 0.0049906672   0.18086313 
  219000    4.1724325     1.298546    2.8738865  -0.21832246   0.86578968    1.0228009   0.76808969   -1.2465374            1    1.4260452    1.9777829    1.9707094   0.32964318 -0.0061196027 0.0043188796 0.0059019043    1.1639761    1.7123885    1.7086774   0.07086238 -0.0060728409 0.0052342661 0.0057552489    1.2828277    1.3071936   0.71523887  0.066666667    1.8446981          0.1  0.017880972    5.5925372    2.4914904    34.413227 -0.00032146858  -0.23399586  0.007536337   0.17863348 -0.00032146858  -0.23399586  0.007536337   0.17863348 
  220000    4.1657836    1.2819758    2.8838079  -0.21597719   0.85474169    1.0359126   0.74198337   -1.2465374            1    1.4851503    1.9897149    2.0164472   0.44928893 -0.0052047651  0.067635213 -0.034021698    1.2264254    1.7304292    1.7566933   0.19215373 -0.0091301843  0.068605024 -0.031991457    1.3468006    1.3647751   0.71935447  0.066666667    1.8404932          0.1  0.017983862     5.560541     2.473172    34.413227 0.0025143027  -0.17682523 -0.0094133084   0.19822466 0.0025143027  -0.17682523 -0.0094133084   0.19822466 
  221000    4.1459434    1.2701691    2.8757743  -0.21273581    0.8468697    1.0104927   0.74504594   -1.2465374            1    1.3708417    1.9024667    1.9438609   0.26619757 -0.011220232 -0.0004761557 -0.053568199    1.1144996    1.6490054    1.6844867  0.010006701 -0.010070147 -0.00073308955 -0.054572129     1.231921    1.2534204   0.70437103  0.066666667    1.8585781          0.1  0.017609276    5.6788253    2.4961972    34.413227  0.010658199  -0.18426236 0.0026083942   0.16570498  0.010658199  -0.18426236 0.0026083942   0.16570498 
  222000    4.1534431    1.2576844    2.8957587  -0.20916647   0.83854573    1.0204655   0.72531791   -1.2465374            1    1.5636865    2.0634512    2.0621925   0.56541585 -0.0079054658 -0.0018433366 -0.0090294131     1.309864    1.8078865    1.8102352   0.31147032 -0.0083562676 -0.0032377984 -0.0058339545    1.4284442    1.4451063   0.70549524  0.066666667    1.8871038          0.1  0.017637381    5.6697761    2.4878226    34.413227 -0.0084439685  -0.20517107 0.0043023851   0.19058342 -0.0084472872  -0.20512322 0.0043023851   0.19058342 
  223000    4.1882902     1.297217    2.8910733   -0.2091502   0.86490357    1.0310185   0.76152995   -1.2465374            1     1.329791    1.8800481    1.9001718   0.20915302  0.013318976 -0.082303837   0.02046224    1.0679901    1.6156212    1.6376498 -0.049300672 0.0087659631 -0.079672374  0.023039375    1.1877966    1.2099845   0.70406742  0.066666667    1.8886542          0.1  0.017601685    5.6812741    2.4859355    34.413227 -0.00090730522  -0.17189826 0.0052087517    0.1940487 -0.00090730522  -0.17189826 0.0052087517    0.1940487 
  224000    4.1869843      1.28624    2.9007443  -0.21307905   0.85758478    1.0169233   0.75843296   -1.2465374            1    1.4493035    1.9772471    2.0074614   0.36320198 -0.0076700639  0.048357654   0.01058145     1.189718    1.7152832    1.7471797   0.10669104 -0.004645853  0.048174641 0.0096739852    1.3078866    1.3311349   0.71349441  0.066666667    1.8896897          0.1   0.01783736    5.6062107    2.5192391    34.413227 -0.0077269818   -0.1987394 -0.0061267923   0.17387967 -0.0077269818   -0.1987394 -0.0061267923   0.17387967 
  225000    4.1939125    1.2906218    2.9032907  -0.20931958   0.86050628    1.0354505   0.75162945   -1.2465374            1     1.312757    1.8709777    1.8813643   0.18592887 -2.8620575e-05  0.055993141  0.037254371    1.0522872    1.6037715    1.6294711  -0.07638119  0.001058807    0.0530618  0.039122993    1.1726087    1.1924355   0.71434639  0.066666667    1.8727645          0.1   0.01785866    5.5995243    2.4990412    34.413227 0.0015733186  -0.18332866 -0.0041454943   0.20940743 0.0015733186  -0.18332866 -0.0041454943   0.20940743 
  226000    4.1580225    1.2927325      2.86529  -0.20865928   0.86191358    1.0343611   0.75459296   -1.2465374            1    1.3216286    1.8889606    1.9021636   0.17376153 0.0072272227   0.11093097 -0.0034750081    1.0607328    1.6271167    1.6384842 -0.083402506   0.00779982   0.11593396 0.0022577485    1.1809277    1.2014337   0.70975647  0.066666667    1.8874207          0.1  0.017743912    5.6357359    2.5013156    34.413227 -0.010395139  -0.15020272 -0.00054677591    0.1961584 -0.010395139  -0.15020272 -0.00054677591    0.1961584 
  227000    4.1691112      1.28328    2.8858313  -0.22299343   0.85561122    1.0263337   0.74936452   -1.2465374            1    1.3471176    1.8819616    1.9166972   0.24269414 0.0090430932   0.10774042  0.010212971    1.0881295     1.619415    1.6573283 -0.012354801 0.0051747338   0.10966626  0.013850212    1.2073916    1.2278555   0.70953662  0.066666667    1.8573445          0.1  0.017738415    5.6374821     2.492465    34.413227 -0.0061372864  -0.20299672  0.012399955   0.18523307 -0.0061372864  -0.20299672  0.012399955   0.18523307 
  228000     4.173544     1.270158    2.9033861  -0.21444893    0.8468623    1.0129296   0.74351524   -1.2465374            1    1.3948956    1.9258694    1.9586701   0.30014729  0.015327919  -0.12390523 -0.070041905    1.1385557    1.6708577     1.695354  0.049455432  0.014806549  -0.12394579 -0.073992579    1.2562602     1.277191   0.71169113  0.066666667    1.8412864          0.1  0.017792278    5.6204157    2.5204713    34.413227 0.0035493733  -0.17759239 -0.0062891404   0.18294022 0.0035493733  -0.17759239 -0.0062891404   0.18294022 
  229000    4.1447094    1.2824718    2.8622376  -0.22153431   0.85507239     1.028226   0.74731055   -1.2465374            1    1.3428476    1.8939705     1.914596   0.21997626 -0.0010342841 -0.082178838  0.042026232    1.0840226    1.6334254    1.6569764 -0.038334106 -0.0031376431 -0.084484667  0.039867272    1.2035046    1.2233656   0.70491483  0.066666667    1.8446146          0.1  0.017622871    5.6744444    2.4859422    34.413227 -0.0086154182  -0.19174884 -0.007234516   0.19161575 -0.0086154182  -0.19174884 -0.007234516   0.19161575 
  230000    4.1693783    1.2753664    2.8940118   -0.2142252   0.85033498    1.0369081    0.7342092   -1.2465374            1    1.4254399    1.9370768    1.9661989   0.37304379 0.0058924625  -0.12322775  0.036856933    1.1680488     1.683797     1.709408   0.11094148  0.006144337  -0.12236683  0.037792069    1.2885397     1.304949   0.70516305  0.066666667    1.8682081          0.1  0.017629076     5.672447    2.4747043    34.413227 0.0017174161  -0.15353271  -0.01124478   0.17970924 0.0017174161  -0.15353271  -0.01124478   0.17970924 
  231000    4.1909858    1.2965092    2.8944766  -0.22369673   0.86443166    1.0306822   0.76097343   -1.2465374            1    1.3761737    1.8689293    1.9533298   0.30626201  0.011155408 -0.027543815  0.019175591    1.1145157    1.6119148    1.6896135  0.042018687 0.0080844069  -0.02726548  0.021238704    1.2342831    1.2564062   0.70969675  0.066666667    1.8461948          0.1  0.017742419    5.6362101    2.5149257    34.413227 -0.0031032004  -0.17860285 -0.0030198874   0.19165398 -0.0031032004  -0.17860285 -0.0029997773   0.19162776 
  232000    4.1939067    1.2896663    2.9042403  -0.21268586   0.85986927    1.0316639   0.75295516   -1.2465374            1    1.3142933    1.8814205    1.8726909   0.18876847 0.0079723763 -0.036173695  0.016782779    1.0540163    1.6199523    1.6133619 -0.071265352   0.01057593 -0.036747206  0.017253281    1.1738978    1.1944118    0.7080891  0.066666667     1.825382          0.1  0.017702228    5.6490066    2.4936232    34.413227 -0.00021631937  -0.19911774 -0.012728069   0.22711916 -0.00021631937  -0.19911774 -0.012728069   0.22711916 
  233000    4.1862065    1.2883681    2.8978384  -0.21729431   0.85900369    1.0318565   0.75142995   -1.2465374            1    1.4736102    1.9583368    2.0130763   0.44941732 -0.0065863116 -0.096939102  0.028973728    1.2135952    1.7034286      1.75179   0.18556689 -0.0076573877 -0.093416417  0.031049305     1.333499    1.3537063   0.70506463  0.066666667    1.8671932          0.1  0.017626616    5.6732388    2.5013444    34.413227 -0.0094482898  -0.17244833   0.00620181   0.18560445 -0.0094482898  -0.17244833   0.00620181   0.18560445 
  234000    4.1826465    1.2936753    2.8889712  -0.20599932    0.8625422    1.0445942    0.7492361   -1.2465374            1    1.4490898    1.9386534    2.0092385   0.39937737 -0.0097545554 -0.097704078  -0.03643155    1.1880037    1.6812836    1.7436217   0.13910573 -0.007511837  -0.10146566 -0.033501837    1.3093877    1.3277057   0.71498527  0.066666667    1.8402115          0.1  0.017874632    5.5945209    2.5140738    34.413227 -0.0052987887  -0.22293759 -0.00030592547   0.19956425 -0.0052987887  -0.22293759 -0.00030592547   0.19956425 
  235000    4.2089606    1.3058219    2.9031386  -0.21434854   0.87064082    1.0251749   0.77448539   -1.2465374            1    1.4692251    1.9896679    2.0092242   0.40878323 0.00090168414 -0.086212551  -0.02161151    1.2056876    1.7254107    1.7440403   0.14761196 0.0049673699 -0.087797321 -0.025261311    1.3248151    1.3500976   0.71160797  0.066666667    1.8314147          0.1  0.017790199    5.6210725     2.503984    34.413227  -0.00964066  -0.19183951 0.0048833831   0.21244272  -0.00964066  -0.19183951 0.0048833831   0.21244272 
  236000    4.2062395     1.304046    2.9021934  -0.21731035   0.86945676    1.0470948   0.75890269   -1.2465374            1    1.3093446    1.8650524    1.8886164   0.17436503 0.0046465916 -0.038734039  0.065935248    1.0461655    1.5990747    1.6261263 -0.086704477 0.0013034471 -0.037709813  0.061447422    1.1678401      1.18767   0.70468503  0.066666667    1.8136594          0.1  0.017617126    5.6762949    2.4935334    34.413227 0.0029337242   -0.2012349 0.0048920102   0.17800445 0.0029337242   -0.2012349 0.0048920102   0.17800445 
  237000    4.1742781    1.2994824    2.8747957  -0.21165755   0.86641404    1.0406494   0.75797997   -1.2465374            1    1.4258259    1.9650753    1.9761001   0.33630244 0.0029699668   0.01792791 -0.003998808    1.1635679    1.7020768    1.7126256  0.076001276 0.0028496106  0.018528778 -0.0046056015    1.2844935    1.3049003   0.70791484  0.066666667    1.8334764          0.1  0.017697871    5.6503972    2.4944825    34.413227 -0.0039362549  -0.20225849 0.0032237232    0.1374135 -0.0039362549  -0.20225849 0.0032237232    0.1374135 
  238000    4.1776254    1.2913743    2.8862511  -0.21563166   0.86100803    1.0386982      0.75042   -1.2465374            1    1.3318097    1.8702438    1.9140962   0.21108925 -0.025134979 0.0060422144 0.0054937265     1.071188    1.6049457    1.6549146  -0.04629614 -0.024765664 0.0070772882 0.0098594569    1.1918869    1.2111108   0.71248586  0.066666667    1.8229957          0.1  0.017812146    5.6141465    2.4941313    34.413227 -0.016301948  -0.18360451 0.0044932168   0.21971004 -0.016313771  -0.18346201 0.0044932168   0.21971004 
  239000    4.1839383    1.2999673     2.883971  -0.21568872    0.8667373    1.0312007   0.76439324   -1.2465374            1    1.4823193    1.9667782    2.0224311    0.4577487 0.0053500772 -0.078322207 -0.0037084077    1.2199634     1.715594    1.7563864   0.18790982 0.0058550137 -0.081000952 -0.0011601715    1.3397911    1.3624917   0.71335561  0.066666667    1.7888951          0.1   0.01783389    5.6073015    2.5040884    34.413227 0.0011402828  -0.21835853  -0.00156143    0.2109249 0.0011402828  -0.21835853  -0.00156143    0.2109249 
  240000     4.166546    1.2903509    2.8761951  -0.21816741   0.86032566    1.0162876   0.76327863   -1.2465374            1    1.3356123    1.8823446    1.9073825   0.21710992  0.011801741 -0.059766647 -0.005886278    1.0751972    1.6162876    1.6519437 -0.042639734 0.0085771523 -0.057543783 -0.0053574212    1.1932919    1.2175176   0.70344389  0.066666667    1.7809649          0.1  0.017586097    5.6863099    2.4856196    34.413227 0.00067731545  -0.17325557 0.0033606583   0.20951279 0.00067731545  -0.17325557 0.0033606583   0.20951279 
  241000    4.1728373    1.2887997    2.8840376  -0.22653072   0.85929143    1.0043882    0.7690154   -1.2465374            1    1.4358104    1.9654431     1.976842   0.36514609 -0.011157298  -0.11291335  0.036530118    1.1757083    1.7010088     1.718771     0.107345 -0.0080278288  -0.11111001  0.033906611    1.2924203    1.3190984   0.70517219  0.066666667    1.7311056          0.1  0.017629305    5.6723735     2.475359    34.413227 -0.0026685669  -0.17435864 0.0084799239   0.20145464 -0.0026685669  -0.17435864 0.0084799239   0.20145464 
  242000    4.1903331    1.2858591    2.9044739   -0.2189166   0.85733087    1.0212626   0.75531653   -1.2465374            1    1.4089714    1.9278204    1.9517342   0.34735945   0.01333351 -0.075218583 0.0045497057    1.1494627    1.6705077    1.6948715  0.083009042  0.013107845 -0.078159472 0.0076530081    1.2681356    1.2902985   0.71717646  0.066666667    1.7327409          0.1  0.017929411    5.5774279    2.5043325    34.413227 -0.012559109  -0.22724509 0.0052430893   0.17611192 -0.012559109  -0.22724509 0.0052430893   0.17611192 
  243000    4.1492468    1.2881358     2.861111  -0.21204791   0.85884878     1.034366   0.74961455   -1.2465374            1    1.3816166    1.9232137    1.9360022   0.28563389 -0.0003030033  0.036420432 -0.075899096    1.1216485    1.6623161    1.6834329  0.019196411 0.0057542178   0.03702759 -0.068672838     1.241844    1.2614211   0.70786911  0.066666667    1.7465391          0.1  0.017696728    5.6507622      2.47957    34.413227 0.0073303931  -0.21435722  0.017509959   0.19216525 0.0073303931  -0.21435722  0.017509959   0.19216525 
  244000    4.1468283    1.2780209    2.8688074  -0.21247045   0.85210479    1.0139858   0.75136753   -1.2465374            1    1.4751156    2.0045838    2.0000854   0.42067754 0.0085458476 -0.0014865781  0.018511179    1.2171888    1.7497614    1.7417977   0.16000744 0.0083956003  0.007297839 0.0090605855    1.3350161    1.3572883   0.69708837  0.066666667    1.7552608          0.1  0.017427209    5.7381534    2.4943678    34.413227 -0.0038328171  -0.17779223 0.0030445349   0.23688741 -0.0038328171  -0.17779223 0.0030445349   0.23688741 
  245000    4.1665124    1.2653891    2.9011233   -0.2168961   0.84368269    1.0037363   0.74408281   -1.2465374            1    1.4484888    1.9646216    1.9822614   0.39858327 -0.012384788  0.086845909 -0.047476014    1.1931113    1.7020893    1.7343485    0.1428962 -0.0096475429  0.089595462 -0.046603227    1.3097476    1.3318525   0.70574242  0.066666667    1.7505439          0.1  0.017643561    5.6677902    2.4926045    34.413227 0.0019477288  -0.19486509 -0.00044214756    0.1996284 0.0019477288  -0.19486509 -0.00044214756    0.1996284 
  246000    4.1781595    1.2841771    2.8939824   -0.2107887   0.85620938      1.02393   0.75183358   -1.2465374            1    1.4591715      1.98578    1.9932732   0.39846134 0.0019349105  -0.03008911 -0.011397597    1.2000024    1.7333345    1.7312176   0.13545492 0.0012963185 -0.027368641 -0.007905234    1.3189852    1.3401887   0.71149586  0.066666667    1.7563027          0.1  0.017787397    5.6219582    2.4854554    34.413227 -0.020068319   -0.2161145 -0.0017756087   0.21059734 -0.020068319   -0.2161145 -0.0017756087   0.21059734 
  247000    4.1666957    1.2742266    2.8924691   -0.2130473   0.84957498     1.012499   0.74818731   -1.2465374            1    1.4237311    1.9664435    1.9608987    0.3438511 0.0055869445 -0.042015159  0.024702638    1.1665701    1.7039599    1.7073816  0.088368783 0.0055267385 -0.043310322  0.024399383    1.2842246    1.3060766   0.70802461  0.066666667    1.7895782          0.1  0.017700615    5.6495212    2.4916348    34.413227 -0.008251677  -0.18945655  0.005967169   0.17840162 -0.008251677  -0.18945655  0.005967169   0.17840162 
  248000    4.1694341    1.2790298    2.8904043  -0.21401134    0.8527775    1.0072802   0.75663856   -1.2465374            1    1.3800959    1.8994061    1.9507511   0.29013042  0.014840715   -0.1538543 0.0072199476    1.1219655    1.6422117    1.6853768  0.038308052  0.015069225  -0.15172755 0.0061634889    1.2390136    1.2630478   0.70447509  0.066666667    1.8034505          0.1  0.017611877    5.6779864     2.474848    34.413227 -0.00074962313  -0.18073029 -0.0046527295   0.19709335 -0.00074962313  -0.18073029 -0.0046527295   0.19709335 
  249000    4.1545361    1.2879701     2.866566  -0.22376046   0.85873835    1.0192691   0.75884373   -1.2465374            1    1.4295119     1.957596    1.9874995   0.34344033 0.0085132542  -0.14068317 0.0030812083    1.1695773    1.6925123    1.7302883  0.085931178 0.0053925581  -0.13892192  -0.00252816    1.2880185    1.3110707   0.70701731  0.066666667    1.8090841          0.1  0.017675433    5.6575701    2.4864543    34.413227 -0.015536833  -0.18807864   0.00526395   0.18684243 -0.015536833  -0.18807864   0.00526395   0.18684243 
  250000    4.1741234    1.2862013    2.8879221  -0.22399189   0.85755902    1.0210569   0.75581509   -1.2465374            1    1.4158647    1.9192417      1.98856   0.33979227  0.010533475  -0.14961392 -0.0034320514    1.1562869    1.6609902    1.7255934  0.082277216  0.010600628  -0.14900142 -0.0020297256    1.2749359    1.2972157   0.70775106  0.066666667    1.8211359          0.1  0.017693777    5.6517047     2.494648    34.413227 -0.00076280425  -0.17717065 -0.0031749808   0.18389067 -0.00076280425  -0.17717065 -0.0031749808   0.18389067 
  251000    4.1554599    1.2701516    2.8853083  -0.21705069   0.84685805     1.001199   0.75081887   -1.2465374            1    1.3587167    1.9029921    1.9207778   0.25238015 -0.0005452557 -0.043393279  0.022008025    1.1023781    1.6476736    1.6602735 -0.00081285442 0.0015663893  -0.03716864  0.023593155    1.2187195    1.2423752   0.71242801  0.066666667    1.8196475          0.1    0.0178107    5.6146024     2.504238    34.413227 -0.0058147478  -0.21711561 -0.0058969178   0.18041891 -0.0058147478  -0.21711561 -0.0058969178   0.18041891 
  252000    4.1356841    1.2516073    2.8840768  -0.21449106   0.83449389   0.99300047   0.73585654   -1.2465374            1    1.4669815    1.9717227    2.0041778   0.42504407 -0.017168295  0.017617861  0.025360646    1.2143855    1.7235158    1.7495572   0.17008348 -0.021818705  0.016508651  0.025619991    1.3297742    1.3515928   0.71176846  0.066666667    1.7965521          0.1  0.017794212     5.619805    2.4858366    34.413227 0.0035765931   -0.2113308 -0.0058428772   0.19811484 0.0035765931   -0.2113308 -0.0058428772   0.19811484 
  253000     4.193003     1.293292    2.8997109  -0.21740342   0.86228665    1.0207789   0.76366301   -1.2465374            1    1.3151053    1.8572325    1.8947814   0.19330192 -0.0019690292   0.14304139  0.038507582    1.0540965    1.5944493    1.6342988 -0.066458562  -0.00377473   0.14091375  0.041928179    1.1727132    1.1964886   0.71806921  0.066666667    1.8199885          0.1   0.01795173    5.5704937     2.484444    34.413227 -0.00012199373  -0.17041172  0.014562657    0.1791796 -0.00012199373  -0.17041172  0.014562657    0.1791796 
  254000    4.1486151    1.2834314    2.8651837  -0.22192302   0.85571218    1.0232671   0.75143957   -1.2465374            1    1.4805497    1.9800594    2.0281865   0.43340338   0.00757189 -0.026590409 -0.044546685    1.2215311    1.7186204    1.7684878   0.17748497  0.007352718 -0.024002423 -0.041841929    1.3404368     1.361644   0.71403028  0.066666667    1.8586022          0.1  0.017850757    5.6020033    2.4924022    34.413227 0.0056328414  -0.20556224 -0.0033000799   0.22201995 0.0056328414  -0.20556224 -0.0033000799   0.22201995 
  255000    4.1622815    1.2862995     2.875982  -0.21962291   0.85762449    1.0148674   0.75977869   -1.2465374            1    1.4694138    1.9926963    2.0077295   0.40781566 0.0045123133  -0.03283658 -0.023608552    1.2098163    1.7291567    1.7482264   0.15206578 0.0026112545 -0.029472951 -0.029942605     1.327746    1.3514841   0.71354651  0.066666667    1.8427176          0.1  0.017838663    5.6058013    2.5074815    34.413227 -0.0025305458  -0.19321888  0.011518451   0.16424838 -0.0025305458  -0.19321888  0.011518451   0.16424838 
  256000    4.1588815    1.2684898    2.8903916  -0.21170013   0.84575008     1.009418    0.7438981   -1.2465374            1    1.3909608    1.9246927    1.9453572   0.30283248 0.0017924157 -0.039852176 -0.027657906    1.1349576    1.6691482    1.6889779  0.046746681 0.0017104573  -0.04474502 -0.031685219    1.2522541    1.2736643   0.72172931  0.066666667    1.8590102          0.1  0.018043233    5.5422441    2.4903701    34.413227 -0.017174016  -0.20667463 -0.006829737   0.22893951 -0.017174016  -0.20667463 -0.0069067492   0.22881861 
  257000    4.1725626    1.2877641    2.8847985  -0.21634509   0.85860098     1.001621   0.76961908   -1.2465374            1    1.3960992    1.9428512    1.9451928   0.30025361  0.013188128 -0.046186515 -0.0056931278    1.1362061    1.6823176    1.6887098  0.037590864   0.01314316 -0.044999145 -0.0045168294    1.2525966    1.2797087   0.72152732  0.066666667    1.8222307          0.1  0.018038183    5.5437956    2.4877494    34.413227 -0.011258047  -0.22548535  0.018609512   0.20672216 -0.011258047  -0.22548535  0.018609512   0.20672216 
  258000    4.1509875    1.2721149    2.8788726  -0.22021056   0.84816707     1.003405   0.75156915   -1.2465374            1    1.4624046    1.9782652    2.0052646     0.403684   0.01434968  -0.10157302 -0.0074417453    1.2056698    1.7253989    1.7437665   0.14784391   0.01357585  -0.10376903 -0.0039857705    1.3222675    1.3458068   0.70500831  0.066666667    1.8104924          0.1  0.017625208     5.673692    2.4834155    34.413227  -0.01845347  -0.21129959 0.0083762667   0.17585837  -0.01845347  -0.21129959 0.0083762667   0.17585837 
  259000    4.1629829    1.2936102    2.8693727  -0.22103427   0.86249882      1.01639   0.76674263   -1.2465374            1    1.2672558    1.8360043    1.8354605   0.13030267 -0.013759019  0.031104965 -0.012115262    1.0061829    1.5713661    1.5778373  -0.13065474 -0.013377105  0.032725155 -0.011024979    1.1242895    1.1491492    0.7039998  0.066666667    1.7909152          0.1  0.017599995    5.6818198    2.4754579    34.413227 -0.0083731456  -0.20343508    0.0153121   0.20870237 -0.0083505461  -0.20322203    0.0153121   0.20870237 
  260000    4.1606817    1.2833917      2.87729  -0.22510775   0.85568575    1.0145391   0.75683597   -1.2465374            1    1.4678471         1.95    2.0315121   0.42202911 0.0056867208  0.036014437 -0.0025792151    1.2088364    1.6952379    1.7677476   0.16352378 0.0055103418  0.028851224 -0.0015297193     1.326728    1.3499555   0.71522794  0.066666667    1.8055234          0.1  0.017880699    5.5926227    2.4707753    34.413227 -0.020304084  -0.17586821 0.0047855498   0.18427468 -0.020286713  -0.17566871 0.0047855498   0.18427468 
  261000    4.1709801     1.282304    2.8886761  -0.22126351   0.85496049    1.0196669   0.75246295   -1.2465374            1    1.4044475    1.9185042    1.9783083   0.31652995 0.0070392542   0.09114039 -0.011854503    1.1456563    1.6569423    1.7169892  0.063037545 0.0048891423  0.094453076 -0.013060583    1.2641438    1.2859601   0.71707831  0.066666667    1.8185713          0.1  0.017926958    5.5781913    2.5114631    34.413227 -0.018729343  -0.20343435  0.016755252   0.19216183 -0.018729343  -0.20343435  0.016755252   0.19216183 
  262000    4.1715801    1.2872122    2.8843679  -0.21760864   0.85823298    1.0117918   0.76268323   -1.2465374            1    1.4231473    1.9544741    1.9689101   0.34605767 -0.005986014  0.039910022  0.025154123    1.1633656    1.6914923    1.7109833  0.087621173 -0.0019298685  0.040060049  0.029520883    1.2809379     1.305575   0.69948158  0.066666667      1.80276          0.1   0.01748704    5.7185208    2.4977698    34.413227  0.014139725  -0.23402214 -0.0043766825   0.18106616  0.014139725  -0.23402214 -0.0043766825   0.18106616 
  263000    4.1821823    1.2877584    2.8944239  -0.21323831   0.85859715    1.0083508   0.76541881   -1.2465374            1    1.5606665    2.0411152    2.0738096    0.5670748  0.021638657 -0.036129233 -0.035184422    1.3007746     1.778596    1.8115284   0.31219942  0.024373791 -0.043101371 -0.031426389    1.4179471    1.4434941   0.70775492  0.066666667     1.826868          0.1  0.017693873    5.6516739    2.4904726    34.413227 -0.018056612  -0.19420625  0.010119742   0.18310017 -0.018056612  -0.19420625  0.010119742   0.18310017 
  264000    4.1418033    1.2746354    2.8671679  -0.22089826   0.84984758       1.0208   0.74345662   -1.2465374            1    1.3134366    1.8579248    1.9199216    0.1624633 0.0098828876 -0.006748686   0.04501145    1.0561931    1.6038164    1.6578212 -0.093058376 0.0060141364 -0.0070790578  0.042319069    1.1748122    1.1948175   0.72370409  0.066666667     1.830604          0.1  0.018092602    5.5271209    2.4884987    34.413227 0.0018903753  -0.15471646 0.0034707088    0.1885179 0.0018903753  -0.15471646 0.0034707088    0.1885179 
  265000    4.1457897    1.2692465    2.8765431  -0.21615656   0.84625462    1.0150963   0.74117843   -1.2465374            1    1.4035345    1.9431929    1.9513549   0.31605572 0.0013229729 -0.012305773 -0.0044649766    1.1473786    1.6857133    1.6981087  0.058313697 -0.0012874879  -0.01178215 -0.0081439543    1.2653349    1.2855782   0.71137201  0.066666667    1.8306924          0.1    0.0177843     5.622937    2.4806697    34.413227 -0.0034565347  -0.20167608  0.012016152   0.18930266 -0.0034565347  -0.20167608  0.012016152   0.18930266 
  266000    4.1490496    1.2756183    2.8734313  -0.21931734   0.85050289     1.009832   0.75135569   -1.2465374            1    1.3638122    1.9082324    1.9091114   0.27409273 -0.015637479 -0.051610335   0.02336971    1.1063703    1.6443626    1.6554561  0.019292269 -0.014668836 -0.056403528  0.029834422    1.2237149    1.2464676   0.70861375  0.066666667     1.818165          0.1  0.017715344    5.6448241    2.4819705    34.413227 -0.012006161  -0.17794421 0.0064802416   0.20745535 -0.012006161  -0.17794421 0.0064802416   0.20745535 
  267000    4.1256987    1.2646192    2.8610795  -0.22254853   0.84316939    1.0270097   0.72874548   -1.2465374            1    1.4240678    1.9782057    1.9617536   0.33224413 0.0095727239  -0.11781206 0.0085437583    1.1688458    1.7254545    1.7098833  0.071199493 0.0081294196  -0.11848917 0.0097374728    1.2881864    1.3047272   0.71472156  0.066666667    1.7896044          0.1  0.017868039     5.596585    2.4741848    34.413227 -0.011187402  -0.16553538  0.010588608   0.17542587 -0.011187402  -0.16553538  0.010588608   0.17542587 
  268000    4.1617028     1.288692    2.8730107  -0.21429654   0.85921966    1.0202719   0.75900014   -1.2465374            1    1.5387787     2.031243    2.0484695   0.53662362 -0.0034632784 -0.074375296  0.015708145    1.2786983    1.7690091    1.7900488   0.27703703 -0.006020712 -0.075899804  0.017884899     1.397256     1.420221   0.71959901  0.066666667    1.7748389          0.1  0.017989975    5.5586514    2.4953639    34.413227  0.016576027   -0.1754112 0.00039694287   0.20935864  0.016576027   -0.1754112 0.00039694287   0.20935864 
  269000    4.1731434     1.296559    2.8765845  -0.21726095   0.86446484    1.0275935   0.76295219   -1.2465374            1    1.3561574    1.8926898    1.9333351   0.24244738 0.0015033679 -0.026748964 -0.037529737    1.0944894    1.6358103       1.6674 -0.019742134 -0.0029968563 -0.027614159 -0.037141424    1.2138979    1.2367489   0.70923628  0.066666667    1.8142385          0.1  0.017730907    5.6398694     2.480036    34.413227 -0.0054390431  -0.15697486  0.013952345   0.20576067 -0.0054390431  -0.15697486  0.013952345   0.20576067 
  270000    4.1925604     1.289418    2.9031425  -0.21713332   0.85970366    1.0253411   0.75662669   -1.2465374            1    1.4273892    1.9555886     1.955433   0.37114591 0.0026970363 -0.046364754  0.029201111    1.1671623    1.6998313    1.6961671   0.10548852 0.0052927952 -0.043294443  0.028780836    1.2863091    1.3082424   0.70542122  0.066666667    1.8126463          0.1  0.017635531     5.670371    2.4897831    34.413227 -0.00089166501  -0.17526799 -0.010096521   0.19998204 -0.00098563093  -0.17515272 -0.010096521   0.19998204 
  271000    4.1914347    1.2837935    2.9076412   -0.2152308   0.85595365     1.028065   0.74884148   -1.2465374            1    1.3791807     1.914724    1.9302251   0.29259286 -0.019970772 -0.0044870207  0.059047957    1.1200889    1.6519369    1.6716546  0.036675201 -0.016904029 -0.0073057489  0.061522116    1.2395522    1.2597174   0.70711546  0.066666667    1.8309801          0.1  0.017677886    5.6567849    2.5067888    34.413227 -0.014268483  -0.18447484 0.0025784344   0.19590934 -0.014268483  -0.18447484 0.0025784344   0.19590934 
  272000    4.1935892    1.2929185    2.9006708  -0.21361548    0.8620376     1.043039    0.7493862   -1.2465374            1     1.527596    2.0246579    2.0449779   0.51315215 -0.0042567325 -0.0067464696 -0.046514952    1.2666626    1.7677821    1.7806361   0.25156974 -0.0017553062 -0.012205259 -0.044047822    1.3878659    1.4063927    0.7045192  0.066666667    1.8079548          0.1   0.01761298    5.6776309    2.4759128    34.413227 0.0076191567  -0.16350063  0.012345999   0.21958212 0.0076191567  -0.16350063  0.012345999   0.21958212 
  273000    4.1725258      1.28943    2.8830957  -0.21261812   0.85971173    1.0261401   0.75614186   -1.2465374            1    1.4063096    1.9592848    1.9567948   0.30284933 0.0022314772 -0.057525501 -0.015085219    1.1460803    1.6976214    1.6972883  0.043331263 0.0062714761 -0.059279479 -0.015274292      1.26532      1.28707   0.71222341  0.066666667    1.7827348          0.1  0.017805585    5.6162153    2.5077359    34.413227 0.0049020023  -0.19249272 0.0050176398   0.17419862 0.0049020023  -0.19249272 0.0050176398   0.17419862 
  274000    4.1976913    1.2866308    2.9110605  -0.21193467   0.85784535    1.0201822   0.75682503   -1.2465374            1    1.3486323    1.8924863    1.8899337   0.26347685 -0.0024552699  0.031988625  0.030920345    1.0889679    1.6369326    1.6317328 -0.0017617615 0.00049697849   0.03108487  0.029297229    1.2075152     1.230085   0.71175361  0.066666667    1.7668632          0.1   0.01779384    5.6199223    2.5077876    34.413227 -0.010338049  -0.18958674 0.0065010604   0.21928497 -0.010338049  -0.18958674 0.0065010604   0.21928497 
  275000    4.2033499    1.2852569    2.9180931  -0.21190904   0.85692932    1.0239518    0.7529887   -1.2465374            1    1.2680261    1.8192221    1.8641245   0.12073169  0.014393668 -0.060700255  0.046832228     1.008639    1.5566485    1.6056431  -0.13637463  0.019767827 -0.059594351  0.042390079    1.1276243    1.1490407   0.70760343  0.066666667    1.7922779          0.1  0.017690086    5.6528839    2.5018985    34.413227 -0.0064549223  -0.19322639  0.016761276    0.1979027 -0.0064549223  -0.19322639  0.016761276    0.1979027 
  276000    4.1832842    1.2931891    2.8900951  -0.22552854   0.86221804    1.0457157   0.74801094   -1.2465374            1    1.4428519    1.9565953    1.9787139   0.39324644 0.0055618245 -0.099670525 -0.044173127    1.1818639    1.6991972    1.7133766     0.133018 0.0014117785  -0.10078373  -0.03942628    1.3033783    1.3213375   0.70670759  0.066666667     1.797775          0.1   0.01766769    5.6600496    2.5085136    34.413227 0.0011990431  -0.21242793 -0.0069603036   0.18954456 0.0011990431  -0.21242793 -0.0069603036   0.18954456 
  277000    4.1917713    1.2940748    2.8976965  -0.21072904   0.86280857    1.0235434   0.76278748   -1.2465374            1     1.434346    1.9681402    1.9741699    0.3607279 0.0018790382  -0.12614792 -0.032622536    1.1731793    1.7083212    1.7098387    0.1013781 -0.0010192253  -0.12622581  -0.03116062    1.2921172    1.3154081   0.71399221  0.066666667    1.7810456          0.1  0.017849805    5.6023021    2.5069988    34.413227 -0.0014943564  -0.18100648 0.0069534412   0.19782643 -0.0014943564  -0.18100648 0.0069534412   0.19782643 
  278000    4.1473408    1.2766119    2.8707289  -0.22262042   0.85116535    1.0293775   0.74025028   -1.2465374            1    1.4170879    1.9446046    1.9909842   0.31567475 0.0061665331  0.086331894 -0.017054684    1.1594455    1.6837252    1.7319298  0.062681388 0.0085499363  0.085610424 -0.017291488    1.2790613     1.297472   0.71574642  0.066666667    1.7756285          0.1   0.01789366    5.5885715    2.5232082    34.413227 0.00079815524   -0.1826782 0.0095863895   0.16679398 0.00079815524   -0.1826782 0.0095863895   0.16679398 
  279000    4.1488877    1.2688553    2.8800323  -0.21250851   0.84599378     1.013794   0.74156662   -1.2465374            1    1.3795431    1.9101906    1.9291683   0.29927051 -0.0071915796 -0.057306373 -0.013381921    1.1234661    1.6492049    1.6785011  0.042692314 -0.0045322769 -0.056916974 -0.010148367    1.2412711    1.2617381   0.70120073  0.066666667     1.758749          0.1  0.017530018    5.7045006     2.490466    34.413227 -0.0067404205  -0.19132224 0.0018153445   0.18591271 -0.0067404205  -0.19132224 0.0018153445   0.18591271 
  280000    4.1698134    1.2722416    2.8975718  -0.21393627   0.84825156     1.008454   0.74855974   -1.2465374            1    1.4184713    1.9616724    1.9559339   0.33780767 -0.0052466461 -0.080975693 -0.064454815    1.1617109    1.7036761    1.7003954  0.081061226 -0.0085013293 -0.083056785 -0.064879009    1.2788954    1.3012869   0.71424454  0.066666667    1.7629247          0.1  0.017856113    5.6003229    2.5161736    34.413227 -0.008848726  -0.16115394 -0.0098527827   0.20864529 -0.008848726  -0.16115394 -0.0098527827   0.20864529 
  281000    4.1637137    1.2721196    2.8915942  -0.21665614   0.84817018    1.0043064   0.75101242   -1.2465374            1    1.3927047    1.9278559    1.9344429    0.3158152   0.01431023 -0.0030850047 -0.047898954    1.1359689    1.6666552    1.6768253  0.064426147  0.012764084 -0.00064685465 -0.047547628    1.2526714    1.2760022   0.71768588  0.066666667    1.7964181          0.1  0.017942147     5.573469    2.4835366    34.413227 -0.00090031331  -0.21160554 -7.1217722e-05   0.22494327 -0.00090031331  -0.21160554 -7.1217722e-05   0.22494327 
  282000    4.1786643    1.2903403    2.8883239   -0.2141725   0.86031865     1.023425   0.75881917   -1.2465374            1    1.5218864    2.0477142    2.0266752   0.49126988 -0.0015776439  0.047448123  0.012563791    1.2614734     1.779625    1.7695725   0.23522267 -0.0016509015  0.045436835  0.012948384    1.3803975    1.4029623   0.70996117  0.066666667    1.8025213          0.1  0.017749029     5.634111    2.4791935    34.413227 -0.0024873538  -0.18783221 -0.0016512846   0.19897896 -0.0024873538  -0.18783221 -0.0016512846   0.19897896 
  283000    4.1471553     1.277995    2.8691603  -0.21595951   0.85208755    1.0340682   0.73882414   -1.2465374            1    1.3284079    1.8989853      1.89562   0.19061826  0.007643698   0.05810281  0.032058018    1.0704863    1.6369726    1.6372603  -0.06277397 0.0036599676  0.066635659  0.031956061    1.1906472     1.208247   0.70185025  0.066666667    1.7828429          0.1  0.017546256    5.6992214    2.4841973    34.413227 -0.013580365  -0.22184641 0.0055683868   0.19683689 -0.013580365  -0.22184641 0.0055683868   0.19683689 
  284000    4.1562374    1.2762528    2.8799846  -0.21968296   0.85092593    1.0241647    0.7431103   -1.2465374            1    1.4090483    1.9571819    1.9544418   0.31552105 -0.010440066  0.060748702  0.046165653    1.1514784    1.6970057    1.6975481  0.059881348 -0.0097677821  0.059521907   0.04586542    1.2704884    1.2900382   0.71100277  0.066666667    1.7784486          0.1  0.017775069    5.6258572    2.5003561    34.413227  -0.01303167  -0.18495344 -0.00092432664   0.17632278  -0.01303167  -0.18495344 -0.00092432664   0.17632278 
  285000    4.1438328    1.2608642    2.8829686   -0.2241931   0.84066582    1.0140498   0.73275788   -1.2465374            1    1.4463068    1.9468217    1.9826423   0.40945621 -0.015654859  0.048339925  0.055086772    1.1918425    1.6900565    1.7285174   0.15695361 -0.010052365  0.044852091   0.05451462    1.3096772    1.3284721   0.71307813  0.066666667    1.7700195          0.1  0.017826953    5.6094835    2.4959719    34.413227 -0.0074734854  -0.20772763 -0.0040827434   0.19889646 -0.0074734854  -0.20772763 -0.0040827434   0.19889646 
  286000    4.1790618     1.281536    2.8975258   -0.2108053   0.85444847    1.0324972   0.74363581   -1.2465374            1    1.4260231    1.9505326    1.9651238   0.36241296 -0.0074125541 0.0052370665  0.029744503     1.167387     1.688252    1.7092578   0.10465108 -0.0083395315 0.0098491506  0.032240029    1.2873653    1.3060448   0.70706787  0.066666667    1.7768309          0.1  0.017676697    5.6571656    2.4786558    34.413227 -0.0065452209  -0.20946123 -0.0064856572   0.17824589 -0.0065452209  -0.20946123 -0.0064856572   0.17824589 
  287000    4.1608702    1.2751439    2.8857264  -0.20836393   0.85018658    1.0244902   0.74170719   -1.2465374            1    1.4658814    2.0000978    1.9862833   0.41126297 0.0092021378  -0.05901351  0.068091603    1.2085353    1.7415548    1.7325991   0.15145189  0.010377844  -0.06858114  0.065657256    1.3275832    1.3468335   0.71695567  0.066666667    1.7750285          0.1  0.017923892    5.5791455    2.5017891    34.413227 0.00085569412  -0.19060593 -0.0083105694   0.21437124 0.00085569412  -0.19060593 -0.0083105694   0.21437124 
  288000    4.1886464     1.297245    2.8914014  -0.21861549   0.86492223    1.0299404   0.76223211   -1.2465374            1    1.2970961    1.8717135    1.8681704   0.15140425  0.016519119  0.017179882   0.07138315    1.0352896    1.6086581     1.605438  -0.10822747  0.016917817  0.021844208   0.06916155    1.1549708    1.1774148   0.72282486  0.066666667    1.7708431          0.1  0.018070621     5.533844    2.5084808    34.413227  0.009913286  -0.20715359 0.0043125675   0.23463821  0.009913286  -0.20715359 0.0043125675   0.23463821 
  289000    4.1582702    1.2689814    2.8892888  -0.21330537   0.84607785     1.005603   0.74680772   -1.2465374            1    1.4273736    1.9617102    1.9789539   0.34145683 0.00037146899  0.078519906 -0.067971432    1.1712712    1.7050589    1.7209887   0.08776592 0.0084473044  0.085361122 -0.071246236    1.2881244    1.3105204    0.7089934  0.066666667     1.771028          0.1  0.017724835    5.6418015    2.4803792    34.413227 -0.013960178   -0.1818774   0.00684824   0.18187319 -0.013960178   -0.1818774   0.00684824   0.18187319 
  290000    4.1837927    1.2809186     2.902874   -0.2119282   0.85403685    1.0106201    0.7566015   -1.2465374            1    1.2958325    1.8522182    1.8596962    0.1755831 -0.0075182877  0.024206468 -0.0083233453    1.0373209     1.590566    1.6025201 -0.081123398 -0.0064419322  0.025833841 -0.0086628266    1.1547571    1.1783963   0.71269903  0.066666667    1.7823917          0.1  0.017817476    5.6124673    2.5134363    34.413227 -0.0039639469  -0.18329778 -0.0039367106   0.24108238 -0.0039639469  -0.18329778 -0.0039367106   0.24108238 
  291000    4.1531225    1.2766265     2.876496  -0.21386941   0.85117513    1.0080725   0.75354351   -1.2465374            1    1.4230381    1.9672407    1.9653192   0.33655439 -0.0038655883 -0.019727632  0.080935959    1.1653928    1.7077652       1.7043  0.084113102 -0.0034732907 -0.022242912  0.076732487    1.2825329     1.305898   0.71314354  0.066666667    1.7752865          0.1  0.017828589     5.608969    2.4970679    34.413227 0.00082568996  -0.18595911 0.0023791806   0.17545031 0.00082568996  -0.18595911 0.0023791806   0.17545031 
  292000    4.1353817     1.264904    2.8704777  -0.21780239   0.84335926    1.0093887   0.74003516   -1.2465374            1    1.3070201    1.8805579    1.8692187   0.17128388  0.004864343 0.00089786382 -0.0054718029    1.0517406    1.6241779    1.6159602 -0.084916285 0.0031605179 0.0012378674 -0.0092704465    1.1690337    1.1897271   0.72049649  0.066666667    1.7654382          0.1  0.018012412    5.5517273    2.4975819    34.413227 -0.0014622398  -0.19468057   0.01467015    0.2189599 -0.0014622398  -0.19468057   0.01467015    0.2189599 
  293000    4.1719253     1.276554    2.8953713  -0.21866619   0.85112679    1.0004325   0.75822632   -1.2465374            1    1.3910252    1.9328873    1.9715477   0.26864055 -0.0040645922  0.033332463  0.042932411    1.1333945    1.6731811    1.7078133  0.019188933 -0.0022272358  0.032870898  0.046570941    1.2496468    1.2747728   0.71408908  0.066666667    1.7659417          0.1  0.017852227    5.6015421     2.495137    34.413227  0.003102008  -0.17363282  0.012867168   0.17994115  0.003102008  -0.17363282  0.012867168   0.17994115 
  294000    4.1660919    1.2876029     2.878489  -0.20610449    0.8584935    1.0128542   0.76244402   -1.2465374            1    1.4723054    2.0049766     2.001378   0.41056163 -0.0047058443  0.017665345 -0.033219106    1.2124448    1.7482772    1.7381818    0.1508755 -0.0015721233  0.018930052 -0.032457317    1.3301406    1.3546096   0.70639607  0.066666667    1.7871997          0.1  0.017659902    5.6625457    2.4702802    34.413227 0.0073375703  -0.18493609 -0.010358857   0.17376606 0.0073375703  -0.18493609 -0.010358857   0.17376606 
  295000    4.1392754    1.2623693    2.8769061  -0.22369584   0.84166929    1.0031112   0.74120386   -1.2465374            1    1.3438937    1.8780265    1.9240132    0.2296413 1.2088623e-05 0.0012876414  0.043733426    1.0891257    1.6254052     1.668489 -0.026517227 0.0040672485 0.0058662964  0.042212848    1.2056893      1.22733   0.70894269  0.066666667    1.7804964          0.1  0.017723567     5.642205    2.4824354    34.413227 -0.0043624342   -0.1993398  0.016123443   0.21632778 -0.0043624342   -0.1993398  0.016123443   0.21632778 
  296000    4.1586444    1.2686324    2.8900121  -0.22411433   0.84584512   0.99266469   0.75449312   -1.2465374            1    1.3151478    1.8661602    1.8812483    0.1980349 -0.0025146504 -0.055056836  -0.01761002    1.0591158    1.6089145    1.6273177 -0.058884788 -0.005044196 -0.056208628 -0.015952897    1.1744655    1.1997981   0.71138825  0.066666667    1.7965764          0.1  0.017784706    5.6228087    2.4917537    34.413227 -0.0064706109  -0.17439599  0.005311086   0.20908576 -0.0064706109  -0.17439599  0.005311086   0.20908576 
  297000    4.1607657    1.2911726    2.8695931  -0.22103635   0.86087353    1.0058382   0.77068015   -1.2465374            1    1.4341857    1.9625695    1.9686328   0.37135488 -0.0050088198 -0.060437316 -0.017596005    1.1736047    1.6974677    1.7148469   0.10849964 -0.0085273586 -0.059203604 -0.019966005    1.2904852    1.3173052   0.71729252  0.066666667    1.8329637          0.1  0.017932313    5.5765255    2.5056227    34.413227 -0.0073685238  -0.21619407 -0.0030593727   0.19142837 -0.0073685238  -0.21619407 -0.003037226   0.19139143 
  298000    4.1721155    1.2974439    2.8746716   -0.2252332   0.86505484    1.0177884   0.77002057   -1.2465374            1    1.3659117    1.9008111    1.9354171   0.26150687 -0.00064141827 -0.042899962 0.00024050974     1.104065     1.639826    1.6713377 0.0010313272 -0.0021556193 -0.042404737 -0.0023897409    1.2223342    1.2476425   0.71674694  0.066666667    1.8353783          0.1  0.017918673    5.5807703    2.5120947    34.413227 -0.0081888084  -0.17393817 0.0026381331   0.18409598 -0.0081888084  -0.17393817 0.0026381331   0.18409598 
  299000    4.1462727    1.2799441    2.8663286  -0.21849043   0.85338709    1.0198297   0.74980725   -1.2465374            1    1.3409558    1.8883347    1.9126128      0.22192 -0.010681645 -0.00051627336 -0.032986934     1.082641    1.6284409     1.653235 -0.033753069 -0.011872732 -0.00033045939 -0.030497211    1.2011473    1.2224495   0.71257685  0.066666667    1.8030505          0.1  0.017814421    5.6134296    2.4741104    34.413227 -0.015894239  -0.18929634 0.00024531366   0.23612017 -0.015894239  -0.18929634 0.00024531366   0.23612017 
  300000    4.1693674    1.2730313    2.8963361  -0.22253158   0.84877805     1.014293   0.74577553   -1.2465374            1    1.4964255    1.9857439    2.0129331   0.49059971 0.0023032616  -0.10771751  0.028285313    1.2395058    1.7313329    1.7589388   0.22824566 0.0027566336   -0.1098658  0.029796722    1.3573687    1.3785626   0.70708756  0.066666667    1.7875687          0.1  0.017677189    5.6570081    2.4879113    34.413227 -0.0017104934  -0.21750731 -0.0059069388   0.21477334 -0.0017104934  -0.21750731 -0.0059069388   0.21477334 
Loop time of 310.705 on 1 procs for 200000 steps with 9376 atoms

Performance: 278077.113 tau/day, 643.697 timesteps/s
99.4% CPU use with 1 MPI tasks x 1 OpenMP threads

MPI task timing breakdown:
Section |  min time  |  avg time  |  max time  |%varavg| %total
---------------------------------------------------------------
Pair    | 30.22      | 30.22      | 30.22      |   0.0 |  9.73
Bond    | 64.973     | 64.973     | 64.973     |   0.0 | 20.91
Neigh   | 94.747     | 94.747     | 94.747     |   0.0 | 30.49
Comm    | 5.1478     | 5.1478     | 5.1478     |   0.0 |  1.66
Output  | 0.43695    | 0.43695    | 0.43695    |   0.0 |  0.14
Modify  | 109.97     | 109.97     | 109.97     |   0.0 | 35.39
Other   |            | 5.212      |            |       |  1.68

Nlocal:    9376 ave 9376 max 9376 min
Histogram: 1 0 0 0 0 0 0 0 0 0
Nghost:    1796 ave 1796 max 1796 min
Histogram: 1 0 0 0 0 0 0 0 0 0
Neighs:    13188 ave 13188 max 13188 min
Histogram: 1 0 0 0 0 0 0 0 0 0

Total # of neighbors = 13188
Ave neighs/atom = 1.40657
Ave special neighs/atom = 6.92833
Neighbor list builds = 28031
Dangerous builds = 0

#--- Write Restart File ---#

write_restart  ecs.rst
WARNING: compute stress/mop/profile does not account for bond potentials (src/USER-MISC/compute_stress_mop_profile.cpp:193)
WARNING: compute stress/mop/profile does not account for bond potentials (src/USER-MISC/compute_stress_mop_profile.cpp:193)
WARNING: compute stress/mop/profile does not account for bond potentials (src/USER-MISC/compute_stress_mop_profile.cpp:193)
shell          python post.py
shell          mkdir $(v_Vwalli)_V
shell          mkdir 