next          Wall_vi
jump          main.in sim

include        ecs.in
# This is an input script that creates a mono disperse polymer brush bilayer
# A coarse grained bead-spring model is used for the polymers which are end
# grafted to the surfaces of 2 opposing FCC walls at random sites.

clear
OMP_NUM_THREADS environment is not set. Defaulting to 1 thread. (src/comm.cpp:88)
  using 1 OpenMP thread(s) per MPI task


#--- Read in the Restart file ---#

read_restart    MDPBB.rst
  restoring atom style bond from restart
  orthogonal box = (0 0 0) to (30 30 70.1)
  1 by 1 by 1 MPI processor grid
  restoring pair style lj/cut from restart
  restoring bond style hybrid from restart
  9376 atoms
  32480 bonds
  12 = max # of 1-2 neighbors
  12 = max # of special neighbors
  special bonds CPU = 0.004485 secs
  read_restart CPU = 0.0125098 secs
reset_timestep  0

#--- Redefine the bond coeffs ---#

bond_coeff    1 fene 30.0 1.5 0.0 0.0      # Values obtained from literature [Grest, Galushcko]
bond_coeff    2 fene 30.0 1.5 0.0 0.0       # This is the grafting bond between the polymer and the wall atom
bond_coeff    3 harmonic 800.0 $(1.5874 * sqrt(2)/2)
bond_coeff    3 harmonic 800.0 1.1224613044555256103

neigh_modify   every 1 delay 0 check yes

#--- Define variables ---#

# for dimensional values: eps = 4.14e-21 J at T = 300K and sigma = 0.5nm

#--- Moved to main.in ---#
#variable       Temp       equal ${Tstr} #[Grest96]
#variable       Tstep     equal 0.005                       # Timestep in Tau (default = 0.005)
#variable       Nequil    equal 10000                       # Number of timesteps to equilibrate
#variable       Ncomp     equal 200000                      # Number of timesteps to compress - until no more occilation of walls
#variable       Nshear    equal 1000000                     # Number of timesteps to shear - use approx 4ns for 10m/s
#variable       Nthermo   equal 1000                        # Number of timesteps between thermo data prints
#variable       Ndump_e   equal 10000
#variable       Ndump_c   equal 10000                       # Number of timesteps per dump file (compression)
#variable       Ndump_s   equal 10000                       # Number of timesteps per dump file (shear)
#variable       Wall_v    equal 0.0002                      # Wall velocity (A/fs) - equal to 10 m/s
#variable       Pcomp     equal 1
variable        Pcomp2    equal ${Pcomp}
variable        Pcomp2    equal 1
variable        Wall_v2   equal ${Wall_v}
variable        Wall_v2   equal 1e-08

# For Equilibration - density profiles (10 for entire run)
variable       Nfreqe   equal ${Nequil}/10                  # Calculate bin averages every this many timesteps
variable       Nfreqe   equal 300000/10                  
variable       Neverye  equal 100                           # Use input values every this many timesteps
variable       Nrepeate equal ${Nfreqe}/${Neverye}          #s Number of times to use input values
variable       Nrepeate equal 30000/${Neverye}          
variable       Nrepeate equal 30000/100          


# For compression - density profiles (10 for entire run)
variable       Nfreqc   equal ${Ncomp}/10                  # Calculate bin averages every this many timesteps
variable       Nfreqc   equal 700000/10                  
variable       Neveryc  equal 100                          # Use input values every this many timesteps
variable       Nrepeatc equal ${Nfreqc}/${Neveryc}         # Number of times to use input values
variable       Nrepeatc equal 70000/${Neveryc}         
variable       Nrepeatc equal 70000/100         

# For Shear - density profiles (10 for entire run)
variable       Nfreqs   equal ${Nshear}/10                  # Calculate bin averages every this many timesteps
variable       Nfreqs   equal 1000000/10                  
variable       Neverys  equal 100                          # Use input values every this many timesteps
variable       Nrepeats equal ${Nfreqs}/${Neverys}         # Number of times to use input values
variable       Nrepeats equal 100000/${Neverys}         
variable       Nrepeats equal 100000/100         


variable       binres   equal  0.001                       # Giving 1000 data points across the sim. box


variable       bwzmin  equal bound(bwall,zmin)
variable       bwzmax  equal bound(bwall,zmax)
variable       twzmin  equal bound(twall,zmin)
variable       twzmax  equal bound(twall,zmax)
variable       c       equal count(gbeads)
variable       surfcov equal $(v_M/(lx*ly))
variable       surfcov equal 0.066666666666666665741
variable       D       equal v_twzmin-v_bwzmax
variable       Dout    equal v_twzmax-v_bwzmin
variable       srate   equal (v_Wall_v/v_D)


#--- Define regions and groups ---#

print        "bwzmin = ${bwzmin}"
bwzmin = 0
print        "bwzmax = ${bwzmax}"
bwzmax = 2.3811015779523
print        "twzmin = ${twzmin}"
twzmin = 67.6188984220477
print        "twzmax = ${twzmax}"
twzmax = 70

region         bwallb  block  INF INF INF INF ${bwzmin} $(v_bwzmin + 0.4) units box
region         bwallb  block  INF INF INF INF 0 $(v_bwzmin + 0.4) units box
region         bwallb  block  INF INF INF INF 0 0.4000000000000000222 units box
region         bwallm  block  INF INF INF INF $(v_bwzmin + 0.35) $(v_bwzmax - 0.35) units box
region         bwallm  block  INF INF INF INF 0.3499999999999999778 $(v_bwzmax - 0.35) units box
region         bwallm  block  INF INF INF INF 0.3499999999999999778 2.0311015779522998415 units box
region         bwallt  block  INF INF INF INF $(v_bwzmax - 0.7) $(v_bwzmax) units box
region         bwallt  block  INF INF INF INF 1.6811015779522999747 $(v_bwzmax) units box
region         bwallt  block  INF INF INF INF 1.6811015779522999747 2.3811015779522999303 units box
region         bmelt   block  INF INF INF INF $(v_bwzmax) $(v_twzmax / 2) units box
region         bmelt   block  INF INF INF INF 2.3811015779522999303 $(v_twzmax / 2) units box
region         bmelt   block  INF INF INF INF 2.3811015779522999303 35 units box
region         tmelt   block  INF INF INF INF $(v_twzmax / 2)  $(v_twzmin - 0.1) units box
region         tmelt   block  INF INF INF INF 35  $(v_twzmin - 0.1) units box
region         tmelt   block  INF INF INF INF 35  67.518898422047712415 units box
region         twallb  block  INF INF INF INF $(v_twzmin - 0.1) $(v_twzmin + 0.35) units box
region         twallb  block  INF INF INF INF 67.518898422047712415 $(v_twzmin + 0.35) units box
region         twallb  block  INF INF INF INF 67.518898422047712415 67.968898422047701047 units box
region         twallm  block  INF INF INF INF $(v_twzmin + 0.35) $(v_twzmax - 0.35) units box
region         twallm  block  INF INF INF INF 67.968898422047701047 $(v_twzmax - 0.35) units box
region         twallm  block  INF INF INF INF 67.968898422047701047 69.650000000000005684 units box
region         twallt  block  INF INF INF INF $(v_twzmax - 0.35) $(v_twzmax) units box
region         twallt  block  INF INF INF INF 69.650000000000005684 $(v_twzmax) units box
region         twallt  block  INF INF INF INF 69.650000000000005684 70 units box

group          bwsurf  region bwallt
722 atoms in group bwsurf
group          bwbulk  region bwallm
1444 atoms in group bwbulk
group          bwout   region bwallb
722 atoms in group bwout
group          bbeads  region bmelt
1800 atoms in group bbeads
group          tbeads  region tmelt
1800 atoms in group tbeads
group          abeads  union  bbeads tbeads
3600 atoms in group abeads
group          twsurf  region twallb
722 atoms in group twsurf
group          twbulk  region twallm
1444 atoms in group twbulk
group          twout   region twallt
722 atoms in group twout
group          rest4bot union abeads twall
6488 atoms in group rest4bot
group          rest4top union abeads bwall
6488 atoms in group rest4top
group          walls    union bwall twall
5776 atoms in group walls
group          alltop   union twall tbeads
4688 atoms in group alltop
# Other groups are: gbeads fbeads bwall twall

info system
info coeffs

#--- Exclude wall-wall interactions ---#

#neigh_modify exclude type 1 1
#neigh_modify exclude type 1 4
#neigh_modify exclude type 4 4


############
# Computes #
############

#compute         sysTemp   all    temp/deform                       # Calculate the temperature without translational velocities
#compute         sysPress  all    pressure sysTemp                  # Calculate the pressure of the entire system of atoms
compute         melTemp   abeads temp
compute         melPress  all    pressure melTemp
compute         wallTemp  walls  temp
compute         wallPress all    pressure wallTemp
variable        melDens   equal  $(mass(abeads))/(lx*ly*v_D)
variable        melDens   equal  3600/(lx*ly*v_D)

#--- Forces and Energies ---#

compute         fbwall  bwall group/group rest4bot
compute         ftwall  twall group/group rest4top
compute         fwalls  bwall group/group twall

#--- Like done in comp_shear.in ---#
group           rest_bot union abeads bwall
6488 atoms in group rest_bot
group           rest_bot2 subtract all bwsurf
8654 atoms in group rest_bot2
compute         ggbot bwsurf group/group rest_bot
compute         ggbot2 bwsurf group/group rest_bot

group           rest_top union abeads twall
6488 atoms in group rest_top
group           rest_top2 subtract all twsurf
8654 atoms in group rest_top2
compute         ggtop twsurf group/group rest_top
compute         ggtop2 twsurf group/group rest_top2


#--- Calculate the applied force on each atom for the pressure applied---#
variable Fcomp equal (${Pcomp}*lx*ly)
variable Fcomp equal (1*lx*ly)
variable Fcatom equal (-${Fcomp})/(count(twout))
variable Fcatom equal (-900)/(count(twout))


#compute	        peratom   all   stress/atom NULL
#compute	        p_all     all   reduce sum c_peratom[1] c_peratom[2] c_peratom[3]
#variable	      press_all equal -(c_p_all[1]+c_p_all[2]+c_p_all[3])/(3*v_volume)



info groups variables                              # For diagnostics


#################
# Equilibration #
#################

#--- Number Density profiles (Equil) ---#
compute         eabeads abeads chunk/atom bin/1d z lower ${binres} units reduced # Check bound keyword to maybe only bin melt area
compute         eabeads abeads chunk/atom bin/1d z lower 0.001 units reduced 
fix             abeads_edz abeads ave/chunk ${Neverye} ${Nrepeate} ${Nfreqe} eabeads density/number file abeads_edz
fix             abeads_edz abeads ave/chunk 100 ${Nrepeate} ${Nfreqe} eabeads density/number file abeads_edz
fix             abeads_edz abeads ave/chunk 100 300 ${Nfreqe} eabeads density/number file abeads_edz
fix             abeads_edz abeads ave/chunk 100 300 30000 eabeads density/number file abeads_edz
compute         ebbeads bbeads chunk/atom bin/1d z lower ${binres} units reduced # Check bound keyword to maybe only bin melt area
compute         ebbeads bbeads chunk/atom bin/1d z lower 0.001 units reduced 
fix             bbeads_edz bbeads  ave/chunk ${Neverye} ${Nrepeate} ${Nfreqe} ebbeads density/number file bbeads_edz
fix             bbeads_edz bbeads  ave/chunk 100 ${Nrepeate} ${Nfreqe} ebbeads density/number file bbeads_edz
fix             bbeads_edz bbeads  ave/chunk 100 300 ${Nfreqe} ebbeads density/number file bbeads_edz
fix             bbeads_edz bbeads  ave/chunk 100 300 30000 ebbeads density/number file bbeads_edz
compute         etbeads tbeads chunk/atom bin/1d z lower ${binres} units reduced # Check bound keyword to maybe only bin melt area
compute         etbeads tbeads chunk/atom bin/1d z lower 0.001 units reduced 
fix             tbeads_edz tbeads  ave/chunk ${Neverye} ${Nrepeate} ${Nfreqe} etbeads density/number file tbeads_edz
fix             tbeads_edz tbeads  ave/chunk 100 ${Nrepeate} ${Nfreqe} etbeads density/number file tbeads_edz
fix             tbeads_edz tbeads  ave/chunk 100 300 ${Nfreqe} etbeads density/number file tbeads_edz
fix             tbeads_edz tbeads  ave/chunk 100 300 30000 etbeads density/number file tbeads_edz

#--- Radius of gyration of the bottom brush chains ---#
compute         chunk_bot bbeads chunk/atom molecule
compute         rgbbeads bbeads gyration/chunk chunk_bot
variable        aveRg    equal  (ave(c_rgbbeads))


#--- Fixes (Equil) ---#

#velocity       abeads create ${Temp} 290842 dist gaussian
#fix             nvt_melt    abeads nvt temp ${Temp} ${Temp} 100.0

# NVE for all and langevin thermostat for melt
fix             nve_melt abeads nve
fix             lang_melt abeads langevin ${Temp} ${Temp} 0.1 798753
fix             lang_melt abeads langevin 1 ${Temp} 0.1 798753
fix             lang_melt abeads langevin 1 1 0.1 798753
fix             nve_walls  walls nve

#--- Langevin thermostat the bulk of the walls in y ---#
# Only thermostat the bulk of the wall not the surface or the outer layer
compute         Tempyt     twbulk temp/partial 0 1 0
fix             lang_tbulk twbulk langevin ${Temp} ${Temp} 0.1 87239 zero yes
fix             lang_tbulk twbulk langevin 1 ${Temp} 0.1 87239 zero yes
fix             lang_tbulk twbulk langevin 1 1 0.1 87239 zero yes
fix_modify      lang_tbulk temp Tempyt
compute         Tempyb     bwbulk temp/partial 0 1 0
fix             lang_bbulk bwbulk langevin ${Temp} ${Temp} 0.1 87239 zero yes
fix             lang_bbulk bwbulk langevin 1 ${Temp} 0.1 87239 zero yes
fix             lang_bbulk bwbulk langevin 1 1 0.1 87239 zero yes
fix_modify      lang_bbulk temp Tempyb

#--- Freeze the outer layer of the walls ---#
fix             freeze_bout bwout setforce 0.0 0.0 0.0
fix             freeze_tout twout setforce 0.0 0.0 0.0

variable        sbot equal  f_freeze_bout[1]/(lx*ly)
variable        pbot equal -f_freeze_bout[3]/(lx*ly)
#--- Thermo output ---#

thermo_style  custom step etotal ke pe epair temp c_melTemp c_wallTemp v_Fcatom v_Pcomp2 press pxx pyy pzz pxy pxz pyz c_melPress c_wallPress v_melDens v_surfcov v_aveRg v_Wall_v2 v_srate v_D v_bwzmax zhi c_fbwall[1] c_fbwall[3] c_ftwall[1] c_ftwall[3] v_sbot v_pbot #c_ggbot[1] c_ggbot[3] c_ggtop[1] c_ggtop[3]
thermo        ${Nthermo}
thermo        1000
thermo_modify flush yes

#--- Dumps ---#
#dump           eq all image ${Ndump_e} stg1.*.jpg type type zoom 2 view 60 120 bond none none
dump            eqxyz all xyz ${Nequil} eq.xyz
dump            eqxyz all xyz 300000 eq.xyz

#--- Run Equilibration ---#
timestep    ${Tstep}
timestep    0.005
run         ${Nequil}
run         300000
Neighbor list info ...
  update every 1 steps, delay 0 steps, check yes
  max neighbors/atom: 2000, page size: 100000
  master list distance cutoff = 1.42246
  ghost atom cutoff = 1.42246
  binsize = 0.711231, bins = 43 43 99
  8 neighbor lists, perpetual/occasional/extra = 1 7 0
  (1) pair lj/cut, perpetual
      attributes: half, newton on
      pair build: half/bin/newton
      stencil: half/bin/3d/newton
      bin: standard
  (2) compute group/group, occasional, copy from (1)
      attributes: half, newton on
      pair build: copy
      stencil: none
      bin: none
  (3) compute group/group, occasional, copy from (1)
      attributes: half, newton on
      pair build: copy
      stencil: none
      bin: none
  (4) compute group/group, occasional, copy from (1)
      attributes: half, newton on
      pair build: copy
      stencil: none
      bin: none
  (5) compute group/group, occasional, copy from (1)
      attributes: half, newton on
      pair build: copy
      stencil: none
      bin: none
  (6) compute group/group, occasional, copy from (1)
      attributes: half, newton on
      pair build: copy
      stencil: none
      bin: none
  (7) compute group/group, occasional, copy from (1)
      attributes: half, newton on
      pair build: copy
      stencil: none
      bin: none
  (8) compute group/group, occasional, copy from (1)
      attributes: half, newton on
      pair build: copy
      stencil: none
      bin: none
WARNING: Inconsistent image flags (src/domain.cpp:784)
Per MPI rank memory allocation (min/avg/max) = 10.57 | 10.57 | 10.57 Mbytes
Step TotEng KinEng PotEng E_pair Temp c_melTemp c_wallTemp v_Fcatom v_Pcomp2 Press Pxx Pyy Pzz Pxy Pxz Pyz c_melPress c_wallPress v_melDens v_surfcov v_aveRg v_Wall_v2 v_srate v_D v_bwzmax Zhi c_fbwall[1] c_fbwall[3] c_ftwall[1] c_ftwall[3] v_sbot v_pbot 
WARNING: One or more chunks do not contain all atoms in molecule (src/compute_chunk_atom.cpp:1161)
       0    6.4300024            0    6.4300024 -0.049435231            0            0            0   -1.2465374            1   0.29830313    1.0821911    1.0821763    -1.269458 -3.8745736e-05 2.4516568e-07 -6.1318788e-08   0.29830313   0.29830313  0.061314149  0.066666667    3.8737558        1e-08 1.5328537e-10    65.237797    2.3811016         70.1            0            0            0            0 1.2631871e-16    11.320685 
    1000    7.4364366    1.3878341    6.0486025 -0.025027263   0.92532142    1.0208496   0.86594813   -1.2465374            1  -0.37847396   0.57159471   0.57954885   -2.2865654 -0.0022449495  0.017663606 -0.0043227838   -0.4577393  -0.43670883  0.061579322  0.066666667    3.4916569        1e-08 1.5394831e-10    64.956869    2.5164224         70.1 -0.00014794257 -0.00042488725 6.4559612e-05 0.00011253318  -0.38795478    -12.95777 
    2000    6.8316282    1.3802416    5.4513867 -0.033265435    0.9202592    1.0232825   0.85621405   -1.2465374            1  0.027471065   0.77136577   0.80777258   -1.4967252 -0.0016021981  0.012745861 -0.032332763  -0.05090326  -0.03090259  0.061530421  0.066666667    3.2453515        1e-08 1.5382605e-10    65.008494    2.4908828         70.1 -6.9682503e-05 -6.8085226e-05            0            0  -0.46975376   -2.6276564 
    3000    6.3491142    1.3765413    4.9725729 -0.038817777   0.91779208   0.99233043   0.87149845   -1.2465374            1  0.080258673   0.75542793      0.79229   -1.3069419 -0.0012675994  0.028568671  0.013307311 0.00048527704  0.023650697  0.061542758  0.066666667    3.0469354        1e-08 1.5385689e-10    64.995462    2.5012705         70.1 -0.00031523325 -0.00047656715 -4.0728154e-05 3.8682022e-05 0.0010177279   -2.1885988 
    4000    5.9749248    1.4013504    4.5735744 -0.049216748   0.93433326    1.0007211   0.89312191   -1.2465374            1   0.27346823   0.87213069   0.87492436  -0.92665037 -0.0010171457  0.030280785 -0.0083696868   0.19171551    0.2163816  0.061523207  0.066666667    2.8938657        1e-08 1.5380802e-10    65.016116    2.4911793         70.1 -0.00017041821 -0.00014497843 0.0033599586 0.0035079288  -0.62027872    4.9006011 
    5000    5.6728841    1.3926513    4.2802328 -0.055302441   0.92853323    1.0416333   0.85820963   -1.2465374            1  0.092800673   0.69223511   0.72105213   -1.1348852 0.0014037665  0.024646125  -0.01679076  0.014243681  0.033380187  0.061563234  0.066666667    2.7571975        1e-08 1.5390808e-10    64.973845    2.5105777         70.1 -0.00089152974 -0.0018158027 0.0022466374 0.0033048661   -0.6103932   -3.4851382 
    6000     5.370935    1.3606016    4.0103333 -0.063620919   0.90716451    1.0090491   0.84382674   -1.2465374            1   0.20925505   0.75026288   0.76496217  -0.88745989 -0.0022218973 -0.0014738705 -0.0062908522   0.13201461   0.15169335  0.061506469  0.066666667    2.6495375        1e-08 1.5376617e-10     65.03381    2.4885225         70.1 -0.00011356508 -0.0027322157 -0.0022461861  0.010633256     0.498084   -2.4530186 
    7000    5.1652671    1.3726364    3.7926306 -0.070460107   0.91518856    1.0136202   0.85400413   -1.2465374            1   0.33738795    0.8277589   0.82995183  -0.64554688 0.0049068724 0.0070481505 -0.0012865996   0.25921591   0.27956549   0.06151117  0.066666667    2.5362143        1e-08 1.5377792e-10     65.02884    2.4855341         70.1 -0.004691016 -0.0092065261 -0.00047715791 0.0069174854   0.76482171    2.4544893 
    8000    4.9739119    1.3492211    3.6246907 -0.086396077   0.89957671   0.99533123   0.84005793   -1.2465374            1   0.36487431   0.80880033   0.83788726  -0.55206466 -0.0016421993 0.0058671076 -0.028853792   0.28797885   0.30809515  0.061582947  0.066666667    2.4583128        1e-08 1.5395737e-10    64.953046    2.5238542         70.1 -0.00049664682 -0.015072227 -0.00084305179 0.0071170429   0.26975413    2.8413171 
    9000    4.7540911    1.3219045    3.4321866  -0.10500997   0.88136368   0.97976489   0.82019231   -1.2465374            1   0.39787681   0.82343928   0.83260983  -0.46241868 -0.0010155133  0.037610287 -0.0029506772   0.32279977   0.34198564  0.061519274  0.066666667    2.3940699        1e-08 1.5379819e-10    65.020273    2.4842382         70.1 0.0011016187 -0.013614947 -0.0018394114  0.021160103   0.77544902    1.6755213 
   10000    4.6409771    1.3426442    3.2983329  -0.12089348    0.8951916    1.0187712   0.81833137   -1.2465374            1   0.35268659   0.77537734   0.78621311  -0.50353069 0.0018693502  0.017564464 -0.013221169   0.27777989   0.29457028  0.061514175  0.066666667    2.3488742        1e-08 1.5378544e-10    65.025663    2.4937372         70.1 -9.6466098e-05 -0.027784977  0.002406985  0.030466549     1.187121   -2.1205234 
   11000    4.5858851    1.3530833    3.2328018   -0.1201835   0.90215175    1.0160415   0.83133149   -1.2465374            1   0.50946558   0.86835431    0.8870597  -0.22701726 0.0037948799 -0.023545814 -0.009976068   0.43336891     0.451505  0.061573565  0.066666667    2.2832315        1e-08 1.5393391e-10    64.962943    2.5197326         70.1 0.0069173139 -0.035183648 0.0027993174   0.06266589 -0.064790169    1.3227531 
   12000    4.4711749    1.3547724    3.1164026  -0.14104877   0.90327791    1.0114312   0.83603281   -1.2465374            1   0.45408536   0.82481572   0.82676143  -0.28932106 -0.0035091962  -0.01626994  0.013041596   0.37755835   0.39638777  0.061520351  0.066666667    2.2360576        1e-08 1.5380088e-10    65.019135    2.4851263         70.1 -0.0037177319 -0.049970071 -0.0063466723  0.064305528    -1.078778   -1.5787855 
   13000    4.4447349      1.30722    3.1375149  -0.14243133   0.87157297    1.0007529   0.79121853   -1.2465374            1   0.45311306   0.79640349   0.82099247  -0.25805678 0.0062967594 -0.024968943 0.0079605089   0.38068816   0.39602462  0.061509535  0.066666667    2.1923206        1e-08 1.5377384e-10    65.030568     2.487066         70.1  0.002187209 -0.050039987 -0.0032646112  0.080487706   0.66505604    -1.818925 
   14000    4.4152303    1.3192361    3.0959942  -0.14469055   0.87958452   0.99596162   0.80721022   -1.2465374            1   0.49480591   0.83753414   0.83223351  -0.18534991 -0.0035959644 0.0080910349 -0.0060675048    0.4209172   0.43799079  0.061524034  0.066666667    2.1660567        1e-08 1.5381008e-10    65.015243    2.4906031         70.1 -0.0010837439  -0.06133073 0.0043727548   0.10892838  -0.27596687   -2.0325184 
   15000    4.3711431    1.3092076    3.0619355  -0.14380953   0.87289815    1.0127215   0.78591093   -1.2465374            1   0.54677393   0.85624531   0.87146015 -0.087383688 0.00081854437 0.0091913754  0.015075522   0.47483486   0.48900273  0.061541796  0.066666667    2.1268834        1e-08 1.5385449e-10    64.996478    2.4871431         70.1 0.0016905114 -0.071314541 -0.0042936664  0.068663083  -0.33200018   0.34765769 
   16000    4.3694549    1.3191252    3.0503297  -0.14508455   0.87951061      1.01627     0.794434   -1.2465374            1   0.53739871   0.85197199   0.86677179  -0.10654766 -0.00079886886  0.017322436 -0.034596284   0.46467948   0.47942509  0.061505141  0.066666667    2.1106581        1e-08 1.5376285e-10    65.035214    2.4862313         70.1 -0.005078999 -0.094660578 0.0098389038  0.078615259   0.39693051    1.3686851 
   17000    4.3484083    1.2926586    3.0557497  -0.14456094    0.8618643   0.99562657   0.77865243   -1.2465374            1   0.56572279   0.87306455   0.88016961  -0.05606579 0.00042924857  0.034167708  0.011316208   0.49444814   0.50892679  0.061536589  0.066666667    2.0844632        1e-08 1.5384147e-10    65.001978     2.487404         70.1 -0.0020347432 -0.079474732  0.018678705  0.088055263    -1.790558    1.9616582 
   18000    4.3287978    1.2921708    3.0366271  -0.14669663   0.86153906   0.99966017   0.77561069   -1.2465374            1   0.54617154   0.85638769   0.86193412 -0.079807203 0.0049540183  0.018909108 -0.018829294   0.47517531   0.48914543  0.061530191  0.066666667    2.0646263        1e-08 1.5382548e-10    65.008737    2.4954817         70.1 -0.0031179731 -0.081186333 -0.0078441236  0.070116987    -1.770882  -0.55521668 
   19000    4.3343593    1.2874162    3.0469431  -0.14524608   0.85836901   0.98962687   0.77671729   -1.2465374            1   0.56591314   0.87427515   0.87110132 -0.047637062 0.00010841228 0.0063197648 -0.0089968714   0.49481562   0.50945939  0.061540188  0.066666667    2.0491589        1e-08 1.5385047e-10    64.998177     2.515738         70.1 -0.0050965619 -0.099311645 -0.0040790766  0.072837529   -1.1466994   -1.7396805 
   20000    4.3461372    1.3006654    3.0454717  -0.14080634   0.86720277    1.0029535   0.78275263   -1.2465374            1   0.53483265   0.85149745   0.83852906 -0.085528575 0.0017031725  0.031774849  0.027662629   0.46318268   0.47761867  0.061530687  0.066666667    2.0223093        1e-08 1.5382672e-10    65.008213    2.4899142         70.1 -0.0075504779 -0.072824396 0.0044388703  0.087645266  -0.71282444   0.60495628 
   21000    4.3224315    1.3006309    3.0218007  -0.14614131   0.86717974    1.0070139   0.78018476   -1.2465374            1   0.54880771   0.85007569   0.86199801 -0.065650566 -0.0010157488 -0.0019725103  0.015231181    0.4773928   0.49136211  0.061502731  0.066666667    2.0062315        1e-08 1.5375683e-10    65.037762    2.4779843         70.1 -0.0033826221 -0.081875113 0.0012633028  0.099342801    2.0386008  -0.33093605 
   22000    4.3278538    1.2934058     3.034448  -0.15056401   0.86236253    1.0045865    0.7738774   -1.2465374            1   0.56131772   0.85762018   0.87340215 -0.047069173 0.0027214864  0.011334585 -0.020057944   0.49048016   0.50401059   0.06152625  0.066666667    2.0030812        1e-08 1.5381562e-10    65.012901    2.4971097         70.1 0.00093353188  -0.06414461 0.0023408177  0.085002301    1.0659905    1.8652112 
   23000    4.2925882    1.2875582      3.00503  -0.13962147   0.85846368   0.99087604   0.77609249   -1.2465374            1   0.56769683   0.86478742   0.87444189 -0.036138804 0.0016370896  -0.01035531 0.0017786692   0.49665651   0.51117182  0.061530835  0.066666667    2.0026592        1e-08 1.5382709e-10    65.008056    2.5107077         70.1 -0.0065624446 -0.086695126  -0.01012469  0.095581907    1.5908426   -3.7751799 
   24000    4.2613425     1.268278    2.9930646  -0.14617088   0.84560882   0.98743085   0.75737127   -1.2465374            1   0.53814952   0.84157819   0.84434875 -0.071478386 0.0030091542 0.0010931082 0.0019290967   0.46882285   0.48182104  0.061524616  0.066666667    1.9788969        1e-08 1.5381154e-10    65.014627    2.4898479         70.1 -0.012103342  -0.10073223 -0.0014805992  0.087499766    1.8625768  -0.85971981 
   25000    4.3088744    1.2787296    3.0301448  -0.14217478   0.85257734    1.0068426   0.75658635   -1.2465374            1   0.50844677   0.82145466   0.82083903  -0.11695337 0.0018646909 -0.024359441 0.0013108207   0.43919196   0.45101095    0.0615399  0.066666667    1.9626677        1e-08 1.5384975e-10    64.998481    2.5027475         70.1 0.0051601772  -0.10739882 0.0042033022   0.11924568   0.57150143   -2.5481617 
   26000    4.3315996    1.2999553    3.0316443  -0.14354435   0.86672932    1.0094746   0.77792006   -1.2465374            1    0.5479039   0.84366764   0.85547026 -0.055426202 0.0013391539 -0.030227144 0.0051900259   0.47669629   0.49031793  0.061511657  0.066666667    1.9599096        1e-08 1.5377914e-10    65.028324    2.4968093         70.1 0.0039523274 -0.085124785 -0.0041940167  0.083769926      1.05469  -0.58221215 
   27000    4.2845241    1.2672686    3.0172555  -0.15144057   0.84493587   0.99675177   0.75046998   -1.2465374            1   0.56286301   0.85819302   0.87636837  -0.04597237 0.0013245536 -0.016534709 -0.024190392   0.49416806   0.50600281  0.061513264  0.066666667    1.9492613        1e-08 1.5378316e-10    65.026626     2.488469         70.1  0.001697611 -0.080802521  0.008468008   0.12062916   0.76741737    1.2265898 
   28000    4.3032827    1.2791874    3.0240953  -0.14080775   0.85288253    0.9979913   0.76259794   -1.2465374            1   0.57415628    0.8653721   0.87713867 -0.020041919 -0.0029806624 -0.019534062 -0.012262505    0.5043512   0.51722538  0.061516378  0.066666667    1.9395594        1e-08 1.5379095e-10    65.023334    2.4903222         70.1 0.0030098954  -0.11362274 0.0064811413  0.093408579   0.73443285    1.2868486 
   29000    4.2703744    1.2686211    3.0017534  -0.14725018   0.84583758   0.98987991   0.75621638   -1.2465374            1   0.59938387   0.89437908   0.89221827  0.011554246 -0.00086947991 -0.024998768 -0.0043685717   0.53016292   0.54291568  0.061551883  0.066666667    1.9383382        1e-08 1.5387971e-10    64.985827    2.5057001         70.1 -0.0069815568 -0.085131646 0.0010126419  0.084610285   0.63292636    1.8126557 
   30000    4.2901925    1.2714497    3.0187428  -0.14379035   0.84772355    1.0140234   0.74423172   -1.2465374            1   0.53935365   0.84422577   0.84680105 -0.072965863 0.0036061154  0.023400851 -0.025598575   0.47122973   0.48150819  0.061528307  0.066666667    1.9377495        1e-08 1.5382077e-10    65.010727    2.5006936         70.1 -0.002905907  -0.07721878 -0.00060735242  0.097148513  -0.20537062    -2.597473 
   31000    4.2613692    1.2628116    2.9985576  -0.13922695   0.84196421   0.98639125   0.75210257   -1.2465374            1    0.6027136   0.89139059   0.89201106  0.024739152 0.0044943315   0.01337123 0.0069539399   0.53386921   0.54644443  0.061536255  0.066666667    1.9326086        1e-08 1.5384064e-10     65.00233    2.4898332         70.1 -0.0022605956  -0.10754099 0.0071366001  0.090093188   0.22633016   0.92806997 
   32000    4.2846349    1.2689446    3.0156903   -0.1500693   0.84605332   0.98251494   0.76115647   -1.2465374            1   0.48678616   0.80588173   0.80769099  -0.15321422 0.0026915995  0.050883474 0.0014889459   0.41711302   0.43073812  0.061531416  0.066666667    1.9278723        1e-08 1.5382854e-10    65.007443    2.4969673         70.1 -0.0027147458 -0.099640075 -9.6754931e-05  0.087828271  0.071769549    -5.215074 
   33000    4.2785985     1.254358    3.0242405  -0.14660701   0.83632784   0.97849575   0.74787312   -1.2465374            1   0.54488478   0.83902228   0.84866416 -0.053032081 0.0015873993 0.0040926994  0.011803466   0.47642754   0.48906601  0.061549689  0.066666667    1.9307664        1e-08 1.5387422e-10    64.988143    2.4986633         70.1 0.0050790737 -0.088282006 -0.00086559734   0.10782164    1.4952573   -3.0384441 
   34000    4.3060945    1.2652994    3.0407951    -0.149021   0.84362292   0.99136932   0.75169294   -1.2465374            1   0.55978463   0.86128931   0.84505208 -0.026987502 0.0022855473 0.0036367895 -0.032659779   0.49097774   0.50323148  0.061556006  0.066666667    1.9226745        1e-08 1.5389001e-10    64.981474    2.5007894         70.1 0.0074438931 -0.081666322 0.0012536377  0.080700985 -0.025338874   -1.7728086 
   35000    4.2694564    1.2542946    3.0151618  -0.14682164   0.83628556   0.99542816   0.73725216   -1.2465374            1    0.5546585   0.84505888   0.85379619 -0.034879561   0.00166274 -0.021250285  0.025542553   0.48717346   0.49787382  0.061501301  0.066666667     1.917708        1e-08 1.5375325e-10    65.039274     2.470468         70.1 -0.011755136  -0.10193598 -0.0029581168  0.072061912    0.6792985   -2.4420591 
   36000    4.2859637    1.2758208    3.0101429  -0.14452021   0.85063794    0.9938358   0.76154383   -1.2465374            1   0.50914182   0.80997229   0.82980499  -0.11235183 -0.0019833267 -0.028459942 -0.013256472   0.43943322   0.45244797  0.061507078  0.066666667    1.9098969        1e-08 1.5376769e-10    65.033166    2.4804844         70.1  0.002635707  -0.11524597 0.0073508139   0.11402371    1.7072939  -0.72960549 
   37000    4.2898791    1.2618109    3.0280683  -0.14536354   0.84129698   0.99420251    0.7461514   -1.2465374            1   0.57632245   0.86600767   0.86709785 -0.0041381516 0.0021769675  0.011488211 -0.027205165   0.50802281   0.51960768  0.061545492  0.066666667    1.9036558        1e-08 1.5386373e-10    64.992575    2.5052956         70.1 0.0012011097 -0.083823505 -0.0026360049   0.10309303  -0.67831175   -1.3068678 
   38000     4.286077    1.2593178    3.0267591  -0.14819693   0.83963478   0.99737858   0.74147368   -1.2465374            1   0.57492945   0.86280652   0.87542518 -0.013443352 0.00021419571  0.019219897 0.0076791874   0.50705799    0.5180335   0.06154076  0.066666667    1.9152021        1e-08 1.538519e-10    64.997573    2.4992681         70.1 0.00030807497 -0.089294993 -0.0050170541   0.09665733   -1.1007334   -1.5325734 
   39000    4.2790868    1.2858596    2.9932272  -0.14748836   0.85733119    1.0183369   0.75714035   -1.2465374            1   0.57681244   0.87699676   0.87363719 -0.020196643 0.0087030379   0.01411826 -0.0052308952   0.50750691   0.51872091  0.061517278  0.066666667    1.9063165        1e-08 1.5379319e-10    65.022383    2.4916733         70.1 0.0074065918 -0.084621377 0.0043714232  0.073477512   -1.3690699   0.72824242 
   40000    4.2674704    1.2603724     3.007098  -0.14715927   0.84033787   0.98417826   0.75084155   -1.2465374            1   0.58025023   0.86588726   0.87390797 0.0009554553 -0.0021467736  0.044729763 -0.0061939278   0.51152127    0.5241073  0.061524916  0.066666667    1.8956364        1e-08 1.5381229e-10     65.01431    2.5010421         70.1 -0.0046353141 -0.090588869 -0.00079130181  0.091262206   -2.2491292   -1.5471756 
   41000    4.3070054    1.2692988    3.0377066  -0.14680674   0.84628947    1.0046499   0.74774524   -1.2465374            1    0.5664978   0.86278146   0.85793936 -0.021227418 -0.0013128715  0.038741549 -0.023344495   0.49805227   0.50918705  0.061523299  0.066666667     1.885084        1e-08 1.5380825e-10     65.01602    2.4785511         70.1 0.00068204761  -0.10265037 -0.0033856031  0.080004509 -0.063203521    0.7689359 
   42000    4.2679351    1.2622352    3.0056998  -0.13975834   0.84157992   0.97623582   0.75780763   -1.2465374            1   0.54989276    0.8461039   0.85349295 -0.049918567 0.00043882632  0.035492496  0.022704913   0.48052616   0.49420291  0.061516861  0.066666667    1.8774626        1e-08 1.5379215e-10    65.022824    2.4948813         70.1 0.0010584731 -0.096817702 0.0028458231  0.092558911  -0.11729823  -0.49396502 
   43000    4.2726578    1.2678417     3.004816  -0.13823661   0.84531799    1.0013505   0.74822436   -1.2465374            1   0.53803539   0.84197859   0.84272606 -0.070598473 0.0068876518  0.060338201 -0.0053557603     0.469546   0.48091286  0.061514747  0.066666667    1.8596942        1e-08 1.5378687e-10    65.025058    2.4797351         70.1 -0.0045597427 -0.074938777 0.0033946944  0.099633487   -1.0100508   -3.0521868 
   44000     4.274483    1.2545976    3.0198853   -0.1440212   0.83648765    1.0039282   0.73228295   -1.2465374            1   0.51643037    0.8171199   0.82565018 -0.093478977 0.0024178465  0.056476378 0.0017047552   0.44940019   0.45916079  0.061521759  0.066666667    1.8665677        1e-08 1.538044e-10    65.017646    2.4970276         70.1 0.00023362877 -0.096928774 0.0050179485  0.094062416     1.753612   0.50276334 
   45000    4.2610188     1.260702    3.0003168  -0.15030938   0.84055763   0.99504245    0.7444277   -1.2465374            1   0.61907445   0.89675373   0.90005226  0.060417378 0.0065821861  0.024120876 -0.016009683   0.55093259   0.56231177  0.061496614  0.066666667    1.8626759        1e-08 1.5374154e-10    65.044231    2.4743352         70.1 -0.0026932857 -0.088810018  0.005297425  0.094801723    1.5672806    3.1532526 
   46000    4.3448451    1.2921091    3.0527359  -0.14613166   0.86149797    1.0044391   0.77256572   -1.2465374            1   0.56919262    0.8617637   0.86442403 -0.018609869 -0.00028335796  0.016829588 -0.013673964   0.49847512    0.5118939  0.061522681  0.066666667    1.8570538        1e-08 1.538067e-10    65.016672     2.478647         70.1  0.010762171  -0.08805667 -0.0088501967  0.077320275    1.4349473    1.4831311 
   47000    4.3164377    1.2824784    3.0339593  -0.14992175   0.85507681     1.007256   0.76038628   -1.2465374            1   0.64252378    0.9249169   0.91601653  0.086637912 -0.004978092  0.028620964  0.010494439   0.57292114   0.58506437  0.061509533  0.066666667    1.8457614        1e-08 1.5377383e-10     65.03057    2.4741426         70.1 0.0025096674 -0.080637391 -0.0015445379  0.090389595    1.5127097    1.3775048 
   48000     4.268029    1.2703126    2.9977165  -0.14997886   0.84696537   0.97223641   0.76904268   -1.2465374            1   0.51528719   0.82839427   0.82295396  -0.10548666 0.0091413408  0.030829539 0.0074459114   0.44489218   0.45982549  0.061524766  0.066666667    1.8353813        1e-08 1.5381192e-10    65.014469    2.5005434         70.1 -0.0045677065 -0.079852746 -0.010221806  0.087769531    1.0031333   -6.5187013 
   49000    4.2689078     1.249861    3.0190468  -0.14506003   0.83332953   0.98869318   0.73665066   -1.2465374            1   0.53975833   0.84076284   0.83499172 -0.056479565 0.0025785085  0.026201258  0.016419661   0.47232835   0.48335784  0.061493582  0.066666667    1.8353585        1e-08 1.5373395e-10    65.047439    2.4772545         70.1  0.005654954 -0.081860171 0.0025867349  0.096597514   0.15835281   0.33088313 
   50000    4.2647974    1.2778163    2.9869811   -0.1406881   0.85196839    1.0221134   0.74608095   -1.2465374            1   0.59717395   0.88905464   0.88469796  0.017769237 0.00063997889 0.0049327955 0.0039148497   0.52888075   0.53886698  0.061511563  0.066666667    1.8466764        1e-08 1.5377891e-10    65.028424    2.4845656         70.1 -0.010094162  -0.10351813 0.00011074495   0.08741198  -0.80956642  -0.12702263 
   51000     4.261873    1.2647445    2.9971284  -0.15063685   0.84325294   0.99175181   0.75085395   -1.2465374            1   0.56092248   0.86060479   0.85733279 -0.035170143 -0.0048711009 -0.035078972 0.0066920176   0.49219239   0.50434751  0.061525843  0.066666667    1.8498629        1e-08 1.5381461e-10    65.013331    2.4978039         70.1 0.0012013798 -0.091269574 -0.0019297713  0.082943989 0.0086805119     1.127529 
   52000    4.2604634    1.2714279    2.9890355  -0.14931965   0.84770901   0.99950835   0.75325393   -1.2465374            1   0.55894943   0.85706925   0.85952888 -0.039749844 -0.0021766552 0.0072615055 -0.0076951653   0.48999965   0.50193199  0.061517563  0.066666667    1.8431221        1e-08 1.5379391e-10    65.022082    2.4850978         70.1 0.0038524086 -0.092149219 0.0046647841  0.098025144   -1.1208467   -0.3136593 
   53000    4.2511287    1.2620277    2.9891011  -0.14253599   0.84144152   0.98849627    0.7499422   -1.2465374            1   0.54641671   0.84725759   0.85072204 -0.058729491 -0.0035261603 -0.017691629 -0.0051497172   0.47777008   0.49002746  0.061525368  0.066666667    1.8523425        1e-08 1.5381342e-10    65.013833    2.5021052         70.1 0.0002934261  -0.09220826 -0.006573862  0.070455946  -0.26552243   -1.3736148 
   54000    4.2772377    1.2681416    3.0090961  -0.15030167   0.84551788   0.99035204   0.75540314   -1.2465374            1   0.57552895   0.86484184   0.87461727 -0.012872262 0.0034040312  0.028502362 -0.023592423   0.50638244   0.51903383   0.06152858  0.066666667    1.8527467        1e-08 1.5382145e-10    65.010439    2.4783759         70.1 0.0067374105 -0.095537275 -0.0047460433  0.094743074  -0.14658042   0.17170679 
   55000    4.2896685    1.2806542    3.0090143  -0.14340507   0.85386054   0.99720569    0.7646752   -1.2465374            1    0.5592683   0.86019639   0.85612791 -0.038519391 0.0015143262  0.024170187 -0.020644476   0.48927307   0.50238221  0.061519529  0.066666667     1.854914        1e-08 1.5379882e-10    65.020004    2.5011669         70.1 0.00094208804  -0.11372291 -0.0050729621   0.10155855    1.0803796  -0.34358619 
   56000    4.2905298    1.2625114    3.0280184  -0.14616229   0.84176405    1.0058346   0.73966045   -1.2465374            1   0.57954481   0.87098948   0.86901672 -0.0013717872 -0.0026396178  0.047562718 -0.025655539   0.51183932   0.52216648  0.061530104  0.066666667    1.8432428        1e-08 1.5382526e-10    65.008829    2.5095717         70.1 -0.0049171879  -0.07656463 0.00040145091   0.11981697   0.63938283    -1.450464 
   57000    4.2741189    1.2770937    2.9970251   -0.1403092   0.85148664   0.99598027   0.76158515   -1.2465374            1   0.54942322   0.84849167   0.85567342 -0.055895422 0.0030888896  0.024470732 -0.0031917117   0.47971084   0.49260704  0.061532192  0.066666667    1.8448478        1e-08 1.5383048e-10    65.006623    2.4965518         70.1 0.0059878588  -0.10594195 -0.009577968  0.092861203  -0.64009198    1.8473282 
   58000    4.2420222    1.2528383    2.9891839  -0.15251969    0.8353146   0.99426687   0.73639963   -1.2465374            1   0.59388136   0.88711493    0.8849914 0.0095377455 -0.0013148242  0.061596986 -0.012727847   0.52647435   0.53716292  0.061499388  0.066666667    1.8620172        1e-08 1.5374847e-10    65.041297    2.4832602         70.1 0.00054720072 -0.094802313 -0.0043091539  0.085510368   -0.4242301    1.9799486 
   59000    4.2580468    1.2740706    2.9839763  -0.15002671   0.84947098    1.0163319   0.74562975   -1.2465374            1   0.52499796   0.82595176   0.82752558  -0.07848346 0.0053300253  0.071736618 -0.016896592   0.45674607   0.46702081  0.061518236  0.066666667     1.854702        1e-08 1.5379559e-10    65.021371    2.4856093         70.1 0.0064610546  -0.11452897 -0.0063964872   0.10244549   -1.2296085   -3.5287948 
   60000    4.2859902    1.2940898    2.9919003  -0.14418337   0.86281858    1.0123229   0.76979637   -1.2465374            1   0.57114394   0.86592501   0.86805377 -0.020546972 0.0012048211 -0.011287771 -0.031235815   0.50067993   0.51339548  0.061534652  0.066666667    1.8244351        1e-08 1.5383663e-10    65.004024    2.5038277         70.1 -0.004610737    -0.116085 -0.006527558  0.094852625   -1.6625334  -0.79691096 
   61000    4.2482883    1.2553398    2.9929484  -0.14799689    0.8369825   0.99576506   0.73817359   -1.2465374            1   0.53417731   0.83978565   0.83864578 -0.075899486 -0.0040541899  0.015634595  -0.02252888   0.46660793   0.47737341  0.061521217  0.066666667    1.8424427        1e-08 1.5380304e-10    65.018219    2.4862666         70.1  0.002027813 -0.095154073 0.0021599297  0.084281419   -1.2755863     1.092831 
   62000      4.25563    1.2547927    3.0008373  -0.14996674    0.8366177   0.99548883   0.73775353   -1.2465374            1    0.5839671   0.88129212   0.87120644 -0.0005972571 -0.0046128526  0.018706227 -0.011389943   0.51643617   0.52717895  0.061527342  0.066666667    1.8237507        1e-08 1.5381836e-10    65.011747    2.4978132         70.1 0.0021234752 -0.081624295 -0.0063156028  0.096157452   -1.2258855  -0.65310052 
   63000    4.2847135    1.2736288    3.0110847  -0.13799967   0.84917646    1.0015093   0.75438913   -1.2465374            1   0.59126454   0.88054694   0.87750283  0.015743845 0.0026415314  0.020648174  0.015203129   0.52221085   0.53413295  0.061521248  0.066666667    1.8150632        1e-08 1.5380312e-10    65.018187    2.4954409         70.1 0.0075895957  -0.10302432 -0.006655354   0.10371006  -0.83213232   -1.3816896 
   64000    4.2865647    1.2866324    2.9999323  -0.14760928   0.85784642    1.0179196   0.75823682   -1.2465374            1   0.53509138   0.83955201   0.83374936  -0.06802723 -0.0018435392   0.05814215  -0.02766858   0.46568549   0.47702366  0.061560007  0.066666667    1.8116435        1e-08 1.5390002e-10    64.977251    2.5153391         70.1 0.0062944464  -0.11874894 -0.0054953965  0.098314255   0.56500615    -2.008032 
   65000    4.2580902     1.254116    3.0039742  -0.14251031   0.83616651    1.0004695   0.73391709   -1.2465374            1   0.58646638   0.87866601    0.8722233 0.0085098435 -0.0032907402  0.066816998 -0.015415216   0.51928662   0.52939411   0.06156609  0.066666667    1.7968274        1e-08 1.5391522e-10    64.970831    2.5063921         70.1 -7.6918577e-05  -0.10235006  0.010167651  0.093604705   0.17371375    0.1522416 
   66000    4.2819464    1.2742589    3.0076875  -0.14747819   0.84959656   0.99184575   0.76109349   -1.2465374            1   0.55629329   0.84829942    0.8511503 -0.030569856 -0.00067177385  0.028816676  -0.01886677   0.48662591   0.49971296  0.061539043  0.066666667    1.7934166        1e-08 1.5384761e-10    64.999386    2.5116598         70.1 0.0041918685  -0.10757063 0.00012198737  0.088076358   0.83626468   -1.1688879 
   67000     4.263814    1.2654298    2.9983842  -0.14428642   0.84370985   0.97837546   0.75993187   -1.2465374            1   0.55239476   0.85352162   0.85334517 -0.049682498 0.0071009622  0.042901487 -0.011347774   0.48283371   0.49658285  0.061551102  0.066666667    1.7861144        1e-08 1.5387775e-10    64.986651     2.503694         70.1  0.003619738 -0.096931529 0.0058277351   0.10643624  -0.62227135    -1.103609 
   68000     4.268391    1.2804612    2.9879298   -0.1484302   0.85373189   0.99211595   0.76763829   -1.2465374            1   0.52271621   0.82130005   0.83213584 -0.085287261  0.001069851  -0.04147131  0.011469598   0.45244975   0.46612047  0.061544804  0.066666667     1.782843        1e-08 1.5386201e-10    64.993302    2.4919302         70.1 -0.00037833083 -0.094233673 0.0013786198  0.091911829   -0.1096187    1.2606245 
   69000     4.267089    1.2585922    3.0084968  -0.14062234   0.83915096   0.98642392   0.74751524   -1.2465374            1   0.52970537   0.83408505   0.82419863 -0.069167558 -0.0028158269 -0.027868562 -0.0068860458   0.46128089   0.47343434  0.061505204  0.066666667    1.7814917        1e-08 1.5376301e-10    65.035147    2.4732992         70.1 0.0013165852 -0.086074982 0.0010538453  0.086607184   0.13060681   -1.3406903 
   70000    4.2439264    1.2546989    2.9892275  -0.14963682   0.83655512   0.97513677   0.75033542   -1.2465374            1   0.59454841   0.87777331   0.88825488  0.017617046 0.0011144704 -0.026873406 0.0028877315   0.52586578   0.53892125  0.061533204  0.066666667    1.7802557        1e-08 1.5383301e-10    65.005554     2.491742         70.1 0.0035586878 -0.099012649 -0.00045505229  0.070897307   -1.1968651   0.91595035 
   71000    4.2771704    1.2835001    2.9936703  -0.14359958   0.85575802    1.0258823   0.74988419   -1.2465374            1   0.58481401   0.87729561   0.87181894 0.0053274717 0.0027212163 -0.0029959121 -0.010210418   0.51617268   0.52629205  0.061538115  0.066666667    1.7769784        1e-08 1.5384529e-10    65.000366    2.4927217         70.1  0.013062934  -0.08028394 -0.0058172224   0.10142575  -0.16797967    1.3243116 
   72000    4.2745082    1.2787041    2.9958041   -0.1487587   0.85256034   0.99821307   0.76193669   -1.2465374            1   0.52414118   0.82876149   0.83758941 -0.093927357 0.0019955975  0.045526402 0.0060222495   0.45439662   0.46719763  0.061515132  0.066666667    1.7816774        1e-08 1.5378783e-10    65.024652    2.4900711         70.1 -0.0012588919  -0.10369371 -0.0016035972  0.070395164  -0.96150495   0.98933326 
   73000    4.2564264    1.2403764    3.0160499    -0.149274   0.82700583   0.95779058   0.74564353   -1.2465374            1   0.53444726   0.83278569   0.83529292 -0.064736831 0.0018997469  0.019091742 -0.010116858   0.46619411   0.47980963  0.061535385  0.066666667    1.7822184        1e-08 1.5383846e-10    65.003249    2.4947546         70.1 -0.0049946193 -0.080811335 -0.003506164  0.091971638  -0.14253454  -0.20832824 
   74000    4.2930276    1.2615083    3.0315193  -0.14130886   0.84109524   0.99741915   0.74381927   -1.2465374            1   0.60702079   0.88761834   0.89717032  0.036273697 0.0060640748 0.0038796474 -0.019194951   0.53893462   0.55012252  0.061508629  0.066666667     1.787093        1e-08 1.5377157e-10    65.031526     2.489277         70.1 -0.0018701871   -0.1047975 0.0013892504  0.073123203    1.1375137  -0.97288537 
   75000    4.2744014    1.2727178    3.0016836  -0.14456919   0.84856901   0.98218664   0.76544498   -1.2465374            1   0.55090118   0.85193807   0.85049475 -0.049729267 0.0080091778 -0.0040936648 0.0048665966   0.48083549   0.49487186  0.061519667  0.066666667    1.7931352        1e-08 1.5379917e-10    65.019858    2.4876859         70.1 0.0020780537  -0.10840702  0.014667202   0.11118695   0.39747165   -3.2654228 
   76000    4.2868694    1.2687778    3.0180916  -0.14551999    0.8459421   0.99782989   0.75143159   -1.2465374            1    0.5309844   0.82639278   0.84226991 -0.075709499 -5.4005891e-05 0.00062046334  0.010609204   0.46220143    0.4740627  0.061504843  0.066666667    1.7969536        1e-08 1.5376211e-10    65.035529    2.4860582         70.1 -0.0010929218 -0.086133905 -0.0023413917   0.10038608   0.74986886   -4.6751458 
   77000    4.2743989    1.2626132    3.0117858   -0.1536906    0.8418319   0.97397823   0.75962361   -1.2465374            1   0.61992289   0.89836114   0.90553823  0.055869284 0.0041924808 -0.0050227867 -0.0084794159   0.55039005   0.56436182  0.061520026  0.066666667    1.7981304        1e-08 1.5380006e-10    65.019479    2.4917666         70.1  0.003950283 -0.085801838 -0.0019652231  0.085136092     1.459881    2.4157127 
   78000     4.241513    1.2332208    3.0082922  -0.14734338   0.82223492   0.99023191     0.717681   -1.2465374            1   0.63037592   0.91333016   0.90824658  0.069551015 -0.0012170299 -0.0065979236  0.012157717   0.56468234   0.57388765  0.061536885  0.066666667    1.7889653        1e-08 1.5384221e-10    65.001665    2.5005017         70.1 -0.0027457079 -0.096749201 -0.0025506573   0.11378269    1.2939293    1.7132427 
   79000    4.2927379    1.2730803    3.0196576  -0.14714453   0.84881071    1.0066323    0.7506027   -1.2465374            1    0.6003708   0.89650254   0.87949819  0.025111679 0.0033666934 -0.025752415 0.0089165096   0.53166371   0.54294697   0.06152104  0.066666667    1.7747878        1e-08 1.538026e-10    65.018407    2.4827623         70.1  0.013189243 -0.096324347 -0.00049406688  0.093565882    2.6892672   0.51709905 
   80000    4.2582833    1.2474698    3.0108134  -0.14605667   0.83173527   0.98106319   0.73881762   -1.2465374            1   0.54034705     0.844246   0.83950766 -0.062712523 -0.0065986992 -0.0080504609 -0.020145532   0.47271871   0.48438182  0.061512936  0.066666667    1.7596265        1e-08 1.5378234e-10    65.026973    2.4804258         70.1 -0.0016842067 -0.091600939 -0.016254881  0.089149036    1.6095831  -0.14569762 
   81000    4.2655709    1.2696269     2.995944  -0.14495441   0.84650822    1.0010586   0.75033849   -1.2465374            1    0.5294584    0.8376283   0.83785031 -0.087103415 0.0032643788  0.008397799  0.003356733   0.46077549   0.47235252  0.061525071  0.066666667    1.7564731        1e-08 1.5381268e-10    65.014147    2.4915658         70.1 -0.0017684287  -0.10704959 0.0098397207  0.075446926    1.4089906   0.71449005 
   82000    4.2696506    1.2573231    3.0123275  -0.14484456   0.83830478   0.98271204   0.74845484   -1.2465374            1   0.57828974   0.87063569   0.87166227 -0.0074287464 -0.0041742521 -0.023770446 0.0093682053   0.50977925   0.52223045   0.06155181  0.066666667    1.7526869        1e-08 1.5387952e-10    64.985904     2.517334         70.1 3.0267179e-05  -0.08243961 -0.0049325171   0.10318465   0.55048963     2.204797 
   83000    4.2541151    1.2633498    2.9907653   -0.1411426   0.84232301    1.0077891   0.73934982   -1.2465374            1    0.6049845   0.88059862   0.89550894  0.038845957 0.0042128174 -0.056165849 -0.004037766   0.53730745   0.54749468  0.061514529  0.066666667    1.7485331        1e-08 1.5378632e-10    65.025289    2.4958169         70.1 0.0014697543 -0.078371235 0.0011049937   0.07432026  0.084850167    1.9960311 
   84000    4.2897353    1.2831811    3.0065543  -0.14302698    0.8555453    1.0190884    0.7537728   -1.2465374            1   0.54980584   0.84804662   0.84812317  -0.04675226 -0.0010552274 -0.038206698 0.00025454038   0.48080857   0.49167145  0.061540279  0.066666667    1.7467286        1e-08 1.538507e-10    64.998081    2.4982014         70.1 -0.0075996941 -0.082976166 -0.0070421149  0.086823347   0.35097523  -0.56051615 
   85000    4.2538761    1.2594492     2.994427  -0.14188913   0.83972233   0.99032488   0.74601172   -1.2465374            1   0.57178733   0.86282192   0.86993649 -0.017396418 0.00098270905  0.016454627 0.0058344684   0.50350048   0.51529376  0.061535678  0.066666667    1.7464974        1e-08 1.5383919e-10    65.002941    2.5084923         70.1 0.0025715588 -0.096486496 -0.0053107242  0.090880748  -0.80609633   0.43597064 
   86000    4.3009487    1.2723047     3.028644  -0.14585302    0.8482936   0.98721542   0.76186394   -1.2465374            1   0.59949186   0.88089476   0.88534881  0.032232019   0.00249181 0.0029412173  0.016890117   0.52975396   0.54317568  0.061509021  0.066666667     1.748737        1e-08 1.5377255e-10    65.031112    2.4858521         70.1  0.008732897  -0.10107818 0.0018607287   0.10165818  -0.29441884    0.2740237 
   87000    4.3036469    1.2816292    3.0220178  -0.14534938   0.85451059    1.0074872   0.75932298   -1.2465374            1   0.56606999   0.86380217   0.86102255 -0.026614756 0.0047869501 0.0083232179 -0.0056477031   0.49656468   0.50859738  0.061532593  0.066666667      1.73676        1e-08 1.5383148e-10    65.006199    2.4872266         70.1 0.0038338197 -0.086540939 -0.0051290967   0.10034646   -1.4127959    1.6137494 
   88000     4.255994    1.2641055    2.9918885  -0.14057646   0.84282689    1.0053815   0.74166823   -1.2465374            1   0.52451558   0.83997079    0.8295367 -0.095960755 0.0024758345  0.016409473  0.022933739   0.45662631   0.46716309  0.061510293  0.066666667    1.7374444        1e-08 1.5377573e-10    65.029766    2.4838481         70.1 -0.0034134021  -0.11240155  0.012426643    0.1125425  -0.80178622  -0.45123439 
   89000     4.295025    1.2706063    3.0244187  -0.14346487   0.84716125    1.0065944   0.74794862   -1.2465374            1   0.55563352   0.84849929   0.85557648 -0.037175204 0.00074418651   0.01991908 -0.011335122   0.48716937   0.49821185  0.061529057  0.066666667    1.7326992        1e-08 1.5382264e-10    65.009936    2.5104847         70.1 0.0080040143   -0.0838281 0.0027023774   0.12570363   0.13014051   0.44241881 
   90000    4.2769351    1.2754137    3.0015215  -0.14287973   0.85036647   0.98840516   0.76448752   -1.2465374            1   0.55654606   0.85312023   0.84872357 -0.032205603 0.0082542709  0.041420174 -0.021797791   0.48656801   0.50016201  0.061531497  0.066666667     1.723797        1e-08 1.5382874e-10    65.007357    2.4912134         70.1 0.0073330358 -0.082151476 -0.0071715686   0.10300417   0.64270591     1.928141 
   91000    4.2776552    1.2654157    3.0122395  -0.14840469   0.84370046    1.0150518   0.73705979   -1.2465374            1   0.61495542   0.90704332   0.89272086  0.045102092  0.002974648  0.062131436 0.0039532533   0.54748799   0.55705129  0.061546461  0.066666667    1.7331205        1e-08 1.5386615e-10    64.991552    2.5021563         70.1 -0.00098508067   -0.1090006 -0.0081030987  0.087597541  -0.52245345    1.8304204 
   92000    4.2866812    1.2863846    3.0002966  -0.15194133    0.8576812    1.0072732   0.76460345   -1.2465374            1   0.59385775   0.88179002   0.88243913    0.0173441 0.0020502218  0.015469381   0.01411771   0.52386909   0.53639736  0.061506363  0.066666667    1.7262246        1e-08 1.5376591e-10    65.033922    2.4829332         70.1  -0.01171848 -0.098463357 0.0036350919   0.10659073  -0.33644185    3.8601244 
   93000    4.2712959    1.2801138     2.991182  -0.14759307   0.85350025    1.0172698    0.7515863   -1.2465374            1   0.57025445    0.8645047   0.87167407 -0.025415406 0.0023874676 -0.0076042556  0.005547937   0.50145732    0.5122238  0.061506334  0.066666667    1.7296295        1e-08 1.5376584e-10    65.033952    2.4786354         70.1 -0.0054163131 -0.098821506  0.010031298  0.093418132 -0.060876147   -1.4220491 
   94000    4.2914995    1.2814875     3.010012  -0.14890598   0.85441613   0.99053419   0.76973483   -1.2465374            1   0.58176586   0.87230151   0.86908183 0.0039142393 -0.0013053613 -0.0058651532    0.0247024   0.51130749   0.52526035  0.061540769  0.066666667    1.7271037        1e-08 1.5385192e-10    64.997563    2.5008537         70.1 -0.0077602706  -0.10005196 0.0063246037   0.10154271  -0.90034058   0.34509451 
   95000     4.264876    1.2603422    3.0045339   -0.1484558   0.84031775    1.0083822   0.73572492   -1.2465374            1   0.55687478   0.84885134   0.85922328 -0.037450274 0.0043940123 -0.013750525  0.029432756   0.48952954   0.49935113  0.061520488  0.066666667    1.7253887        1e-08 1.5380122e-10     65.01899      2.48799         70.1 0.0026831638 -0.096036746 -0.010599811   0.11713131   0.15301708   -1.1994856 
   96000    4.2623443    1.2691054    2.9932389   -0.1458199   0.84616051   0.97909108   0.76346424   -1.2465374            1   0.60878107   0.88714886   0.89586256  0.043331773 0.00062942145  0.013132267 -0.0040310206   0.53889668   0.55292834  0.061529309  0.066666667    1.7179809        1e-08 1.5382327e-10    65.009668    2.5004667         70.1 0.0050326694  -0.10395794  0.011157958  0.099476015    1.2645998    1.2098564 
   97000    4.2840586    1.2733389    3.0107197  -0.14964581   0.84898315   0.99025344   0.76109002   -1.2465374            1   0.53478078   0.83710617   0.83722366 -0.069987492 -0.0028871367 -0.022795863 -0.027436033   0.46511372   0.47829129  0.061550891  0.066666667    1.7199113        1e-08 1.5387723e-10    64.986874    2.5150674         70.1 0.0067650425 -0.093630394 -0.012995833  0.085062955    1.6790966   -2.1775169 
   98000     4.283061    1.2897647    2.9932964  -0.14344805   0.85993483    1.0107378   0.76610277   -1.2465374            1   0.55977844   0.84722183   0.84842904 -0.016315561 8.3021729e-05 -0.009013398 0.0097569428   0.48965253    0.5021204  0.061517104  0.066666667    1.7173205        1e-08 1.5379276e-10    65.022567    2.5012849         70.1 -0.00089864392 -0.078821222 -0.001287591  0.088208196   0.81713935    1.1989721 
   99000    4.2766969    1.2595248    3.0171721  -0.13770721   0.83977278    1.0114374   0.73293623   -1.2465374            1   0.57553446   0.87699889   0.85455191 -0.0049474064 0.0040506724 0.0095081677 -0.0032736635   0.50844448   0.51783652  0.061523629  0.066666667    1.7017461        1e-08 1.5380907e-10    65.015671    2.4968733         70.1 0.0045101224  -0.09661336 -0.0015390674  0.093280576    1.2409301    1.4261897 
  100000    4.2962108     1.287503    3.0087077   -0.1472144   0.85842692    1.0138223    0.7617326   -1.2465374            1   0.53604658   0.84414865      0.83101 -0.067018925 -0.00056023869 -0.024193934 -0.033509591    0.4663207   0.47821258  0.061532489  0.066666667    1.7115732        1e-08 1.5383122e-10     65.00631    2.4932084         70.1 -0.0024034511 -0.065794312 0.0016359054   0.11683024     0.533261   -1.5204403 
  101000    4.2692513    1.2662537    3.0029975  -0.14296868   0.84425921   0.97376452   0.76369724   -1.2465374            1   0.60786406   0.88814879   0.89003396  0.045409437 0.0014921173 -0.037538242 0.0017650358   0.53795835   0.55231519  0.061570278  0.066666667    1.7287795        1e-08 1.5392569e-10    64.966411    2.4970429         70.1 -0.00058512768  -0.13731657 -0.005948491  0.096497911    1.7400909    1.1958833 
  102000    4.2696378    1.2703627     2.999275  -0.14738259   0.84699883    1.0038305   0.74940747   -1.2465374            1   0.57014306   0.86332155    0.8635196 -0.016411971 0.0017756893  -0.02887486 0.0015185601   0.50154537   0.51287906  0.061499799  0.066666667     1.719334        1e-08 1.537495e-10    65.040863    2.4783946         70.1 -0.012884634  -0.08966285 -0.0037026777  0.098129853     1.352191  -0.56184346 
  103000    4.2624188    1.2621325    3.0002863  -0.14519162   0.84151144    1.0166903   0.73248505   -1.2465374            1    0.5543932   0.84982464   0.85637024 -0.043015297 -0.001787761 -0.029532374 -0.014551708   0.48734452    0.4963956  0.061497522  0.066666667    1.7077808        1e-08 1.5374381e-10    65.043271     2.473867         70.1 0.0087334021 -0.085310562 -0.00078854925   0.10084442     -1.24518   -1.3209521 
  104000    4.2757467    1.2626269    3.0131198  -0.14032612   0.84184104    1.0008165   0.74291276   -1.2465374            1   0.55979131   0.85998309   0.84333132 -0.023940473 0.0043537115 -0.048031164 0.0012617183   0.49178812   0.50269925  0.061559679  0.066666667    1.6998458        1e-08 1.538992e-10    64.977597    2.5053919         70.1 -0.0019363319 -0.096748053 -0.0059367701   0.10847738    0.6947228   -1.9553828 
  105000    4.2841338    1.2750055    3.0091283  -0.14704381   0.85009434    1.0050571   0.75366822   -1.2465374            1   0.56829748   0.85844893   0.85770674 -0.011263246 0.0012317634 -0.063656449  0.001365756   0.49930978    0.5109635  0.061520452  0.066666667    1.7041168        1e-08 1.5380113e-10    65.019028     2.481684         70.1 0.0051207517 -0.098356845 -0.0075601676  0.090094173    1.6904084   0.85391263 
  106000    4.2649725    1.2648151    3.0001574  -0.14528298   0.84330001   0.99470541   0.74908967   -1.2465374            1   0.59368099   0.88411258   0.88209012  0.014840266 0.0061204127 -0.030559639 -0.010893349   0.52511239   0.53693753  0.061527159  0.066666667    1.7150775        1e-08 1.538179e-10     65.01194    2.4914426         70.1 -0.0067918336  -0.09961466 -0.014748692   0.10973156 -0.071877877      3.51855 
  107000    4.2625236    1.2547655    3.0077581  -0.14766634   0.83659958    1.0207579   0.72197633   -1.2465374            1   0.59157975    0.8823497   0.87458274  0.017806794 -0.0015722471 -0.026653122 0.00094616553   0.52549299   0.53335011  0.061531349  0.066666667    1.7088275        1e-08 1.5382837e-10    65.007513    2.4936643         70.1 0.0015908261  -0.11090424 0.0012778123   0.11269652    2.2034432   0.82450335 
  108000    4.2511278    1.2561837    2.9949441  -0.14480919   0.83754516    1.0125341   0.72863648   -1.2465374            1   0.58343432   0.87439233   0.87132256 0.0045880814 -0.0056783856  0.022498317 0.0030632031   0.51673793   0.52567382  0.061518434  0.066666667    1.7038548        1e-08 1.5379609e-10    65.021161    2.4893013         70.1 -0.010534672  -0.11422373 -0.0011107649   0.11217188   0.29565887  0.021309081 
  109000    4.2698307     1.273313    2.9965177  -0.14630323   0.84896591    1.0084207   0.74974015   -1.2465374            1   0.58024586   0.86525292   0.88027826 -0.0047935992 8.9215261e-05 0.0054947854  0.018923432   0.51161772   0.52272001   0.06149172  0.066666667    1.7076821        1e-08 1.537293e-10    65.049409    2.4761654         70.1 0.00010861829  -0.10958473  0.008052354  0.092008426   0.82806054 -0.080262825 
  110000    4.2823408    1.2742733    3.0080674  -0.14916154   0.84960617    1.0073918   0.75142075   -1.2465374            1   0.58861393   0.87568175    0.8659411  0.024218948  -0.00622562  0.013099375  0.015671969   0.51983196   0.53114677  0.061530555  0.066666667    1.7089965        1e-08 1.5382639e-10    65.008352    2.4915786         70.1 0.0075823992  -0.10744568 0.0022080718   0.09533016   0.78181359   0.21312695 
  111000    4.2354801    1.2451238    2.9903562  -0.14905951    0.8301711   0.98853649     0.731621   -1.2465374            1   0.57312757   0.85562684   0.87011837 -0.0063625109  0.010256733 0.0033239239 -0.0043831713   0.50615798   0.51673602  0.061547761  0.066666667    1.6920667        1e-08 1.538694e-10    64.990178    2.5079752         70.1 0.00018332154 -0.091617492 -0.00088654766   0.10078081  0.087647828   -0.2390742 
  112000    4.2547561    1.2684373    2.9863188  -0.14095783   0.84571507    0.9956792   0.75240336   -1.2465374            1   0.51196425   0.81653636   0.82079697  -0.10144057  0.002172825 -0.041786283 -0.0011963129   0.44309234   0.45516525  0.061518267  0.066666667    1.6890823        1e-08 1.5379567e-10    65.021337    2.4897262         70.1 -0.010576098  -0.10308347 -0.0038747151   0.11773344    2.1047312  -0.02306735 
  113000    4.2650028    1.2490004    3.0160025  -0.14765118   0.83275575   0.97262141   0.74573518   -1.2465374            1   0.57694242   0.86458969   0.86662258 -0.00038502361 0.0016564312 -0.060014771 0.00037928834   0.50868088   0.52145875  0.061524933  0.066666667    1.6873968        1e-08 1.5381233e-10    65.014293     2.485154         70.1 -0.0092005087  -0.10041491 -0.00025032872  0.077096321   0.15724749    5.5012606 
  114000    4.2609742    1.2653473    2.9956269  -0.14779317   0.84365485   0.99814817   0.74752016   -1.2465374            1   0.58691586   0.87847136   0.87045101  0.011825213 -0.0027207134 -0.017359678 -0.0013133974   0.51849093   0.52997601  0.061528958  0.066666667    1.6853515        1e-08 1.5382239e-10     65.01004    2.4948847         70.1 0.0087942208  -0.09571618 0.0070933696   0.11283366 -0.050774578    2.7855627 
  115000    4.2819146    1.2868217     2.995093  -0.14376114   0.85797262    1.0217689   0.75604277   -1.2465374            1   0.54825587   0.84896766   0.85035174 -0.054551801 0.0027717682 -0.028134429 -0.026393561   0.47905081   0.48996856  0.061529719  0.066666667    1.6839129        1e-08 1.538243e-10    65.009235    2.4863909         70.1 0.0055123346  -0.11635378 -0.0080708521  0.083800282      2.48067 -0.025394993 
  116000    4.2787188    1.2867469     2.991972  -0.14639627   0.85792274    1.0261801   0.75321275   -1.2465374            1   0.60179319   0.89330964   0.87935555   0.03271437 -0.0053804659 -0.018707681 -0.006470303   0.53284718   0.54325424  0.061513008  0.066666667    1.6775141        1e-08 1.5378252e-10    65.026896     2.483027         70.1 -0.0026435354  -0.09993327 -0.0067389103  0.091022404  -0.55843305   0.34911019 
  117000    4.2766022    1.2753572     3.001245  -0.15173114   0.85032881    1.0132678   0.74893192   -1.2465374            1   0.56251662    0.8542804   0.85087309 -0.017603627 0.00021435054  0.031408459 -0.0022686886   0.49396246   0.50471426  0.061526284  0.066666667    1.6660185        1e-08 1.5381571e-10    65.012865     2.487162         70.1 -0.011164649 -0.097239489 0.0063172289  0.077317089   0.12470631  -0.11494453 
  118000    4.2698092    1.2680547    3.0017544  -0.14474838      0.84546    1.0057571   0.74570867   -1.2465374            1   0.64849139   0.92245588   0.91999659   0.10302171 -0.0042517894 -0.031167059 -0.032445359   0.58023228   0.59111749   0.06150097  0.066666667    1.6693581        1e-08 1.5375242e-10    65.039625     2.481138         70.1 -0.0046531753  -0.10325982 -0.0049933621  0.086235946    1.3646269   0.86304544 
  119000    4.2538386    1.2466117    3.0072269  -0.14579634   0.83116312   0.98088837   0.73799775   -1.2465374            1   0.58643068   0.87336105   0.87328286   0.01264814 -0.00053578492 -0.018282365 0.0012933604   0.51887739   0.53047542   0.06150864  0.066666667    1.6644337        1e-08 1.537716e-10    65.031514     2.474881         70.1 -0.0062473503  -0.11901968 -0.0019359444   0.10516109   0.39328584    0.7002633 
  120000    4.2894938    1.2699937    3.0195001  -0.14847843   0.84675277    1.0034721   0.74923134   -1.2465374            1   0.56528115   0.85849336   0.85050366 -0.013153559 0.0047978002 -0.013790908 -0.025938764   0.49669959   0.50803759   0.06151794  0.066666667     1.661888        1e-08 1.5379485e-10    65.021683    2.4895909         70.1 -0.0011259877  -0.10469897 -0.0062331278   0.08756505    1.1306499    2.9559572 
  121000    4.2866514    1.2583351    3.0283163  -0.14702226   0.83897953   0.99605846   0.74123268   -1.2465374            1   0.51073536   0.81822269   0.81370568 -0.099722302 -0.0043545046 -0.016312477 -0.0045373142   0.44288596   0.45391471  0.061508313  0.066666667    1.6584485        1e-08 1.5377078e-10     65.03186    2.4801919         70.1 0.00028159842 -0.096565273 -0.002436485   0.10405096   0.29998905   -2.5596545 
  122000    4.2369992    1.2474868    2.9895124  -0.14563445   0.83174658   0.97998669   0.73950686   -1.2465374            1   0.57869608   0.87227321   0.86327811 0.00053690792 -0.0081065036 0.0041833134 -0.023454743   0.51100465   0.52279226  0.061528551  0.066666667    1.6673056        1e-08 1.5382138e-10     65.01047    2.5051733         70.1  0.010613659 -0.085120677 0.0047383665   0.10383882   -0.8916326   0.24835981 
  123000     4.284727     1.274904     3.009823  -0.14755962   0.85002667    1.0212347   0.74347643   -1.2465374            1   0.57811725   0.86807552   0.87037541 -0.0040991618 -0.0021229482  0.051867547  0.025553477   0.51006247   0.51986042  0.061515826  0.066666667    1.6694461        1e-08 1.5378957e-10    65.023918    2.4872652         70.1 -0.0017487514 -0.093753764 0.0034947501   0.10294049   -1.8569739   0.59683115 
  124000    4.2545956    1.2558657    2.9987299  -0.14807702   0.83733311   0.97869868   0.74937859   -1.2465374            1   0.55644813   0.85017578   0.85067367 -0.031505061 -0.0076930569  0.065832724  0.021008989   0.48785309   0.50061778  0.061559152  0.066666667    1.6617848        1e-08 1.5389788e-10    64.978153    2.5103895         70.1 -0.00093528544   -0.1075188  0.003992072  0.096512738   -0.9203771    2.4264866 
  125000    4.2696178    1.2538421    3.0157757  -0.14542259    0.8359839   0.98196018   0.74515574   -1.2465374            1   0.59489725   0.88049198   0.88018461  0.024015159 0.0048248597  0.030863364  0.016722833   0.52668875   0.53888085  0.061514189  0.066666667    1.6509837        1e-08 1.5378547e-10    65.025648    2.4867102         70.1 -0.0044447593  -0.08862811 -0.00072156781  0.090048481   0.11399822   0.39546258 
  126000    4.2775184    1.2555877    3.0219306  -0.14434015   0.83714778   0.98966891   0.74224104   -1.2465374            1   0.55430937   0.84671228   0.84277219 -0.026556353 0.0052489136 -0.003949782 -0.018383696   0.48636767   0.49785322  0.061507939  0.066666667    1.6428009        1e-08 1.5376985e-10    65.032256    2.4983499         70.1  0.013482217  -0.10320979 0.0055786844   0.10835738  0.062651664  -0.48073491 
  127000    4.2509826    1.2539475    2.9970351  -0.14609141   0.83605419   0.99494482   0.73717776   -1.2465374            1   0.59248172   0.88290998   0.87732313  0.017212049 0.00028475838 -0.0038051686 -0.010318756   0.52500349    0.5357246  0.061514444  0.066666667    1.6519395        1e-08 1.5378611e-10    65.025378    2.4851571         70.1 -0.0028060985 -0.084260653 0.0037120952  0.086394275    1.8311627   -0.9283547 
  128000    4.2905838    1.2789507    3.0116331  -0.14634902   0.85272474    1.0119047   0.75367092   -1.2465374            1   0.57085316   0.85753568   0.86064767 -0.0056238811 0.0042889922 -0.0096630556  0.021118691   0.50186521   0.51312856  0.061504215  0.066666667    1.6575687        1e-08 1.5376054e-10    65.036193     2.487799         70.1 -0.0028154666  -0.11311687 -0.010184309   0.10021645    1.7858798   -1.5172052 
  129000    4.2724228      1.27136    3.0010627  -0.14814467   0.84766376    1.0137772   0.74428808   -1.2465374            1   0.57601158   0.86645631   0.86650906 -0.0049306374 -0.0018753267 -0.018679035 0.0072594029    0.5078825   0.51818016  0.061498612  0.066666667    1.6537748        1e-08 1.5374653e-10    65.042119    2.4796197         70.1 0.0080459974 -0.090160354 -0.0087343874   0.09983677    2.6504737  -0.63717696 
  130000    4.3081355    1.2953749    3.0127606  -0.14566762   0.86367537    1.0345057   0.75736287   -1.2465374            1   0.64084799   0.91089719   0.92227231  0.089374474 -0.0027614713  0.058177763 -0.0077123775    0.5715221    0.5818341   0.06151516  0.066666667    1.6610931        1e-08 1.537879e-10    65.024621    2.4865451         70.1 0.0071297142 -0.089240638 -0.00065575222  0.094028786    1.4812301    2.9641128 
  131000    4.2566954    1.2569336    2.9997618  -0.14411283   0.83804509    0.9849141   0.74666093   -1.2465374            1   0.59132685   0.87950442   0.87583715  0.018638978 -0.0043368127  0.048202329 -0.0039649158   0.52298057   0.53514194  0.061545891  0.066666667    1.6542512        1e-08 1.5386473e-10    64.992153    2.5036688         70.1 -0.011299249  -0.08715973 -0.0048743221   0.11161721    1.4676302   0.61551072 
  132000    4.2797706    1.2609054    3.0188651  -0.14594281    0.8406933   0.99381637   0.74541204   -1.2465374            1   0.54246589    0.8369515   0.83659309 -0.046146914  -0.01200893  0.022697455  0.016489534   0.47423393   0.48577315  0.061536333  0.066666667    1.6724352        1e-08 1.5384083e-10    65.002248    2.4981073         70.1 0.0016944809  -0.09406788  -0.00213152   0.10177011    1.8296347   -5.3904726 
  133000    4.2771472    1.2657401    3.0114071  -0.13980369   0.84391676    1.0042723   0.74412878   -1.2465374            1   0.60417686   0.89618704   0.88463235  0.031711195 -0.0013933054 -0.0033694123  0.015256446   0.53606236   0.54688766  0.061493329  0.066666667     1.669363        1e-08 1.5373332e-10    65.047707    2.4691276         70.1 -0.0038311418   -0.1103202 0.0056385155  0.098213227   0.58787382   -1.3275399 
  134000    4.2376862    1.2456449    2.9920412   -0.1464002   0.83051853   0.98919085   0.73177721   -1.2465374            1   0.53130578   0.83233223   0.83024804 -0.068662949 -0.0038624867 -0.020969644 -0.011834406   0.46432189    0.4748769  0.061536256  0.066666667    1.6698191        1e-08 1.5384064e-10     65.00233    2.5009448         70.1  0.001885652   -0.1004323  0.006702518  0.091198623   0.17775734  -0.94758442 
  135000     4.235085    1.2350079     3.000077  -0.13560723   0.82342644   0.97778648   0.72737132   -1.2465374            1   0.60871163   0.89562353    0.8871304  0.043380959 0.0013408555 -0.044267085 0.0072233427   0.54213104   0.55293332  0.061529189  0.066666667    1.6731444        1e-08 1.5382297e-10    65.009795     2.504313         70.1 0.0041144704  -0.10097223 0.0041397931   0.12447313   0.46185101    1.4691563 
  136000    4.2729174    1.2802924     2.992625  -0.14884301   0.85361928   0.99997022   0.76256068   -1.2465374            1   0.56341882   0.85095016    0.8573837 -0.018077404 -0.0028806817 -0.050127434  0.018337534   0.49361714   0.50637503  0.061595345  0.066666667    1.6687187        1e-08 1.5398836e-10    64.939972    2.5250911         70.1 0.0042564337  -0.10147326 -0.0098678424  0.093894984   0.44550888  -0.55065822 
  137000    4.2548974    1.2521342    3.0027632  -0.14714146   0.83484515   0.99447947   0.73550505   -1.2465374            1   0.51481758    0.8182613   0.81927062  -0.09307917  0.003519352 -0.049464611 -0.013064035   0.44749247   0.45808701   0.06155819  0.066666667     1.674786        1e-08 1.5389548e-10    64.979168    2.5238776         70.1 0.0036209718 -0.081233128 -0.0081014724  0.090832347    1.2442172   -2.4007949 
  138000    4.2631733    1.2807846    2.9823886  -0.15091021    0.8539475   0.99917972   0.76358615   -1.2465374            1   0.60802691   0.89385221    0.8962033  0.034025238 0.00054101695  -0.06551005 0.0075123159   0.53813137   0.55102822  0.061535779  0.066666667    1.6637973        1e-08 1.5383945e-10    65.002834    2.5061745         70.1 0.0021260119 -0.077589488 0.0067368891   0.10270302    2.0227663    1.5948674 
  139000    4.2663417    1.2682152    2.9981264  -0.15037542     0.845567   0.99301001   0.75382643   -1.2465374            1   0.57781925   0.86296845   0.87036835 0.00012095711 0.0019553794 -0.013728406 -0.0050325937   0.50881707   0.52117251  0.061545869  0.066666667    1.6691863        1e-08 1.5386467e-10    64.992177    2.5151214         70.1 -0.0040019285 -0.092648591 -0.00024643779      0.11672    1.4182823   0.77399606 
  140000     4.283763    1.2588518    3.0249112  -0.14057161   0.83932404   0.99230483   0.74413123   -1.2465374            1   0.52029007   0.82443648   0.82823497 -0.091801228 -0.0073445529  0.060329465 -0.017929317   0.45217535   0.46368356  0.061536212  0.066666667    1.6715362        1e-08 1.5384053e-10    65.002376    2.4925396         70.1 -0.00091151932  -0.10279505 0.0053017486   0.10243089  -0.76406504   -1.8293545 
  141000    4.3058695    1.2734021    3.0324674  -0.14542838   0.84902527    1.0009055   0.75452002   -1.2465374            1   0.61512805   0.89304045   0.89350115  0.058842549 0.0008473164  0.053225047 -0.0034273488   0.54606238    0.5580309  0.061519354  0.066666667    1.6633653        1e-08 1.5379839e-10    65.020188    2.4934038         70.1 -0.010242652 -0.085450062 0.0043959501  0.096643763   0.41881425    2.1475076 
  142000    4.3099372    1.2882641    3.0216731  -0.14546633   0.85893435   0.99384159   0.77500843   -1.2465374            1   0.58453172   0.86730086      0.86968  0.016614285 -0.0072091228  0.026515016  0.016099658   0.51359062   0.52783754  0.061537559  0.066666667     1.660329        1e-08 1.538439e-10    65.000953    2.5072621         70.1  0.006284579 -0.086159028 0.00072246697   0.11687553  -0.29226844     1.150681 
  143000    4.2652682    1.2668479    2.9984203  -0.14992038   0.84465536   0.99334417   0.75213824   -1.2465374            1   0.52286531   0.82924993   0.83090698 -0.091560989 0.00068040127  0.036315792  0.004781636   0.45401766    0.4661995  0.061533915  0.066666667     1.652359        1e-08 1.5383479e-10    65.004802    2.4980031         70.1 -0.0033163272 -0.092056499 -0.013462601   0.12690552  -0.12053966   -1.4828893 
  144000    4.2699387    1.2622941    3.0076446  -0.13955747   0.84161918   0.98011716   0.75545249   -1.2465374            1   0.66737842   0.93782749   0.93535276   0.12895503 0.0010435452 -0.022149377  0.015657878    0.5982274   0.61146716  0.061504654  0.066666667    1.6580404        1e-08 1.5376163e-10    65.035729    2.4904123         70.1 0.0042267464 -0.081921415 -0.010585963   0.10683961   0.47102709    1.8148518 
  145000    4.2905495    1.2896475     3.000902  -0.13739468   0.85985674    1.0098749   0.76651379   -1.2465374            1   0.62181606   0.89932765   0.90068997  0.065430556 -0.0025854517 -0.025081952  0.015074584   0.55165253   0.56420725  0.061530023  0.066666667    1.6563124        1e-08 1.5382506e-10    65.008914    2.4982572         70.1 -0.0028740727  -0.11340024 -0.0066268955  0.070629778  -0.41303169    1.7969146 
  146000    4.2850012    1.2618813    3.0231199  -0.14243407   0.84134395   0.98595865   0.75136525   -1.2465374            1   0.56897374   0.85081072   0.85955941 -0.0034489175 -0.0086030488 -0.050036796  0.020999049   0.50019684   0.51272924   0.06155212  0.066666667     1.640032        1e-08 1.538803e-10    64.985577    2.5041615         70.1 -0.0056047602  -0.11112641 -0.0067428292   0.12500739   0.88245581     2.390928 
  147000    4.2975205    1.2532575     3.044263  -0.14830265   0.83559415   0.97444445   0.74920684   -1.2465374            1   0.58982633   0.87428798   0.88794884 0.0072421521 -0.0071317703 -0.083631983   -0.0461466     0.521247   0.53423866  0.061525462  0.066666667    1.6511296        1e-08 1.5381366e-10    65.013734     2.491091         70.1  0.010454994 -0.091334732  0.011024307  0.099736662    0.7840575  -0.94407753 
  148000    4.2621606    1.2634386     2.998722  -0.14468767   0.84238226   0.99542805   0.74714946   -1.2465374            1   0.54925214   0.84122759   0.85062724 -0.044098414 -0.0040842069 -0.069338906 -0.0052431898   0.48086114   0.49246746  0.061516558  0.066666667    1.6631083        1e-08 1.537914e-10    65.023144    2.4876296         70.1 -0.0094041836  -0.11242358 -0.0044428572   0.10521329    1.7754287   -2.2988903 
  149000    4.2691655    1.2448999    3.0242657  -0.14706044   0.83002176   0.97216438   0.74158172   -1.2465374            1   0.49129212   0.80652025   0.79943886  -0.13208276 0.0017493683 -0.096093324 0.0031939538   0.42341077   0.43583452  0.061536158  0.066666667    1.6836084        1e-08 1.538404e-10    65.002433    2.5024086         70.1  0.015576836 -0.091021336 -0.011327381  0.082402905    1.1515901   -1.7917453 
  150000     4.294587    1.2881953    3.0063917  -0.14381237   0.85888848    1.0032487   0.76907145   -1.2465374            1   0.59238309     0.877343   0.88028188  0.019524382 0.0015718781 -0.035179129  0.012010181   0.52198544   0.53515228  0.061543204  0.066666667    1.6810638        1e-08 1.5385801e-10    64.994991    2.5045477         70.1 -0.0049657217  -0.11705564 0.0019037917   0.10493027  -0.51543375    3.2185508 
  151000    4.2739988    1.2612338     3.012765  -0.14702267   0.84091224    1.0038589   0.73950892   -1.2465374            1   0.59376992   0.88132581   0.88270841  0.017275532 -0.00069203815 -0.029042898 -0.0073190403    0.5260783   0.53650429  0.061532167  0.066666667    1.6706917        1e-08 1.5383042e-10    65.006649     2.498388         70.1 -0.0015486778 -0.096308337 -0.011239269   0.11431805    0.7697746  -0.98814978 
  152000    4.2919644    1.2758243    3.0161401  -0.14204136   0.85064028   0.99060301   0.76356232   -1.2465374            1   0.61879728   0.90256918   0.89029839  0.063524272 -0.0036772353 -0.0090454528 -0.0097511733   0.54890392   0.56228785  0.061510602  0.066666667    1.6785508        1e-08 1.5377651e-10     65.02944    2.4901827         70.1 0.0068656656  -0.13138145  0.011754394   0.11173533  -0.31320138   -1.4053146 
  153000     4.296164     1.298845     2.997319  -0.14749842   0.86598904    1.0156611   0.77286284   -1.2465374            1   0.57979716   0.86404741    0.8791308 -0.0037867111 0.0023872338  0.016897106  0.016021787   0.50905247   0.52185828   0.06152949  0.066666667    1.6670038        1e-08 1.5382373e-10    65.009477    2.4903603         70.1 0.00014876177  -0.10628971 -0.0030693726   0.10756046  -0.19017628   -1.2572848 
  154000    4.3001463    1.2873303     3.012816  -0.14071168   0.85831172    1.0384059   0.74622501   -1.2465374            1   0.60817554   0.90181861   0.88563291  0.037075118 -0.0016822445  0.019824492  0.012070071   0.53986917   0.54893917  0.061531199  0.066666667    1.6799984        1e-08  1.53828e-10    65.007672      2.51084         70.1 0.0077356284  -0.10959445 0.0041379674  0.087643178    0.5547541   -0.2670758 
  155000      4.26309    1.2645571    2.9985329  -0.15439155   0.84312799   0.97746277   0.75955608   -1.2465374            1   0.56277534   0.84810163   0.85400934 -0.013784947 0.00031116165  0.010493656  0.001519188   0.49324869    0.5070155  0.061506941  0.066666667    1.6847591        1e-08 1.5376735e-10    65.033311    2.4768468         70.1  0.019111623  -0.11288306 0.0030427661  0.099948864    1.1435354  -0.64187455 
  156000    4.2707446    1.2633555    3.0073891  -0.14027671   0.84232682     1.011186   0.73723906   -1.2465374            1   0.60137367   0.87485513   0.88521755  0.044048318 0.0013501968 -0.0038839852 -0.002198483   0.53388983   0.54369007  0.061531707  0.066666667    1.6847293        1e-08 1.5382927e-10    65.007135    2.4825747         70.1 0.0011211647  -0.10710834 -0.0050322813   0.10353312     2.113082   0.90068086 
  157000    4.2639959     1.256765     3.007231  -0.14620039   0.83793268    1.0050568   0.73392543   -1.2465374            1    0.5388722   0.83660155   0.83879136 -0.058776293 0.0022295278  0.037558195  0.019384695   0.47169168   0.48153824  0.061534336  0.066666667    1.6775787        1e-08 1.5383584e-10    65.004358    2.4997328         70.1 -0.010545316  -0.12023636 0.0074623369  0.098709418  -0.25423472   -2.5936846 
  158000    4.2782513    1.2701678    3.0080835  -0.14797876   0.84686885    1.0150369   0.74221261   -1.2465374            1     0.633995   0.90419175   0.91316927  0.084623979 -0.00028508311  0.017309051 -0.0072711774    0.5660559   0.57609173  0.061541603  0.066666667    1.6777917        1e-08 1.5385401e-10    64.996682    2.4870196         70.1 0.0012847333 -0.097523082 -0.0030153521  0.093158847    1.7795072    1.4462802 
  159000    4.2372436     1.238566    2.9986775  -0.14613789   0.82579876   0.98130815   0.72902776   -1.2465374            1   0.56675094    0.8506375   0.87655733 -0.026942011 -0.0025590645 -0.0096207572 -0.024858152   0.50001873   0.51077173  0.061523856  0.066666667    1.6832394        1e-08 1.5380964e-10    65.015431    2.4929152         70.1 -0.0012509462  -0.12548602 0.0063371367  0.085321833    1.6575903   0.14214711 
  160000    4.2737354    1.2862281    2.9875073  -0.14273816   0.85757687    1.0138654    0.7603258   -1.2465374            1   0.66058326   0.93479834   0.94121236   0.10573909 0.0029143924 -0.025756542 -0.0075242309   0.59098615   0.60274681  0.061513249  0.066666667    1.6723511        1e-08 1.5378312e-10    65.026642    2.4886224         70.1 0.0045411509  -0.10218008 0.0070244024  0.083462567  -0.68933565    2.5662682 
  161000     4.295223     1.278368     3.016855  -0.14478503   0.85233624   0.99727126   0.76215982   -1.2465374            1   0.56796033   0.85083539   0.86170393 -0.0086583274 -0.00064570437 -0.0017588451 -0.0040407606   0.49819534    0.5110705  0.061517591  0.066666667     1.656912        1e-08 1.5379398e-10    65.022052      2.47632         70.1 -0.0076035097 -0.079706944  0.011885368   0.11350986   0.44578257    2.5655431 
  162000    4.2991433    1.2860293    3.0131141  -0.14966055   0.85744429    1.0165353   0.75844672   -1.2465374            1   0.54224667   0.84303681   0.84433484 -0.060631632 -0.00024888799 -0.023791909 -0.014167973   0.47282157   0.48425792  0.061507267  0.066666667    1.6546111        1e-08 1.5376817e-10    65.032966    2.4921796         70.1 0.0072507721  -0.09352069 -0.0059497346  0.081409147    1.5364486   -1.5643945 
  163000    4.2751064    1.2619021    3.0132043  -0.13927465   0.84135781   0.99007313   0.74882359   -1.2465374            1   0.59268994   0.88878679   0.87841765  0.010865377 0.0030082963 0.0086218736   0.03390038    0.5241457   0.53621073  0.061541139  0.066666667    1.6539422        1e-08 1.5385285e-10    64.997172    2.4870488         70.1 0.0051225232 -0.093923846 -0.0013374817   0.10196351   0.45781132  -0.13933631 
  164000    4.2565082    1.2630908    2.9934173  -0.14276164   0.84215039   0.98800886    0.7513967   -1.2465374            1   0.58799045    0.8696792   0.88438126 0.0099109102 0.0045262729  0.011888289   0.01711645   0.51921068     0.531629  0.061558968  0.066666667    1.6521695        1e-08 1.5389742e-10    64.978347    2.5249934         70.1 0.0034368002 -0.078417303 -0.0075163789  0.090879825    2.1611734    1.4752125 
  165000    4.2868093    1.2741847    3.0126246  -0.14351219   0.84954705    0.9852023   0.76515334   -1.2465374            1   0.55307238   0.84541858   0.85713237   -0.0433338 -0.00080919671 0.0031048693  0.008390026   0.48303338   0.49687103  0.061527511  0.066666667    1.6544121        1e-08 1.5381878e-10    65.011569    2.4812154         70.1 0.0023821757  -0.10076444 -0.0060584231   0.10341104  -0.22171066    1.2049696 
  166000    4.2523662    1.2323503    3.0200159  -0.14752581   0.82165451   0.97327439   0.72730675   -1.2465374            1   0.54854038    0.8470837   0.84505938 -0.046521939 -0.0019439514 -0.049961675 -0.026028571    0.4819657   0.49301946  0.061512467  0.066666667    1.6577235        1e-08 1.5378117e-10    65.027468    2.4815401         70.1 0.0089585236 -0.094396564 -0.0056304709   0.10358364     0.926502  -0.69527065 
  167000    4.2839347    1.2763768     3.007558  -0.13994085   0.85100862    1.0081718   0.75321134   -1.2465374            1   0.58788672   0.86725781   0.87757959  0.018822761 0.0069975934 0.0075680352 -0.0074235086   0.51894084   0.53037507  0.061543762  0.066666667    1.6621139        1e-08 1.5385941e-10    64.994402    2.5112775         70.1  0.014273955  -0.10316082 -0.0049838464  0.075024606   0.96188951      1.70496 
  168000    4.2661596    1.2534284    3.0127312  -0.14751514   0.83570806   0.99423549   0.73705793   -1.2465374            1   0.52109988   0.82606927    0.8242269 -0.086996518 -0.0028240654 -0.0097947083 -0.0070153153   0.45363262   0.46438323  0.061503854  0.066666667    1.6532127        1e-08 1.5375963e-10    65.036575    2.4768218         70.1 0.0050032503 -0.071780866 -0.0098343758   0.10678867 -0.084566383   -1.6733782 
  169000    4.2654693      1.26654    2.9989293  -0.14480515   0.84445003   0.98312515   0.75817345   -1.2465374            1   0.57254263   0.86175294   0.86030302 -0.0044280693 0.0016923885  -0.01134489  0.013002242   0.50314254   0.51645977  0.061519849  0.066666667    1.6588625        1e-08 1.5379962e-10    65.019665     2.493323         70.1 0.0084475282  -0.10015444 -0.0059896954  0.083513699   0.50891356    2.0838651 
  170000    4.2951234    1.2821435    3.0129799  -0.14322516   0.85485352      1.01072     0.757865   -1.2465374            1   0.55769266   0.84676345    0.8505853  -0.02427077 0.0046854951  0.027766687 -0.0017123223   0.48832081   0.50003564  0.061543349  0.066666667    1.6578851        1e-08 1.5385837e-10    64.994838    2.5163691         70.1 -0.0059070105  -0.11040854   0.00329615   0.10420693  -0.48177654    1.3359647 
  171000    4.2843288    1.2660551    3.0182737  -0.14901533   0.84412678   0.98230657   0.75815883   -1.2465374            1   0.51782434   0.82163115   0.83100016 -0.099158299 0.0012047572 -0.0083178596 -0.011169437   0.44842559   0.46178818  0.061551095  0.066666667    1.6386307        1e-08 1.5387774e-10    64.986658    2.5052595         70.1 -0.011999083 -0.097303929  0.001657954   0.10164704   -2.2723089   0.04304357 
  172000    4.2885094     1.275589    3.0129204  -0.14767135   0.85048337    1.0019261   0.75625099   -1.2465374            1    0.6113225   0.89418738   0.88816291  0.051617188 0.00083449694 -0.0006575973  0.028896983   0.54209838   0.55416713   0.06152926  0.066666667    1.6290474        1e-08 1.5382315e-10    65.009721    2.4870301         70.1 -0.0075713178 -0.095149179 -0.010851396   0.10908955  -0.70634393    1.8157231 
  173000     4.276281    1.2790522    2.9972287  -0.15621844   0.85279244    1.0135686   0.75274383   -1.2465374            1   0.55975877   0.85526152   0.85539395 -0.031379152 -0.0035132045 -0.005820519  0.003992262   0.49085569   0.50193925  0.061545725  0.066666667    1.6359158        1e-08 1.5386431e-10    64.992328    2.4941761         70.1 0.0059970479  -0.10034972 -0.0032545351  0.080220392   -0.9624589    2.1736296 
  174000    4.2700219    1.2557065    3.0143154  -0.15051574   0.83722697   0.99550383   0.73873326   -1.2465374            1   0.59766719    0.8822801    0.8834387   0.02728275 -0.0042626272 0.0053470621  0.014407219   0.53004657   0.54087818  0.061523251  0.066666667    1.6509932        1e-08 1.5380813e-10     65.01607    2.4869967         70.1 0.00025897255  -0.12520201 0.0092590514   0.12182676    1.3280885   0.87967312 
  175000    4.3058568    1.2835069    3.0223499  -0.14715099   0.85576251    1.0173744   0.75519358   -1.2465374            1   0.50948864   0.81158099   0.82337963  -0.10649469 -0.00059730275 -0.019965167 0.0019008038   0.44036132   0.45145202  0.061514086  0.066666667    1.6446246        1e-08 1.5378522e-10    65.025757    2.4946023         70.1 0.0023470985  -0.10586476  0.013076651   0.12185406    2.5479242   -2.8878217 
  176000    4.2613946    1.2483266     3.013068  -0.14509561   0.83230651   0.99032018   0.73397597   -1.2465374            1   0.52207077   0.84019192   0.82279563 -0.096775255 -0.0015127172 0.0052418925  0.023530211   0.45488561   0.46557747  0.061511944  0.066666667    1.6485454        1e-08 1.5377986e-10    65.028021    2.4775814         70.1 0.0030128333 -0.097562781 0.0061494916  0.092422283   0.17063577   -2.3902304 
  177000    4.2564379    1.2414162    3.0150217   -0.1434877   0.82769905   0.98920048   0.72719412   -1.2465374            1   0.59620163   0.87912521   0.87688451  0.032595182 -0.0054210753 -0.017970453 0.0064377369   0.52963727   0.53977221  0.061512183  0.066666667    1.6456706        1e-08 1.5378046e-10    65.027769     2.472281         70.1 0.0075841993  -0.10580517  0.012973988  0.079600212    2.2522167   -1.3091894 
  178000    4.2707381     1.263866    3.0068721  -0.13656722   0.84266719   0.99926044   0.74522366   -1.2465374            1    0.5938304   0.89102621   0.86777385  0.022691124 -0.0039635714  0.010522142 -0.000740018   0.52561568   0.53682709  0.061520476  0.066666667      1.64527        1e-08 1.5380119e-10    65.019003    2.4828952         70.1 -0.0053726003  -0.10433294 -0.0016468767   0.09466277   0.96606797  0.051562914 
  179000    4.3208805    1.2936125     3.027268  -0.14349294   0.86250032    1.0238166   0.76211681   -1.2465374            1   0.54875802   0.84070989   0.84823441 -0.042670238 0.0025864076  0.036633327  0.013373357   0.47899697    0.4903539  0.061535057  0.066666667    1.6435778        1e-08 1.5383764e-10    65.003596     2.499453         70.1 0.0016341634 -0.085611027 -0.012802709    0.1000948  -0.96995714    1.3955044 
  180000     4.278625    1.2803041    2.9983208  -0.14813693   0.85362713    1.0192398   0.75056456   -1.2465374            1   0.54213272   0.84700071   0.83672211 -0.057324676 -0.0067413518 -0.006036223 -0.0068255586   0.47342911   0.48398968  0.061526986  0.066666667    1.6401419        1e-08 1.5381746e-10    65.012124    2.5111718         70.1 -7.7782798e-05  -0.11088702 -0.0079123974  0.078977942   0.37414898   0.40471085 
  181000    4.2547737    1.2498408    3.0049329  -0.14905819   0.83331608    1.0085068   0.72428094   -1.2465374            1   0.62087113   0.89721648   0.89791417  0.067482736 -0.0019553851  0.032071818 -0.011750272   0.55457342   0.56334037  0.061507403  0.066666667    1.6342772        1e-08 1.5376851e-10    65.032823    2.4881048         70.1 0.00060791243 -0.096241845 -0.011474676   0.10752869   -2.0989095   0.74943007 
  182000    4.2623607    1.2667916    2.9955691   -0.1527289   0.84461783   0.99487372    0.7511241   -1.2465374            1   0.58592686   0.86811089   0.88055477 0.0091149114 -0.007462117 -0.012327419  0.035582054   0.51717203    0.5291738  0.061558571  0.066666667    1.6231332        1e-08 1.5389643e-10    64.978766     2.503632         70.1 0.0071794589 -0.079025548 -0.0053140124  0.092167009  -0.87649163  -0.51420032 
  183000    4.2995025    1.2825784     3.016924   -0.1464539    0.8551435     1.005124   0.76182319   -1.2465374            1   0.57975528   0.86955135   0.86941763  0.000296851 -0.0050117893  0.020225448 -0.0083481829    0.5100211   0.52241748  0.061547124  0.066666667    1.6266645        1e-08 1.5386781e-10    64.990852    2.5090745         70.1 0.0083370227 -0.081750562  0.010340377   0.12758017   -1.4850325   -1.8569036 
  184000     4.297136    1.2644363    3.0326997   -0.1437505   0.84304743   0.99360381   0.74936616   -1.2465374            1    0.5361022   0.83201689   0.84719428 -0.070904568 0.0018410551  0.042759989 0.0063213606    0.4675083   0.47942159  0.061528009  0.066666667    1.6291917        1e-08 1.5382002e-10    65.011042    2.4942668         70.1 0.0097129273  -0.12002397 -0.0029969362  0.092031343  -0.91195146   -2.6155293 
  185000    4.2835871    1.2496613    3.0339258  -0.14967813   0.83319637   0.98319139   0.73986324   -1.2465374            1   0.60732111   0.88285188   0.88504468  0.054066771 -0.0065175081  0.051987611 -0.010288216   0.53959706   0.55123447  0.061513501  0.066666667    1.6449993        1e-08 1.5378375e-10    65.026375    2.4832196         70.1 0.0037982328  -0.11919277 0.00031689514  0.087816789   -1.1090306  -0.16608823 
  186000    4.2503547    1.2531401    2.9972146  -0.14708778   0.83551582   0.96757607    0.7533601   -1.2465374            1   0.54701302    0.8376075   0.85525754 -0.051825989 0.0014402885  0.038754142 0.0028503348   0.47805352   0.49181717   0.06153686  0.066666667    1.6575271        1e-08 1.5384215e-10    65.001692    2.4941885         70.1 -0.0044310858 -0.098272005 0.0077978412  0.099726772   -1.4109416  -0.37469652 
  187000    4.2578411    1.2821456    2.9756956  -0.14724652   0.85485488    1.0142522   0.75566595   -1.2465374            1   0.59699241   0.88589155   0.88387371  0.021211985 -0.0010998867  0.037494057  0.013690409   0.52782185    0.5391339  0.061536104  0.066666667    1.6540961        1e-08 1.5384026e-10     65.00249    2.4902933         70.1  0.013676991  -0.13616618 0.0042988007  0.082485883    -1.300248    2.4337523 
  188000    4.2690578    1.2515247    3.0175332  -0.14730518   0.83443877   0.99115232   0.73691884   -1.2465374            1   0.54698405   0.83867214   0.84521701 -0.042936985 -0.0056403221  0.012708931  0.031057877   0.47952952   0.49044328   0.06149765  0.066666667    1.6331392        1e-08 1.5374412e-10    65.043136    2.4797464         70.1 0.0011344234 -0.087264976 0.00045558856   0.10836447   -1.9162816    1.1418367 
  189000    4.2818264    1.2580378    3.0237886  -0.13029191   0.83878134   0.99828877   0.73952101   -1.2465374            1   0.56099841   0.85552629   0.86125769 -0.033788749 -0.0051019278  0.041130263 -0.024343727   0.49330569   0.50405054  0.061524572  0.066666667    1.6223214        1e-08 1.5381143e-10    65.014674    2.5036346         70.1 -0.00058156591 -0.095547444 -0.0011667369  0.095830732   -2.8967325   -1.1851324 
  190000    4.3196972    1.2771589    3.0425383  -0.14634492   0.85153005     1.006142   0.75532282   -1.2465374            1   0.52487679   0.82627206   0.82655867 -0.078200347 0.0033435954  0.058188333 0.0030736917   0.45573764   0.46748093  0.061546236  0.066666667    1.6286241        1e-08 1.5386559e-10    64.991789    2.4851572         70.1 0.0018555463  -0.10167508 -0.0039497498    0.1003169   -1.3280795   -1.5158825 
  191000    4.2630841    1.2641175    2.9989665  -0.14486026   0.84283491   0.99416888     0.748669   -1.2465374            1   0.60335936   0.88376355   0.88668156  0.039632972 -0.0027478076  0.072356724  0.027683293   0.53482927   0.54664651  0.061520321  0.066666667    1.6199209        1e-08 1.538008e-10    65.019167    2.4880444         70.1 -0.0018064419 -0.098790341 0.0038301556  0.081372285   -2.6001471  -0.69529505 
  192000    4.2890721    1.2782787    3.0107935  -0.15123963   0.85227667    1.0105388   0.75379474   -1.2465374            1    0.6087918   0.90048493   0.89266051  0.033229971 0.0094733718  0.059021862 0.0011663074   0.53979252   0.55114512  0.061544556  0.066666667     1.610706        1e-08 1.5386139e-10    64.993563    2.5257815         70.1 0.0039000696 -0.096478413 -0.00060072501   0.11790076   -0.8441964    1.2432194 
  193000    4.2663526    1.2631578    3.0031948  -0.14178796   0.84219502   0.99610242   0.74642523   -1.2465374            1   0.60288011   0.89570211   0.87420337  0.038734854 -0.0017142247  0.038086568  0.025754149    0.5345554   0.54605696  0.061525356  0.066666667    1.6282192        1e-08 1.5381339e-10    65.013846    2.5099936         70.1  0.011867867  -0.12294427 -0.0033499244   0.11144542   0.89148243    3.2213099 
  194000    4.2807887    1.2664239    3.0143647  -0.14316193   0.84437269   0.99443215   0.75100132   -1.2465374            1   0.58745636   0.88020642   0.88001284 0.0021498229 0.0013218281 -0.00043448695 0.0059064428   0.51871278   0.53072849  0.061536211  0.066666667    1.6174418        1e-08 1.5384053e-10    65.002377    2.5078481         70.1 -0.0020081474 -0.096772404 0.0066733156  0.092629366  -0.63244182   0.08885629 
  195000    4.2698757    1.2651941    3.0046816  -0.15133109   0.84355271   0.99967334   0.74640386   -1.2465374            1   0.49391419    0.8030245   0.80029941  -0.12158134 -0.0031472881 -0.015413916  0.014089838   0.42559144   0.43688733  0.061512651  0.066666667    1.6136138        1e-08 1.5378163e-10    65.027274    2.4781906         70.1 0.0047180222 -0.097507074 0.0022312919  0.096603351 -0.058364622   -1.8737929 
  196000    4.2514366    1.2491876     3.002249  -0.14359816   0.83288055   0.98487853    0.7382991   -1.2465374            1   0.56369193   0.86396844   0.84918157 -0.022074227 -0.0053523832  0.028358554  0.013503841   0.49611106   0.50750905  0.061524541  0.066666667    1.6157181        1e-08 1.5381135e-10    65.014707    2.5024908         70.1 -0.0047091704   -0.1012947 0.00073309126   0.12064287  -0.45985587   0.41873376 
  197000    4.2790969    1.2544297    3.0246672  -0.13965872   0.83637565    0.9983844   0.73555606   -1.2465374            1   0.57630527   0.86766871   0.86334995 -0.0021028431 0.0013134884  0.044805622  -0.01482891   0.50897549   0.51935195  0.061509355  0.066666667    1.6188875        1e-08 1.5377339e-10    65.030759    2.4759085         70.1 -0.0025020501   -0.1022422 -0.0050131766   0.11730311   -1.8427233    1.8462008 
  198000    4.2536271    1.2563235    2.9973036  -0.15006604   0.83763832   0.99705807   0.73843243   -1.2465374            1   0.55812965   0.85399916   0.85577381 -0.035384004 -0.0043153454  0.030882222 -0.0017825489   0.49053658   0.50125199  0.061544316  0.066666667    1.6218559        1e-08 1.5386079e-10    64.993817    2.4942862         70.1 0.0063395401 -0.098731355 0.0053300846  0.099799513  -0.73349117  -0.38525235 
  199000    4.2668608    1.2655313    3.0013296  -0.14765218    0.8437775    1.0160598    0.7365567   -1.2465374            1   0.61179622   0.89508444   0.89153579  0.048768423 -0.0016369469  0.016582279 -0.019448394   0.54437483   0.55383459  0.061534012  0.066666667    1.6174311        1e-08 1.5383503e-10      65.0047    2.4968793         70.1 0.00027560293  -0.11440386 0.00011463649  0.096219479   0.60452178    2.9042623 
  200000    4.2909793    1.2772436    3.0137357   -0.1440256   0.85158658    1.0238221   0.74439624   -1.2465374            1   0.52526075   0.82088363   0.83354599 -0.078647375 -0.0048547546 -0.037440453 -0.0072846362   0.45712177   0.46685631  0.061550332  0.066666667    1.6174932        1e-08 1.5387583e-10    64.987464     2.515234         70.1  0.013253007 -0.083336329 -0.002064346  0.096058809   0.29917235    1.8617344 
  201000     4.287004    1.2839811    3.0030228  -0.14196395   0.85607873    1.0317383   0.74675533   -1.2465374            1   0.56395582   0.86197041   0.85460869 -0.024711648 -0.0071486469 -0.038892996 0.0031429688   0.49560089    0.5050998  0.061525259  0.066666667    1.6056268        1e-08 1.5381315e-10    65.013948    2.4942564         70.1  0.002759973 -0.073254994 0.0035983455  0.087970562   0.63809483    1.0604409 
  202000    4.3075258    1.2884718     3.019054  -0.14219882   0.85907285    1.0199821   0.75894243   -1.2465374            1   0.61724498   0.88996739   0.90363613  0.058131427 -0.0031479469 -0.0075426315 -0.018048056    0.5477745   0.55905961  0.061509583  0.066666667    1.6132721        1e-08 1.5377396e-10    65.030517    2.4889723         70.1 -0.0029148871 -0.095363947  0.012804069   0.11362619   0.31072537    2.1449902 
  203000    4.2514843    1.2650265    2.9864578  -0.14615884   0.84344096    1.0077473   0.74119073   -1.2465374            1   0.62625795   0.90533032   0.90312941  0.070314126 0.0025019997 -0.035479071   0.04693447   0.55841239   0.56877051  0.061527761  0.066666667    1.6150923        1e-08 1.538194e-10    65.011304    2.4902683         70.1  0.011448766  -0.11183432 0.00053440972   0.09132096      2.73713    4.6886039 
  204000    4.3010108    1.2663587     3.034652  -0.14372463    0.8443292    1.0167856   0.73699999   -1.2465374            1   0.54862404   0.84166451   0.84954328 -0.045335665  0.003312234 -0.020998173 -0.00074879579   0.48116209   0.49062101   0.06150761  0.066666667    1.6271334        1e-08 1.5376903e-10    65.032603    2.4819181         70.1 0.0040042758  -0.10911249 0.0030899152  0.089983598    1.7999494    1.0671479 
  205000    4.2827222    1.2587869    3.0239353  -0.15001478   0.83928077   0.99835409   0.74029105   -1.2465374            1   0.58411572   0.85975033   0.87675688   0.01583994 -6.0715272e-05 -0.0032334648 -0.022872973   0.51635251   0.52716412   0.06153087  0.066666667    1.6295525        1e-08 1.5382717e-10     65.00802    2.4890432         70.1 0.00036022309  -0.10970879 -4.7450467e-05  0.088599765   0.89427241   -1.0376831 
  206000    4.2929212    1.2862168    3.0067044   -0.1439279   0.85756932    1.0204135   0.75623277   -1.2465374            1   0.51054032   0.81759956   0.81702252  -0.10300113 0.0026806542  0.020182992 0.0062411025   0.44131787   0.45233033  0.061504604  0.066666667    1.6355991        1e-08 1.5376151e-10    65.035782    2.4836847         70.1  0.015058507 -0.085137688 -0.005662319   0.10989208    1.5578551   -2.0318254 
  207000    4.2791327    1.2581328    3.0209998  -0.14100443    0.8388447   0.98395873   0.74855439   -1.2465374            1    0.5413142   0.83320032   0.84536709 -0.054624818 -0.00022403842  0.046371908 -0.012230806    0.4727946   0.48518379  0.061527167  0.066666667    1.6325402        1e-08 1.5381792e-10    65.011932    2.4772922         70.1 0.0043318004  -0.10534681  0.010043976    0.1240649  -0.30062698   -1.9659321 
  208000    4.2377865    1.2505588    2.9872277  -0.14319416    0.8337948   0.98160208   0.74182517   -1.2465374            1   0.57822392     0.865714   0.87332462 -0.0043668554 -0.0065934652  0.009152737 -0.033217061   0.51032029   0.52222795  0.061501885  0.066666667    1.6307613        1e-08 1.5375471e-10    65.038657    2.4778388         70.1 -0.0053820066  -0.10175376 0.0024459381  0.088940061  -0.61069946   -1.2446887 
  209000    4.2693908    1.2484079    3.0209829  -0.14181549   0.83236071   0.96350172   0.75077732   -1.2465374            1   0.59562548   0.88460319   0.87944815  0.022825102 -0.0025182742 -0.0028877005 -0.018836296    0.5269024   0.54066205  0.061499733  0.066666667    1.6163337        1e-08 1.5374933e-10    65.040933    2.4739424         70.1 0.0057462507 -0.096238917 -0.0041165002  0.097703686  -0.93048808   -2.0611307 
  210000    4.2726908    1.2590812    3.0136096  -0.14983286   0.83947701   0.99534815   0.74248294   -1.2465374            1   0.56572748   0.85749884   0.85092984 -0.011246229 0.0022274504 -0.0046579243 0.0018393599   0.49776364   0.50894736  0.061545958  0.066666667    1.6140445        1e-08 1.5386489e-10    64.992083    2.4888182         70.1 0.0031542182 -0.076368684 -0.0059221597  0.098776688   -1.0828996   0.27083081 
  211000    4.2786528    1.2698866    3.0087662  -0.15181439   0.84668134   0.99969242   0.75147092   -1.2465374            1   0.57214305   0.86271938   0.85979415 -0.0060843918 -0.0023528704 -0.018768941  0.031279046   0.50335648    0.5151151  0.061516772  0.066666667     1.607566        1e-08 1.5379193e-10    65.022918    2.4973209         70.1 -0.0023862138 -0.097594916 -0.016449815  0.096137318   -1.1740289  -0.60433473 
  212000    4.2839534    1.2659621    3.0179913  -0.13735154   0.84406474   0.99253769   0.75168205   -1.2465374            1   0.62103735   0.90115427   0.89831596  0.063641807 0.0012666314  -0.03042092 -0.0027439976   0.55223145   0.56441755  0.061496883  0.066666667    1.6111198        1e-08 1.5374221e-10    65.043947    2.4753958         70.1 -2.4484019e-05  -0.11433459 -0.016013563  0.095090225  -0.60714601   0.30052526 
  213000    4.2886957    1.2558445    3.0328511  -0.14308968     0.837319   0.98546598   0.74513828   -1.2465374            1    0.6282187   0.89871809   0.90695632  0.078981677 -0.00085315163  0.035234913  0.013158169   0.56001179   0.57200231  0.061544614  0.066666667    1.5896204        1e-08 1.5386154e-10    64.993502    2.4888645         70.1 0.0094617439   -0.1121554  0.019680033   0.10059651   -1.0077554    2.0335149 
  214000    4.3132588     1.285123    3.0281358  -0.14295668   0.85684003   0.99864745   0.76861353   -1.2465374            1   0.53065798   0.83374608   0.82945251 -0.071224653 -0.00099372581 0.0035326599 -0.0070122767   0.46030225   0.47368965  0.061536391  0.066666667    1.5835264        1e-08 1.5384098e-10    65.002187    2.4837444         70.1 -0.0049184212  -0.10646023 -0.0043994432   0.10439779  -0.73888865  -0.23255271 
  215000    4.2907152     1.278094    3.0126213  -0.14616591   0.85215354    0.9909358    0.7658115   -1.2465374            1   0.58539891   0.87792462   0.86805601  0.010216087 -0.0054589144   0.01933972  0.015481691   0.51529966   0.52887049  0.061491129  0.066666667    1.5852717        1e-08 1.5372782e-10    65.050034    2.4675219         70.1 -0.0033085296 -0.099708312 0.0057746589  0.089288319   0.64260053    1.4700508 
  216000    4.2714491    1.2586407    3.0128085  -0.14531318   0.83918327    1.0007801    0.7386209   -1.2465374            1    0.5530672   0.85343688   0.84271437  -0.03694966 -0.00051608467 -0.0054867753 0.0033483006   0.48545687   0.49597721  0.061514329  0.066666667    1.6032825        1e-08 1.5378582e-10      65.0255    2.4827984         70.1 -0.014097433   -0.1179435 -0.00049954806   0.10443195    0.6308237  -0.20497729 
  217000    4.2500902    1.2416719    3.0084183  -0.14064198   0.82786958   0.98319837    0.7312115   -1.2465374            1   0.55297673   0.85104729   0.85233931 -0.044456404 0.00064191261  0.011739168 -0.0039023457   0.48604463    0.4968897  0.061525217  0.066666667    1.6237201        1e-08 1.5381304e-10    65.013992    2.4831965         70.1 -0.0090667373  -0.10148321 0.0022197915   0.11257603   0.27518358    1.3684425 
  218000     4.286132    1.2614574    3.0246746  -0.13964486   0.84106129   0.98949049   0.74870533   -1.2465374            1   0.56676318   0.84955787   0.86255758 -0.011825892  0.003793231 0.0062531847 0.0030317412   0.49822977   0.51031721   0.06152147  0.066666667    1.6166027        1e-08 1.5380367e-10    65.017952    2.4879431         70.1 -0.0023754614 -0.094202858 0.0052102943  0.092849894  -0.23613247    1.0230961 
  219000     4.262495    1.2627991    2.9996959  -0.14205552   0.84195586   0.99279705    0.7480969   -1.2465374            1   0.63609196   0.90738634   0.92329077  0.077598765 0.00028881172 -0.0027026047 0.0085021876   0.56761423   0.57945736  0.061527245  0.066666667    1.6275139        1e-08 1.5381811e-10     65.01185    2.4918231         70.1 -0.0019259331  -0.09218548 0.0079588228   0.09692122  -0.09654091    1.2638562 
  220000     4.253599    1.2455922    3.0080068  -0.14298286   0.83048337    1.0046084   0.72211184   -1.2465374            1   0.60922004   0.89306672   0.87846715  0.056126251 0.00028129749 0.00093211696 -0.019023561   0.54312089   0.55191166  0.061511414  0.066666667    1.6271818        1e-08 1.5377853e-10    65.028582    2.4810299         70.1  0.010519058 -0.093938603  0.015688195     0.113334  -0.74210199   -2.2982951 
  221000    4.2395781    1.2482154    2.9913627  -0.14628695   0.83223236   0.98079212   0.73979351   -1.2465374            1   0.51486506   0.81697901   0.82260511 -0.094988951 -0.0038758644 -0.018422188 -0.024361222   0.44714739   0.45891529  0.061541909  0.066666667    1.6250918        1e-08 1.5385477e-10    64.996358    2.5152096         70.1  0.010489121 -0.085458042 0.0036170617   0.10243138  -0.32955134   -4.8546945 
  222000    4.2660201     1.266058    2.9999621  -0.14319671   0.84412872    1.0162548   0.73700531   -1.2465374            1   0.51155876   0.81296536   0.81271157  -0.09100067 0.0044096486 -0.017884551 0.0024030729   0.44409631     0.453586   0.06155179  0.066666667    1.6314135        1e-08 1.5387947e-10    64.985925    2.4881835         70.1  0.012107833   -0.1068936 -0.0040143503   0.10108388   -1.5896883   -1.9544995 
  223000    4.2852684    1.2851525    3.0001159  -0.14075729   0.85685971    1.0049932   0.76469076   -1.2465374            1   0.60340442   0.88745246   0.88038185  0.042378949 -0.0032080551 -0.045219153   0.01248937   0.53340776   0.54607409  0.061532982  0.066666667    1.6257543        1e-08 1.5383246e-10    65.005788    2.4939785         70.1 -0.011636123 -0.088458661 -0.0041551992    0.0937561  -0.84149302     3.800178 
  224000    4.2890794    1.2737423    3.0153371  -0.14342294   0.84925211    1.0132718   0.74718154   -1.2465374            1   0.57513779    0.8684285   0.86799937 -0.011014499 0.0067961569 -0.052474507  0.007543956   0.50674385    0.5173352  0.061533475  0.066666667     1.615688        1e-08 1.5383369e-10    65.005268    2.4994059         70.1 -0.0063301565 -0.098188769  0.015733581  0.090418359   0.76353416    2.1965301 
  225000    4.2668489    1.2411767    3.0256722  -0.14826536   0.82753942   0.98238027   0.73118537   -1.2465374            1   0.62422605   0.90556356   0.89849651  0.068618086 0.0040393403 -0.020883787 0.0046967411   0.55729634   0.56818569  0.061542576  0.066666667    1.6126045        1e-08 1.5385644e-10    64.995655    2.5110286         70.1 0.0070984991 -0.089262274 0.0040814708   0.11655851  -0.24673109    1.6410212 
  226000    4.2629333    1.2533582    3.0095752  -0.14551003   0.83566123   0.99435447   0.73690776   -1.2465374            1   0.53241786   0.82607511   0.83905765 -0.067879173 0.0020926452  0.029837189  0.010797604   0.46496435   0.47569442  0.061515297  0.066666667    1.6114825        1e-08 1.5378824e-10    65.024477    2.4814076         70.1  0.014610914  -0.09884673 0.0053436939   0.12928053  -0.73319489  -0.75645757 
  227000     4.288822    1.2759248    3.0128972  -0.14433239   0.85070729    1.0038755   0.75539963   -1.2465374            1   0.55175658   0.84558954   0.85042353 -0.040743327 0.0052580126 0.00091222431  0.020366012    0.4826104   0.49449001  0.061536934  0.066666667    1.5881187        1e-08 1.5384234e-10    65.001613    2.5014562         70.1 -0.012848323 -0.090331905 -0.0051554913    0.1023808   0.55684697    -2.270134 
  228000     4.258795    1.2447048    3.0140902  -0.14516592    0.8298917   0.97023552   0.74257266   -1.2465374            1   0.57639815   0.86197281   0.86269232 0.0045293121 -0.0058438865 -0.045182607 -0.021822599   0.50842609   0.52105059  0.061550372  0.066666667    1.5832325        1e-08 1.5387593e-10    64.987422    2.5141042         70.1 0.0055449114 -0.097925482 0.0019820454   0.11674625   0.21267776    3.5501829 
  229000    4.2470378    1.2624659    2.9845719  -0.14586857   0.84173368   0.99613668   0.74565495   -1.2465374            1   0.55410668   0.85183758   0.85007585 -0.039593396 -0.0054582278 -0.010767749  0.019994844   0.48585248   0.49728157  0.061514991  0.066666667    1.5879473        1e-08 1.5378748e-10      65.0248    2.4877353         70.1  0.011443047  -0.11209868 0.0042791149   0.10011115    1.3781041  -0.14468075 
  230000    4.2623634     1.252793    3.0095704  -0.14658595   0.83528444   0.99340239   0.73688943   -1.2465374            1   0.57079085   0.86528651   0.85942129 -0.012335268 -0.0061025056 -0.034072598  0.022873064   0.50333901   0.51412172   0.06151661  0.066666667    1.5968927        1e-08 1.5379153e-10    65.023089    2.4838966         70.1 0.0038159107 -0.086529085 -0.0027987692  0.099759028   0.94964357   -1.0303061 
  231000    4.2885495     1.276838    3.0117115  -0.14525069   0.85131612   0.99952789   0.75909744   -1.2465374            1   0.55329063   0.84863131   0.85205694 -0.040816355 0.00083825908 -0.020727348  0.018963027   0.48380596   0.49627207  0.061560737  0.066666667    1.5914356        1e-08 1.5390184e-10     64.97648    2.5088384         70.1 0.0054318998   -0.0942535 -0.0034205995  0.092025866   0.39233195   -2.1898195 
  232000    4.2874806    1.2617029    3.0257777  -0.14896981   0.84122496   0.99446057   0.74587366   -1.2465374            1   0.62647436     0.894582   0.90623284  0.078608242 -0.0008233701 0.0079899295 0.0041637944   0.55820014   0.56974487  0.061524076  0.066666667     1.601031        1e-08 1.5381019e-10    65.015198    2.4841093         70.1 0.0015920378  -0.10251003 -0.011426583   0.11065148   0.89702406  -0.88742645 
  233000    4.2969636    1.2770696     3.019894  -0.14373866   0.85147054    1.0043966   0.75631396   -1.2465374            1   0.55263991    0.8400267   0.84324379  -0.02535075 0.0068767159 0.0007030272 0.0093033984   0.48341003   0.49534362  0.061531922  0.066666667    1.5945336        1e-08 1.538298e-10    65.006908    2.4909135         70.1 -0.0079536941  -0.10564894 0.0041212204   0.10919272  -0.26869283  -0.53481558 
  234000    4.2442307    1.2298661    3.0143646  -0.14102794   0.81999818   0.96329943   0.73083433   -1.2465374            1   0.58665651   0.86404991   0.87782867  0.018090948 -0.00011219826  0.024534552 -0.012570588   0.51975893   0.53170462     0.061539  0.066666667    1.6033751        1e-08 1.538475e-10    64.999431    2.4923354         70.1  0.011782754 -0.074196597 -0.015765918  0.095514932   0.74068079    2.2805645 
  235000    4.2738076    1.2556526     3.018155  -0.14762749   0.83719103   0.98841857   0.74309047   -1.2465374            1   0.58030225    0.8730472   0.86896367 -0.0011041092 -0.00035852354  0.025453741 -0.032882804    0.5122828   0.52391743  0.061533213  0.066666667     1.598405        1e-08 1.5383303e-10    65.005544    2.4985327         70.1  0.013867508  -0.10861671 -0.0050280078  0.076676778  -0.49941605    2.8502521 
  236000     4.297764    1.2849133    3.0128507  -0.14222263   0.85670024    1.0043402   0.76483887   -1.2465374            1   0.59973547   0.88054903   0.88608294   0.03257444 0.0024235542 -0.0041440081  0.015057132   0.52972525   0.54244239  0.061509775  0.066666667    1.5924618        1e-08 1.5377444e-10    65.030314    2.4824002         70.1 -0.0050863701  -0.09033922 0.0026398239   0.10310981    0.4579604    3.8577369 
  237000    4.2660033    1.2688545    2.9971488  -0.15260413   0.84599325   0.98794526   0.75767475   -1.2465374            1   0.51221991   0.81540387   0.81707988 -0.095824035 0.0033850082  0.020224006 0.0058406856   0.44286546   0.45586208  0.061524064  0.066666667    1.5790163        1e-08 1.5381016e-10    65.015211    2.4969133         70.1 0.0019970831 -0.097469048 0.00087319258  0.095186785  -0.28702271   -3.4082587 
  238000    4.2656323    1.2689005    2.9967318  -0.14990019   0.84602389    1.0099664   0.74400087   -1.2465374            1   0.61963769   0.90138506   0.89607759  0.061450432 0.00034159378 0.0084747246 2.0990761e-05    0.5515349   0.56202366   0.06149838  0.066666667    1.5703612        1e-08 1.5374595e-10    65.042363    2.4794088         70.1 -0.00080299365  -0.08513728 -0.0041182579   0.09819734   -1.0363758    3.1291774 
  239000    4.2979939    1.2884056    3.0095884  -0.15503781   0.85902866    1.0124424   0.76356943   -1.2465374            1   0.60161587   0.88946137   0.88543574  0.029950506  0.004885318  0.034363186  0.013672176   0.53172185    0.5438606   0.06154516  0.066666667      1.56985        1e-08 1.538629e-10    64.992925    2.5084628         70.1 0.0071584848  -0.10295138 -0.0064182503   0.10061991   -1.5615313    2.3508599 
  240000    4.2961929    1.2696011    3.0265917  -0.14030743   0.84649105    1.0086352   0.74558882   -1.2465374            1   0.54641304   0.83659064   0.85902153 -0.056373045 0.0027498599   0.02826967 0.0065539446    0.4781649   0.48887495  0.061509241  0.066666667    1.5741599        1e-08 1.537731e-10    65.030879    2.4851173         70.1 -0.010780097  -0.12188741  0.012194263   0.10856778 -0.029657517   0.42432779 
  241000    4.2890922    1.2821672     3.006925  -0.14694587   0.85486933    1.0011127   0.76387799   -1.2465374            1   0.61221644   0.88741332   0.89533931  0.053896704  0.004242869 -0.016290101 0.0058346609   0.54229418   0.55510748  0.061500477  0.066666667    1.5712212        1e-08 1.5375119e-10    65.040146    2.4839723         70.1 -0.0085895705  -0.13192167 0.0037782804   0.12333916   0.94620868    2.4092333 
  242000    4.2941018    1.2727729    3.0213289  -0.14487606   0.84860575   0.99149863   0.75970135   -1.2465374            1   0.61206392   0.87975351   0.89289375  0.063544497 -0.00050977099  -0.01858204 -0.0038613368   0.54252397   0.55550339  0.061545236  0.066666667    1.5847859        1e-08 1.5386309e-10    64.992845    2.5118202         70.1 -0.0027713402 -0.099903289  0.011356059  0.097340516    1.3163564    3.5008408 
  243000    4.2644713    1.2553379    3.0091334  -0.14555215   0.83698121    1.0128588   0.72751861   -1.2465374            1   0.54017918   0.83506672   0.84520716 -0.059736339 0.0063965142   -0.0397729 -0.023475539   0.47358511   0.48240015  0.061525059  0.066666667    1.5645252        1e-08 1.5381265e-10     65.01416    2.4903612         70.1 0.0013700541 -0.094740098 -0.011183182   0.10673269    1.4249316    1.2695849 
  244000    4.2859022    1.2550767    3.0308255  -0.13167238   0.83680707    1.0020474   0.73397362   -1.2465374            1   0.60455397   0.89036848   0.88896304  0.034330391 -0.0037415936 -0.012497308  0.012332201   0.53736903   0.54739168  0.061520648  0.066666667    1.5596763        1e-08 1.5380162e-10    65.018821    2.4927298         70.1 -0.0012387221 -0.092888197 -0.0017025497   0.10300532    1.7465275   0.31047516 
  245000    4.2693759     1.276819    2.9925569  -0.14447369   0.85130344   0.99950374   0.75909192   -1.2465374            1    0.6022573   0.89586894   0.88380357  0.027099385 -0.00099245692 -0.044101099 -0.014528841   0.53277314   0.54524012  0.061530902  0.066666667    1.5604075        1e-08 1.5382726e-10    65.007986    2.4963815         70.1 -0.0040728634 -0.090556335  0.010677012   0.10255094    1.2787784  -0.36407615 
  246000     4.293153     1.275575     3.017578  -0.14172295   0.85047403    1.0072559   0.75291431   -1.2465374            1   0.53455053   0.83875828   0.82179045 -0.056897138 -0.0026093841  0.013942106  0.025224595   0.46563184   0.47709112  0.061545008  0.066666667     1.569472        1e-08 1.5386252e-10    64.993086    2.5069923         70.1 0.0065469081 -0.091488513 -0.0023988299   0.10222714   0.30054928 -0.0048528139 
  247000    4.2978126    1.2726661    3.0251464  -0.13875213   0.84853458   0.99357218   0.75829358   -1.2465374            1    0.5704271   0.86747041   0.85030949 -0.0064986147 -0.00038633764  0.020578905  0.014177299   0.50101601   0.51374828  0.061530351  0.066666667    1.5771275        1e-08 1.5382588e-10    65.008568    2.4852277         70.1 -0.0059825339  -0.13922523 -0.0036933643  0.094407752  -0.25332407     -1.49748 
  248000    4.2818305    1.2798946    3.0019359   -0.1477871   0.85335407    1.0245743    0.7467968   -1.2465374            1   0.61897375     0.904022    0.8961146  0.056784661 0.0059432719  0.029470112 -0.0076065214   0.55061503   0.56052641  0.061529256  0.066666667    1.5769033        1e-08 1.5382314e-10    65.009725    2.5071715         70.1 0.0034290929  -0.10273229 0.0035814188  0.080829401   -1.1374148   0.40855321 
  249000     4.296476    1.2740956    3.0223804   -0.1513678   0.84948769   0.98556758   0.76482933   -1.2465374            1   0.55765338   0.85098701   0.85086849 -0.028895348 -0.001566877  0.037427949 -0.0032805264   0.48764404    0.5014312  0.061547434  0.066666667    1.5816172        1e-08 1.5386858e-10    64.990525    2.4930915         70.1 -0.011242984 -0.082400627 -0.0023870743  0.091116537  -0.89410314  -0.78949553 
  250000    4.3040708    1.2902727    3.0137981   -0.1447812   0.86027353    1.0134514   0.76496154   -1.2465374            1   0.58169463   0.86914798   0.86855039 0.0073855059 -0.00035867935   0.02989378 -0.028296675   0.51167318    0.5238818  0.061518533  0.066666667    1.5747907        1e-08 1.5379633e-10    65.021057    2.4974929         70.1  0.010447553 -0.070227635 0.00043027511  0.073003171  -0.78028184   0.80693173 
  251000    4.2970808    1.2759653    3.0211155  -0.14205969   0.85073428    1.0147998   0.74863541   -1.2465374            1   0.58539366   0.86673881   0.86955069  0.019891473 -0.00013610187  0.064841912   0.01212361   0.51686664   0.52750391  0.061510072  0.066666667    1.5763382        1e-08 1.5377518e-10        65.03    2.4870076         70.1 -0.0080737545  -0.12611118 -0.011202216  0.089232689   -1.4818384  -0.21376166 
  252000     4.302667    1.2771711     3.025496   -0.1467325   0.85153822    1.0181059   0.74788009   -1.2465374            1   0.60738919   0.88596912   0.89077223  0.045426239 -0.00022649357  0.029298654 -0.0061611649   0.53893132   0.54931084  0.061511838  0.066666667    1.5763298        1e-08 1.537796e-10    65.028133    2.4899633         70.1 0.0006624066 -0.085300731 -0.012118087   0.09538739   0.11671362   0.68604804 
  253000    4.2751728    1.2491342    3.0260387  -0.14562997   0.83284495   0.97115311   0.74679503   -1.2465374            1   0.57694931   0.87171039   0.85909014 4.7392382e-05 -0.0011775762  0.033315382 0.0069839906   0.50859075    0.5215494  0.061532035  0.066666667     1.585625        1e-08 1.5383009e-10    65.006788    2.4987568         70.1 -0.00020491545   -0.1030801 0.0056782669  0.094274193  -0.76593963   -2.4182959 
  254000    4.2754231    1.2674706    3.0079525  -0.14690612   0.84507053    1.0061482   0.74483271   -1.2465374            1   0.55247508   0.85011958   0.84781314 -0.040507486 -0.0030131914 -0.010079053 -0.0095252315   0.48429614   0.49507886  0.061508886  0.066666667    1.5711186        1e-08 1.5377221e-10    65.031254    2.4912932         70.1 0.0085126185   -0.1037468  0.006239229  0.092569298  0.062684525  -0.64026521 
  255000    4.2690365    1.2660925     3.002944  -0.14041359   0.84415173   0.99461867   0.75052638   -1.2465374            1   0.56130433   0.85454274   0.85241414 -0.023043877 0.0054568221 -0.010141003 -0.0038995538   0.49260423   0.50456582    0.0615273  0.066666667     1.576769        1e-08 1.5381825e-10    65.011792    2.4913392         70.1 0.0040102449 -0.096069468  0.012959066   0.10691462  -0.75067603   -1.6929521 
  256000    4.2798323    1.2507159    3.0291164  -0.14397862   0.83389954   0.98283693   0.74122565   -1.2465374            1   0.55359895    0.8497701   0.83902516 -0.027998417 0.0027447299   0.02620318 -0.0032988545   0.48575019   0.49753253  0.061535431  0.066666667    1.5733312        1e-08 1.5383858e-10    65.003202    2.4883627         70.1 -0.0055704097   -0.1112108  0.002924609   0.11299713   -1.3212942   -1.7189017 
  257000    4.2733636    1.2592248    3.0141388  -0.15173084   0.83957274   0.98192783   0.75100194   -1.2465374            1   0.61445526   0.89439233   0.88605519   0.06291825 -0.00037813003  0.013835533 0.0039379772   0.54571162    0.5584407  0.061504996  0.066666667    1.5660287        1e-08 1.5376249e-10    65.035368    2.4829416         70.1 -0.0048512967  -0.11600867 -0.0052152875  0.097835204  -0.48393839    2.6440364 
  258000    4.2636312     1.268097    2.9955342  -0.15065603    0.8454882    1.0097788   0.74324811   -1.2465374            1   0.61233913   0.89008328   0.89633848  0.050595627 0.0019596389   0.06873789 -0.0089316171   0.54430524    0.5547358  0.061516388  0.066666667    1.5745825        1e-08 1.5379097e-10    65.023323    2.4850436         70.1 -4.2829618e-05   -0.1040817 0.00037768643   0.10312418   -3.1844309    3.5710805 
  259000    4.3009782     1.277736    3.0232421  -0.14836203   0.85191489     1.008615   0.75440634   -1.2465374            1   0.58181797    0.8774849   0.86576859  0.002200435 0.0022018193   0.02832789 -0.0042601061   0.51276271   0.52428104  0.061497333  0.066666667    1.5780843        1e-08 1.5374333e-10    65.043471    2.4807325         70.1 -0.010702439  -0.11746676 0.0024794488  0.094380345  -0.56021573     2.104792 
  260000    4.3016226    1.2830477    3.0185749  -0.14801978   0.85545635    1.0066643   0.76137119   -1.2465374            1   0.51932393   0.82140938   0.82080324 -0.084240833 0.0013764742  0.012043242  0.006431914   0.44963113   0.46189827  0.061521571  0.066666667    1.5819651        1e-08 1.5380393e-10    65.017846    2.4992182         70.1 -0.0034285452  -0.11936451  0.005807113  0.083931077    1.0404008    0.8474105 
  261000    4.2572796    1.2660952    2.9911844  -0.14531554   0.84415351   0.97645354   0.76184985   -1.2465374            1   0.57630313   0.86103262    0.8696517 -0.0017749333 -0.0011070724  0.051604957 -0.012319828   0.50656652   0.52060086  0.061537359  0.066666667    1.5777015        1e-08 1.538434e-10    65.001164     2.503449         70.1 0.0063407621  -0.12444737 -0.005745342  0.098719996  -0.81096563    1.3167772 
  262000    4.2805641    1.2815458    2.9990182  -0.15125603   0.85445503   0.98489745   0.77331082   -1.2465374            1   0.56431013   0.84920604   0.86423997 -0.020515619 0.0010151999  0.015293004  0.020363395   0.49352443   0.50812617  0.061520749  0.066666667    1.5774507        1e-08 1.5380187e-10    65.018714    2.5038944         70.1 0.0050837489 -0.097577429 0.0022125182   0.10449976    1.8416903   -1.8276612 
  263000    4.2721727     1.274637    2.9975357  -0.15372701   0.84984863   0.99484495   0.75963358   -1.2465374            1    0.5852387   0.86875229   0.87541424  0.011549556 0.00023204846 0.00065938545 -0.017754061   0.51570495   0.52848728  0.061510421  0.066666667    1.5683717        1e-08 1.5377605e-10    65.029632    2.4813828         70.1 -0.0064093944  -0.12087046 0.0034776722  0.084373106    0.7860675   0.46392696 
  264000    4.2333972    1.2541078    2.9792894  -0.14177293   0.83616106   0.99982554   0.73430957   -1.2465374            1   0.60921646   0.90006924   0.88883659  0.038743543 -0.003702426 -0.022139801 0.0065955823   0.54200077   0.55218092   0.06153325  0.066666667    1.5709398        1e-08 1.5383313e-10    65.005505    2.5040398         70.1 0.0022801711  -0.12030832 -0.00049016808  0.096218807    1.4772589   0.62297648 
  265000    4.2750176    1.2736239    3.0013937  -0.15297119   0.84917315    1.0002954    0.7551403   -1.2465374            1   0.65421345   0.92133958   0.92363596   0.11766481 0.0041115067 -0.062553847 0.0030872534     0.585091   0.59715111  0.061523144  0.066666667    1.5661031        1e-08 1.5380786e-10    65.016183    2.4940857         70.1 -0.0015891313 -0.081734464 -0.0079489385  0.093135617    1.4072791  -0.19162812 
  266000    4.2605658    1.2658956    2.9946702  -0.14841029    0.8440204   0.99789202   0.74827322   -1.2465374            1   0.56248339   0.86483955   0.85725115 -0.034640538 0.0025168582 -0.094040345 0.0094918158   0.49398952   0.50555815  0.061552255  0.066666667    1.5676778        1e-08 1.5388064e-10    64.985434    2.5127475         70.1  0.002358428 -0.092977945 -0.020579691    0.1032179     -0.52882   -1.9640268 
  267000    4.2638555     1.271084    2.9927716  -0.14127866   0.84747969    1.0195111   0.74041588   -1.2465374            1   0.54462259   0.84881901   0.83784817 -0.052799402 0.0067903967 -0.077714622 -0.0035518488   0.47684796   0.48646408  0.061524831  0.066666667    1.5711036        1e-08 1.5381208e-10      65.0144    2.4808152         70.1 -0.0045455071 -0.091064077   0.00425227   0.11114087   0.89400946    -3.370978 
  268000    4.2870305    1.2853047    3.0017258  -0.13914462   0.85696123    1.0058964   0.76429268   -1.2465374            1   0.59265471   0.87631094   0.87839205  0.023261137 -0.0039502691 -0.064379876  0.028749695   0.52269449   0.53527285  0.061497473  0.066666667     1.588656        1e-08 1.5374368e-10    65.043323    2.4811227         70.1 -0.0096174888 -0.089526269 0.0042904531  0.091042989   0.51453235    1.8007601 
  269000    4.2631486     1.262235    3.0009135  -0.14677964   0.84157977    1.0076557   0.73822641   -1.2465374            1   0.58546634    0.8831032   0.86711346 0.0061823445 -0.0021536441 -0.061028238  -0.03554941   0.51789212   0.52798412  0.061523653  0.066666667    1.5794525        1e-08 1.5380913e-10    65.015646    2.4909374         70.1 0.0036204419   -0.0929083 -0.0096124681   0.11431271   -1.2775296   -1.2211341 
  270000    4.2911591    1.2648813    3.0262778   -0.1453608   0.84334413    1.0110329   0.73898597   -1.2465374            1   0.60017589   0.88452508   0.88143981  0.034562786 0.0036744517 -0.037579569  0.014872959   0.53253215   0.54250103  0.061514778  0.066666667    1.5687416        1e-08 1.5378694e-10    65.025025    2.4872123         70.1 -0.0023295722 -0.083590142 0.0044792805   0.12037661   0.70635804   -1.6392342 
  271000    4.2960091    1.2700148    3.0259943  -0.14547327   0.84676685    1.0063715   0.74744734   -1.2465374            1   0.53152675   0.83715711   0.83110205 -0.073678902 -0.0073176956 -0.038844514  0.020695231   0.46310849    0.4741178  0.061535894  0.066666667    1.5766441        1e-08 1.5383974e-10    65.002712    2.4928664         70.1 -0.0020799705  -0.10356724 0.0077922737  0.098273594   0.49532362   -2.0625789 
  272000    4.2638261    1.2456148    3.0182113  -0.14075356   0.83049843    1.0016716   0.72396654   -1.2465374            1   0.62387583   0.90171179   0.89230393  0.077611768 0.0020113512 -0.0098418772 -0.026882043    0.5576069   0.56673498  0.061509189  0.066666667    1.5790456        1e-08 1.5377297e-10    65.030934    2.4943857         70.1 0.0051716392  -0.09142415 0.0084810797  0.098679697    1.0411231   0.24617843 
  273000    4.2436122    1.2475546    2.9960576  -0.14121254   0.83179179   0.99146352   0.73242785   -1.2465374            1   0.62531158   0.90091567   0.90743558  0.067583476 -0.0048696769 -0.0010353988 -0.00035069576   0.55826813   0.56875305  0.061545164  0.066666667    1.5826857        1e-08 1.5386291e-10    64.992921    2.5118071         70.1 0.0013330688  -0.11137703 -0.014391304   0.11334233    1.2078738    1.2535402 
  274000    4.2688453    1.2690998    2.9997455  -0.15126359    0.8461568   0.98056072   0.76254233   -1.2465374            1   0.54891387   0.83571406   0.85128026 -0.040252692 0.0031148619 -0.053455807 0.0010968893   0.47911388   0.49297731  0.061510531  0.066666667     1.584497        1e-08 1.5377633e-10    65.029515    2.4850569         70.1 -0.00040138878 -0.095383677 -0.0029004127   0.10276759    2.1624873   -2.9219958 
  275000    4.2693858    1.2710286    2.9983571  -0.15243622   0.84744281    1.0138729   0.74386977   -1.2465374            1   0.55442821   0.83999063   0.86139072  -0.03809673 -0.00076410068 -0.036405939   0.02503326   0.48633742   0.49659133  0.061510806  0.066666667    1.5902192        1e-08 1.5377702e-10    65.029224    2.4847612         70.1 -0.009249484  -0.12042681 0.0054440436    0.1023714   0.56502037   -2.5322057 
  276000    4.2537346    1.2533664    3.0003682  -0.14227564   0.83566673   0.98104915    0.7452086   -1.2465374            1     0.558904   0.86378071   0.85073081 -0.037799536 -0.0075042564 -0.072095675 -0.010373034   0.49069065   0.50293956  0.061521134  0.066666667    1.5880293        1e-08 1.5380284e-10    65.018307    2.4929485         70.1  0.016683445  -0.10580178 -0.0068421097   0.10144153   -1.4139503    -3.637668 
  277000     4.279032    1.2820339     2.996998   -0.1395099   0.85478045    1.0152101   0.75494817   -1.2465374            1   0.60129747    0.8874767   0.88045378  0.035961921 -0.0022518088  -0.04640439 -0.025667608   0.53219261   0.54338431  0.061523104  0.066666667    1.5948188        1e-08 1.5380776e-10    65.016225    2.5033802         70.1 -0.0053188008  -0.12732081 -0.0085343711   0.09206939   -1.3568094  -0.15294355 
  278000    4.2387693    1.2378628    3.0009065  -0.14461514   0.82532992   0.99749196   0.71818085   -1.2465374            1   0.57113494   0.85978502   0.86327731 -0.0096575294 -0.0037705567 -0.077386228 0.0044437038    0.5053956   0.51423252  0.061520084  0.066666667    1.6047477        1e-08 1.5380021e-10    65.019418    2.5046368         70.1 -0.0040615153 -0.089311155 -0.0074858539  0.095066619   0.33268566   0.44152601 
  279000    4.2308486    1.2472031    2.9836455  -0.14796098   0.83155743   0.99646521   0.72893032   -1.2465374            1   0.58658426   0.86782858   0.88484338 0.0070808263 0.00038598441 -0.052132738   0.01858104   0.51986097   0.52974042  0.061550332  0.066666667    1.6126185        1e-08 1.5387583e-10    64.987464    2.4980936         70.1 0.0038588461  -0.12630805 0.00063109662  0.075994365   0.28902655    2.0924246 
  280000    4.2973751    1.2600423    3.0373329  -0.14282893   0.84011777   0.99354402   0.74464748   -1.2465374            1   0.50173318    0.8049776   0.80780414   -0.1075822 0.0035008399 -0.011128433 -0.015922286    0.4335712   0.44505597  0.061510859  0.066666667    1.5927199        1e-08 1.5377715e-10    65.029169    2.4806452         70.1 -0.015323172  -0.10924658 0.0017584999  0.078825942    2.4508811 -0.0056942091 
  281000     4.280991    1.2597984    3.0211926  -0.14535746   0.83995516   0.97184147   0.75790861   -1.2465374            1   0.54013144   0.84028614   0.83313294 -0.053024773 -0.0041792526 0.00052184077 -0.0038914994   0.47075559   0.48469226  0.061531087  0.066666667    1.5849416        1e-08 1.5382772e-10    65.007791    2.4987547         70.1 -0.0096543586 -0.095461466 0.0069306946  0.091482674    1.8108852   0.20430176 
  282000    4.2602313    1.2818583     2.978373  -0.14837915   0.85466337    1.0112002   0.75725706   -1.2465374            1   0.62119866   0.89867563   0.90474092  0.060179414 -0.0030874201 -0.0059240266 -0.007679047   0.55188245   0.56351425   0.06153953  0.066666667    1.5759478        1e-08 1.5384882e-10    64.998872    2.5100783         70.1 -0.0044254513  -0.10150857 0.0039145734  0.089079061   0.23737159    3.7520028 
  283000    4.2735344    1.2669621    3.0065724  -0.15542254   0.84473148    1.0102194   0.74174513   -1.2465374            1   0.53194334   0.82839513    0.8383144 -0.070879502 -0.0015749074  0.057026894 -0.0042475805   0.46404703   0.47431488  0.061538655  0.066666667    1.5781978        1e-08 1.5384664e-10    64.999795    2.5042402         70.1 -0.0077927718 -0.078927363 0.0053537029   0.11896808   -0.7814001    1.6258423 
  284000    4.2733134    1.2492455    3.0240679  -0.14255374   0.83291917   0.97488587   0.74458926   -1.2465374            1   0.57549102   0.86685682   0.86360265 -0.0039863989 0.0067188081 -0.0072175708  0.019838935   0.50733438   0.51987818  0.061524775  0.066666667     1.571694        1e-08 1.5381194e-10     65.01446    2.5024371         70.1 0.0035667506 -0.087784732 -0.00032005269  0.082746146   -0.8185089   0.67636942 
  285000    4.2792097    1.2635484    3.0156613  -0.14376972   0.84245544    0.9941885   0.74804075   -1.2465374            1   0.53815003   0.84315838   0.83435938 -0.063067679 -0.001467858 -0.00019463338    0.0223972   0.46967744   0.48143605  0.061522359  0.066666667    1.5634668        1e-08 1.538059e-10    65.017012    2.4875883         70.1 -0.0038493332 -0.097045584 0.0039884787  0.092745815   -2.0758328   0.32876244 
  286000    4.3030196    1.2690695    3.0339501  -0.13519863    0.8461366   0.99257148   0.75502439   -1.2465374            1   0.54994415   0.83934302   0.85266113 -0.042171692 -0.0054204929  0.018417528 0.0056513864   0.48083231   0.49332242  0.061498243  0.066666667    1.5631818        1e-08 1.5374561e-10    65.042509    2.4818503         70.1 -0.0075852728  -0.10424274 0.0075270704   0.12638199   -2.0134133   0.25830528 
  287000    4.3059131    1.2850234    3.0208897  -0.13884098   0.85677365    1.0274718   0.75054231   -1.2465374            1   0.59253365   0.87939078   0.87446303  0.023747134 -0.0033908961 0.0013864962  0.039173732   0.52383208   0.53392101  0.061525259  0.066666667    1.5568534        1e-08 1.5381315e-10    65.013949    2.5007273         70.1 -0.0068863279  -0.10965658 -0.0005752093  0.091817987    -1.375202    2.6152394 
  288000    4.3013849    1.2791816    3.0222032  -0.14637476   0.85287872   0.99518956    0.7643378   -1.2465374            1   0.56856673   0.85893496   0.86658671 -0.019821482 -0.00094631078  0.031847437  0.032698254   0.49860238   0.51179565   0.06150459  0.066666667    1.5525608        1e-08 1.5376148e-10    65.035796    2.4796459         70.1 0.0051367853 -0.084561984 0.0038399988   0.10103313  -0.84728084   -1.0873855 
  289000    4.2690012    1.2618058    3.0071954  -0.14531909    0.8412936   0.98576086   0.75140679   -1.2465374            1    0.5609833   0.85348807   0.85318792 -0.023726082 -0.0010288714  0.035346062 -0.00084220195    0.4922026   0.50475009  0.061516812  0.066666667    1.5516975        1e-08 1.5379203e-10    65.022876    2.4845972         70.1 0.0018488999  -0.09969564  0.011745184   0.10534694   -1.2224906    1.1509025 
  290000    4.3017891    1.2983593    3.0034298   -0.1420125   0.86566519    1.0294129   0.76376697   -1.2465374            1   0.59871006    0.8814743    0.8919975  0.022658385 -0.002547766  0.015525926 -0.0097534668   0.52879796    0.5399867  0.061522642  0.066666667    1.5511866        1e-08 1.538066e-10    65.016714    2.4922334         70.1 -0.007460371  -0.10329493 -0.0080853649   0.12452213  -0.11048737    1.5610671 
  291000    4.2590506    1.2506793    3.0083713  -0.14848423   0.83387514    0.9962996   0.73279604   -1.2465374            1   0.55699203   0.85514435    0.8388231 -0.022991374 -0.0063423671 0.00067061536  0.039082181   0.48991488   0.50015763  0.061513937  0.066666667    1.5545599        1e-08 1.5378484e-10    65.025914    2.4815766         70.1  0.011587619  -0.10138442 -0.0081531508   0.10632507    1.5002431 -0.063787161 
  292000    4.2463454     1.245021    3.0013244   -0.1525342   0.83010254   0.99960775   0.72461004   -1.2465374            1   0.58056883   0.86404834   0.87217537  0.005482785 -0.0030202123  0.020443963 -0.020063631     0.514241   0.52354572  0.061509167  0.066666667    1.5658357        1e-08 1.5377292e-10    65.030957    2.4899688         70.1 0.0069552861    -0.111114 0.0098988327    0.0880442   0.95968163  -0.88414217 
  293000    4.2792586    1.2684451    3.0108135  -0.14075134   0.84572024    0.9938068   0.75357863   -1.2465374            1    0.6088348    0.8833158   0.89813884  0.045049764 0.0064394499 -0.021923829  0.022436125    0.5398553    0.5521426  0.061537344  0.066666667    1.5468901        1e-08 1.5384336e-10     65.00118    2.5055207         70.1  0.012405256  -0.11047163 -0.005694321  0.091914632    1.3563789   0.78295407 
  294000    4.2952203    1.2965403      2.99868  -0.14312258   0.86445237     1.014917     0.770832   -1.2465374            1   0.62216545   0.89831067   0.90264117  0.065544515 -0.0026201457  0.029687992 -0.0079258349   0.55160665   0.56426901  0.061536646  0.066666667    1.5444308        1e-08 1.5384161e-10    65.001918     2.501674         70.1 -0.0095721963   -0.1153602 -0.011368997   0.13669775 -0.018892676   0.21032464 
  295000    4.2709934    1.2669055    3.0040879  -0.14573985   0.84469375    0.9951409   0.75108083   -1.2465374            1    0.5964007   0.88694063   0.88688687  0.015374589 -0.0013091698  0.045683277  0.028566544   0.52764984   0.53963239  0.061529597  0.066666667    1.5387382        1e-08 1.5382399e-10    65.009364    2.4862129         70.1 -6.8832848e-05 -0.084427784 -0.0013529596   0.11075022   -1.2262505   -1.1294042 
  296000     4.303222    1.2745031    3.0287189  -0.14596132   0.84975939    1.0028174   0.75452027   -1.2465374            1   0.57251856   0.86429957   0.86313291 -0.0098767883  0.006343162  0.023189417 -0.018326662   0.50345287   0.51531236  0.061497745  0.066666667    1.5439709        1e-08 1.5374436e-10    65.043036    2.4810549         70.1 0.0017185978  -0.08285216 -0.0028246847  0.098876513   0.79950384   -1.4296565 
  297000    4.2950643    1.2871768    3.0078875  -0.14075497   0.85820938    1.0237479   0.75519381   -1.2465374            1   0.54003183   0.84500183   0.83550457 -0.060410896 -0.0022793494  0.031756657 -0.00013552603   0.47090449   0.48163163  0.061530037  0.066666667    1.5398795        1e-08 1.5382509e-10    65.008899    2.4953892         70.1 -0.0065553088 -0.075913347 -0.0014639762   0.08990712  -0.62876171   -3.3169448 
  298000     4.297642    1.2832108    3.0144312  -0.14274683   0.85556515    1.0012125   0.76494539   -1.2465374            1   0.55528563   0.83441447   0.84918396 -0.017741536 0.0021225564  0.044967386 0.0090734112   0.48526567   0.49817098  0.061513826  0.066666667    1.5452295        1e-08 1.5378457e-10    65.026031    2.4896573         70.1 -0.0091878849  -0.11456632 -0.00051258908   0.11465875   -1.2644095  -0.98446294 
  299000    4.2678641    1.2722698    2.9955943  -0.14797213   0.84827036    1.0006411   0.75345931   -1.2465374            1   0.56819809   0.86414278   0.85470254 -0.014251067 -0.00012533451  0.010630807 -0.024756257   0.49922951   0.51111603  0.061519365  0.066666667    1.5543615        1e-08 1.5379841e-10    65.020177    2.5000645         70.1 0.00089751276  -0.10650399 -0.0066112021  0.096363524  -0.91741466   -1.0164526 
  300000    4.2776007     1.268686    3.0089147  -0.14520876   0.84588086    1.0053414   0.74665098   -1.2465374            1    0.5853431   0.87253095   0.87821711 0.0052812389 -0.00045009746  0.026338547  0.017399435   0.51699773   0.52799291  0.061525158  0.066666667    1.5578183        1e-08 1.538129e-10    65.014055      2.48441         70.1 0.0010049405  -0.10383906 -0.0096192392  0.096330761   -1.2956478   0.34287436 
Loop time of 380.228 on 1 procs for 300000 steps with 9376 atoms

Performance: 340848.525 tau/day, 789.001 timesteps/s
99.5% CPU use with 1 MPI tasks x 1 OpenMP threads

MPI task timing breakdown:
Section |  min time  |  avg time  |  max time  |%varavg| %total
---------------------------------------------------------------
Pair    | 26.559     | 26.559     | 26.559     |   0.0 |  6.99
Bond    | 97.717     | 97.717     | 97.717     |   0.0 | 25.70
Neigh   | 104.45     | 104.45     | 104.45     |   0.0 | 27.47
Comm    | 7.7094     | 7.7094     | 7.7094     |   0.0 |  2.03
Output  | 0.47424    | 0.47424    | 0.47424    |   0.0 |  0.12
Modify  | 134.89     | 134.89     | 134.89     |   0.0 | 35.48
Other   |            | 8.424      |            |       |  2.22

Nlocal:    9376 ave 9376 max 9376 min
Histogram: 1 0 0 0 0 0 0 0 0 0
Nghost:    1726 ave 1726 max 1726 min
Histogram: 1 0 0 0 0 0 0 0 0 0
Neighs:    5538 ave 5538 max 5538 min
Histogram: 1 0 0 0 0 0 0 0 0 0

Total # of neighbors = 5538
Ave neighs/atom = 0.590657
Ave special neighs/atom = 6.92833
Neighbor list builds = 39004
Dangerous builds = 0
#undump      eq
undump       eqxyz

#--- Unfix Equil ---#

unfix abeads_edz
unfix bbeads_edz
unfix tbeads_edz

unfix freeze_tout


###############
# Compression #
###############


#--- Bring the brushes closer together fit the sim box ---#

variable       bbzmax  equal bound(bbeads,zmax)
variable       tbzmin  equal bound(tbeads,zmin)
displace_atoms  alltop move 0.0 0.0 -$(v_tbzmin - v_bbzmax) units box
displace_atoms  alltop move 0.0 0.0 -39.696485362212996506 units box
variable z_f equal bound(all,zmin)
variable z_c equal bound(all,zmax)
change_box all z final ${z_f} $(v_z_c + 0.1) units box
change_box all z final 0 $(v_z_c + 0.1) units box
change_box all z final 0 30.403514637787001362 units box
  orthogonal box = (0 0 0) to (30 30 30.4035)

print         "D = $D"
D = 25.3175692812198
print         "D = $(v_twzmin - v_bwzmax)"
D = 25.317569281219761024
info variables

#--- Computes ---#

# Number density profiles

compute         cabeads abeads chunk/atom bin/1d z lower ${binres} units reduced # Check bound keyword to maybe only bin melt area
compute         cabeads abeads chunk/atom bin/1d z lower 0.001 units reduced 
fix             abeads_cdz abeads  ave/chunk ${Neveryc} ${Nrepeatc} ${Nfreqc} cabeads density/number file abeads_cdz
fix             abeads_cdz abeads  ave/chunk 100 ${Nrepeatc} ${Nfreqc} cabeads density/number file abeads_cdz
fix             abeads_cdz abeads  ave/chunk 100 700 ${Nfreqc} cabeads density/number file abeads_cdz
fix             abeads_cdz abeads  ave/chunk 100 700 70000 cabeads density/number file abeads_cdz
compute         cbbeads bbeads chunk/atom bin/1d z lower ${binres} units reduced # Check bound keyword to maybe only bin melt area
compute         cbbeads bbeads chunk/atom bin/1d z lower 0.001 units reduced 
fix             bbeads_cdz bbeads  ave/chunk ${Neveryc} ${Nrepeatc} ${Nfreqc} cbbeads density/number file bbeads_cdz
fix             bbeads_cdz bbeads  ave/chunk 100 ${Nrepeatc} ${Nfreqc} cbbeads density/number file bbeads_cdz
fix             bbeads_cdz bbeads  ave/chunk 100 700 ${Nfreqc} cbbeads density/number file bbeads_cdz
fix             bbeads_cdz bbeads  ave/chunk 100 700 70000 cbbeads density/number file bbeads_cdz
compute         ctbeads tbeads chunk/atom bin/1d z lower ${binres} units reduced # Check bound keyword to maybe only bin melt area
compute         ctbeads tbeads chunk/atom bin/1d z lower 0.001 units reduced 
fix             tbeads_cdz tbeads  ave/chunk ${Neveryc} ${Nrepeatc} ${Nfreqc} ctbeads density/number file tbeads_cdz
fix             tbeads_cdz tbeads  ave/chunk 100 ${Nrepeatc} ${Nfreqc} ctbeads density/number file tbeads_cdz
fix             tbeads_cdz tbeads  ave/chunk 100 700 ${Nfreqc} ctbeads density/number file tbeads_cdz
fix             tbeads_cdz tbeads  ave/chunk 100 700 70000 ctbeads density/number file tbeads_cdz



#--- Fixes ---#
fix             freeze_tout twout setforce 0.0 0.0 NULL
fix             comp_tout twout aveforce 0.0 0.0 ${Fcatom}
fix             comp_tout twout aveforce 0.0 0.0 -1.24653739612188
fix             rwalls all wall/reflect zlo EDGE zhi EDGE




#--- Dumps ---#
#dump           comp all image ${Ndump_c} stg2.*.jpg type type zoom 2 view 60 120 bond none none
dump            cpxyz all xyz ${Ncomp} cp.xyz
dump            cpxyz all xyz 700000 cp.xyz

#--- Run Compression ---#
timestep    ${Tstep}
timestep    0.005
run         ${Ncomp}
run         700000
WARNING: Inconsistent image flags (src/domain.cpp:784)
Per MPI rank memory allocation (min/avg/max) = 9.94 | 9.94 | 9.94 Mbytes
Step TotEng KinEng PotEng E_pair Temp c_melTemp c_wallTemp v_Fcatom v_Pcomp2 Press Pxx Pyy Pzz Pxy Pxz Pyz c_melPress c_wallPress v_melDens v_surfcov v_aveRg v_Wall_v2 v_srate v_D v_bwzmax Zhi c_fbwall[1] c_fbwall[3] c_ftwall[1] c_ftwall[3] v_sbot v_pbot 
  300000    4.2776007     1.268686    3.0089147  -0.14520876   0.84588086    1.0053414   0.74665098   -1.2465374            1    1.3495989    2.0117549    2.0248652  0.012176712 -0.0010377692   0.06072759  0.040117085    1.1920181    1.2173692   0.15799305  0.066666667    1.5578183        1e-08 3.9498263e-10    25.317569      2.48441    30.403515 0.0010049405  -0.10383906 -0.0096192392  0.096330761   -1.2956478   0.34287436 
  301000    4.2777622    1.2743265    3.0034357  -0.15735921    0.8496416   0.98563557   0.76503681   -1.2465374            1    1.4845711    2.0744716    2.1296399   0.24960165 0.0078760307  0.073674689  0.089568267    1.3231099    1.3549332   0.16495894  0.066666667    1.5554136        1e-08 4.1239735e-10    24.248459    2.5074222    30.403515 0.0030189891 -0.089846712  0.021180065   0.18773453   -1.7736125  0.090815562 
  302000    4.2662707    1.2779039    2.9883668  -0.15806842   0.85202682    1.0195328   0.74778408   -1.2465374            1     1.372968    2.0540548    2.0114405  0.053408662  0.017529711  0.023120962 -0.046357753     1.215148    1.2388717   0.17118165  0.066666667    1.5546781        1e-08 4.2795412e-10    23.366991    2.4852031    30.403515 0.00039492641 -0.083513772 -0.00069938262   0.19703473   -1.4479306   -1.1859073 
  303000    4.2893306    1.2772002    3.0121304  -0.16053433   0.85155764    1.0005477     0.758854   -1.2465374            1    1.3522733    2.0173726    1.9983211  0.041126117 -0.024908728   0.04450663 0.0041364789     1.192117    1.2206741   0.17518661  0.066666667    1.5428093        1e-08 4.3796652e-10    22.832795    2.4866774    30.403515 0.0026921039  -0.10937637 -0.0012798684   0.16707238   -1.8701352   -1.5634638 
  304000    4.2681691    1.2716071     2.996562  -0.16037994    0.8478285    1.0048759   0.75010285   -1.2465374            1    1.5573082     2.152212    2.1517102   0.36800239 -0.00091299468 -0.0029231846 -0.021917362    1.3989989    1.4251397    0.1790042  0.066666667    1.5304599        1e-08 4.4751051e-10    22.345844     2.487188    30.403515  0.007228915  -0.11331578 -0.012722877   0.20050735  -0.29413868  -0.54519354 
  305000    4.2873734    1.2747933    3.0125801  -0.15867091   0.84995288    1.0247546     0.741163   -1.2465374            1    1.3488976    1.9965618    2.0187829  0.031348014 0.0094315093  0.088138517  0.016378141     1.192475    1.2141145   0.18306698  0.066666667    1.5161593        1e-08 4.5766746e-10    21.849926    2.5013375    30.403515  0.017313965 -0.097646192 0.0080162592   0.20180422   -2.1162159   0.83640897 
  306000    4.2381925    1.2546232    2.9835692  -0.15373313   0.83650471    0.9954115   0.73761831   -1.2465374            1    1.5154493    2.1335337      2.15104   0.26177401  0.014864733 0.0027518822   -0.0344493    1.3597748    1.3845256   0.18595059  0.066666667     1.517689        1e-08 4.6487649e-10     21.51109     2.515285    30.403515 0.0050770055   -0.1206111 0.0090347707   0.18355786    -2.184987   0.32649852 
  307000    4.2364546    1.2615448    2.9749098  -0.16602534   0.84111956   0.98576678   0.75112057   -1.2465374            1    1.3804861     2.025635    2.0384598  0.077363533 -0.00051225727  0.055807092   0.02222353     1.221962     1.250831   0.18977203  0.066666667     1.504961        1e-08 4.7443007e-10    21.077922    2.4838676    30.403515 -0.0037202776 -0.095731702 0.0059768633     0.186792   -0.2149672    1.0070025 
  308000    4.2608594    1.2808665    2.9799929  -0.16404911    0.8540021    1.0018097   0.76203574   -1.2465374            1    1.5796312    2.1819282    2.1894443   0.36752096 -0.0049504826  0.038013392 -0.053633531    1.4188034    1.4478659   0.19261738  0.066666667    1.5092157        1e-08 4.8154344e-10    20.766559    2.4930258    30.403515 0.0070795075   -0.1146131  0.026818013   0.18146817  -0.82892537    2.0523386 
  309000    4.2757078    1.2679452    3.0077627    -0.158168   0.84538695     1.000385   0.74893802   -1.2465374            1    1.4848463    2.1136345    2.0963062   0.24459815 0.0052507035  -0.13684645 -0.027065623    1.3267828    1.3532685   0.19607548  0.066666667    1.5107108        1e-08 4.901887e-10    20.400307    2.4917995    30.403515 -0.0034743574  -0.14194873 0.0040167224   0.17243093    1.2701524    -0.162165 
  310000    4.2743104    1.2596563     3.014654  -0.16357191   0.83986047   0.98897688   0.74707604   -1.2465374            1    1.4154836    2.0667314    2.0414394   0.13828014 -0.0050689101 -0.069063164 -0.022307677    1.2578131    1.2854063   0.19912208  0.066666667    1.5206333        1e-08 4.978052e-10    20.088179    2.4781192    30.403515 -0.0027731193 -0.095799002  0.005551961   0.19740389    1.0064721  -0.70246903 
  311000    4.2560944     1.261944    2.9941504  -0.15986551   0.84138572     1.001691   0.74162858   -1.2465374            1    1.4235437    2.0450791    2.0728541   0.15269791 -0.011122861 -0.068958755  0.037894868    1.2670229    1.2917941    0.2025345  0.066666667    1.5188459        1e-08 5.0633626e-10    19.749721     2.483723    30.403515 -0.0064799546 -0.095295809 0.0065302565   0.21536875   0.12664734  -0.56961031 
  312000    4.2663245    1.2654672    3.0008573  -0.16635866    0.8437348   0.98698187   0.75460883   -1.2465374            1    1.4732033    2.1113621    2.1023424   0.20590561 -0.014487259 -0.062996235 -0.071840469     1.313943    1.3433884   0.20568349  0.066666667    1.5185198        1e-08 5.1420872e-10    19.447356    2.4961925    30.403515  0.014813025  -0.10627696 -0.00050209384     0.146547  -0.99584014    2.1586441 
  313000     4.261306    1.2650188    2.9962873  -0.15818891   0.84343579    0.9903872   0.75200121   -1.2465374            1    1.3582279    2.0168147    2.0121186  0.045750486  0.018923207  0.030321019 -0.0085650035    1.1995179    1.2279651   0.20889863  0.066666667    1.5060144        1e-08 5.2224657e-10    19.148043     2.519051    30.403515 -0.0032043235  -0.10080475 0.0045624375   0.18855409   -2.1502083  -0.43430988 
  314000    4.2858608    1.2759178     3.009943  -0.16735104   0.85070263    1.0360416   0.73534606   -1.2465374            1    1.4334421    2.0706678    2.0842304   0.14542805 -0.0080964529   0.15811969 -0.011464084    1.2782472    1.2971744    0.2122091  0.066666667    1.5057024        1e-08 5.3052276e-10    18.849333     2.488933    30.403515 -0.011536322 -0.093533881 -0.0076541548   0.19727289   -1.7259446  -0.05401247 
  315000    4.2269754    1.2530677    2.9739077  -0.16498019    0.8354676   0.98538559   0.74218285   -1.2465374            1    1.4602746     2.087539    2.1030021   0.19028263 -0.0022210953   0.20932169 -0.041219265    1.3036368    1.3306696   0.21565757  0.066666667    1.5185609        1e-08 5.3914391e-10    18.547923    2.5106998    30.403515 -0.0046140551  -0.09456574 -0.014870493   0.18766175   -1.3939189   -1.2063416 
  316000    4.2480129    1.2678362    2.9801767  -0.16070675   0.84531428    1.0028053   0.74731172   -1.2465374            1    1.5123659    2.1287534    2.1476504     0.260694 -0.0013973913   0.10965208  -0.11342807    1.3546457    1.3804698   0.21832994  0.066666667    1.5097016        1e-08 5.4582486e-10    18.320895    2.4798167    30.403515 0.00079140791 -0.088654888  0.017869212   0.21501909  -0.39878228   0.19756587 
  317000    4.3006648    1.2942838     3.006381    -0.166396   0.86294791    1.0411193    0.7520603   -1.2465374            1     1.264036    1.9268798    1.9557591 -0.090530963  0.010104584   0.11568401 -0.025170976    1.1053135    1.1271005   0.22128086  0.066666667    1.5098755        1e-08 5.5320214e-10    18.076575    2.4732493    30.403515 -0.0035146059  -0.10257798 0.0013295115   0.16564423   0.61305323  -0.54840851 
  318000    4.2709146    1.2689579    3.0019567  -0.16362337   0.84606217    1.0083613   0.74506326   -1.2465374            1    1.4581304    2.0960202    2.0989475    0.1794235 -0.0014052038   0.10455958 -0.065262719    1.3008847    1.3255035   0.22521792  0.066666667    1.5182204        1e-08 5.6304479e-10    17.760576    2.4859368    30.403515 0.0096520417 -0.089316836 0.0010621453   0.20544502  -0.25266633   0.89572933 
  319000    4.2466074    1.2700211    2.9765863  -0.15475815   0.84677107   0.99122504   0.75689347   -1.2465374            1    1.4685618    2.0945607     2.116122   0.19500254 0.0090468131  0.087867733  0.037319989    1.3088193    1.3381887   0.22826917  0.066666667    1.5222023        1e-08 5.7067292e-10    17.523173    2.4961299    30.403515 -0.0040961453  -0.10403692 0.0081835023   0.16815544    1.1362248    1.5586059 
  320000    4.2445779    1.2644181    2.9801597  -0.15955563   0.84303534   0.99161598   0.75058535   -1.2465374            1    1.4456444    2.0842579    2.0967843   0.15589108  0.013664841  0.041216884 -0.039073054    1.2872333      1.31522   0.23245433  0.066666667    1.5191591        1e-08 5.8113581e-10    17.207681    2.4952574    30.403515 0.0057380184   -0.1145397  0.021139846   0.17650957   0.61065341    3.2530786 
  321000    4.2547666     1.272181    2.9825856  -0.16367153   0.84821113   0.98382873   0.76384065   -1.2465374            1    1.5038535    2.1452017    2.1033475   0.26301122  0.022088024 -0.061900283 -0.0065924753    1.3426448    1.3744532    0.2353194  0.066666667    1.5224475        1e-08 5.882985e-10    16.998174    2.4956382    30.403515 -0.0046913325  -0.11280637  0.012040977   0.19239695  -0.42413203    1.9548561 
  322000    4.2895515    1.2817858    3.0077657  -0.16006115   0.85461504    1.0109366   0.75734289   -1.2465374            1    1.3427822    1.9977146    2.0173982  0.013233928 0.0040780816  0.008288546  0.019595851    1.1829449    1.2098166   0.23922933  0.066666667    1.5144244        1e-08 5.9807333e-10    16.720358    2.5092086    30.403515 -0.004233019  -0.10785455 0.0050795704     0.219808    1.1777468  -0.55679237 
  323000    4.2689497    1.2828884    2.9860613  -0.16323368   0.85535015    1.0224096   0.75138621   -1.2465374            1    1.4958711     2.089182    2.1357453   0.26268606  -0.01121592  0.033519489 -0.016193682    1.3372909    1.3613964   0.24385295  0.066666667     1.510171        1e-08 6.0963237e-10    16.403328    2.5035852    30.403515 -0.0011933947 -0.094144811 -4.962363e-05   0.21390744  -0.22825583  -0.57843286 
  324000    4.2890107    1.2836731    3.0053377  -0.16253794   0.85587332    1.0032609    0.7641691   -1.2465374            1    1.3477389    1.9936649     2.011718  0.037833923 0.0073839289  -0.04888163 -0.094044991    1.1864609    1.2157829   0.24738139  0.066666667    1.5067405        1e-08 6.1845348e-10    16.169365    2.4837736    30.403515 -0.004495875   -0.1025572  0.010388824    0.1602053  -0.80174667    1.8685885 
  325000    4.2336525    1.2550143    2.9786383  -0.16167712   0.83676543   0.98905258   0.74200444   -1.2465374            1     1.501286    2.1498887    2.1075919   0.24637734 -0.0022714996 -0.042867717 -0.0093758355    1.3446858    1.3711987   0.25335803  0.066666667    1.5007508        1e-08 6.3339507e-10    15.787935    2.4929197    30.403515 -0.0048217434  -0.10812215 0.0082038638   0.21586633   -1.0829959   -2.9897443 
  326000     4.281339    1.2811871    3.0001519   -0.1633287   0.85421587   0.99265377    0.7680888   -1.2465374            1    1.4127935    2.0530984    2.0523759   0.13290626 -0.0049785864  0.083013966  0.012758195    1.2506883    1.2822326   0.25811244  0.066666667    1.5141588        1e-08 6.452811e-10    15.497122    2.4807448    30.403515 -0.0073676397 -0.094180696  0.013684283   0.24168616    -2.460237   -1.8315839 
  327000    4.2649664    1.2800309    2.9849354  -0.16474614   0.85344497     1.018101   0.75097857   -1.2465374            1    1.3876839     2.041127    2.0289176  0.093007201  0.019269245  0.063031327 -0.032282328    1.2291898     1.253776   0.26105297  0.066666667    1.5196878        1e-08 6.5263243e-10    15.322561    2.4894312    30.403515  0.014628947  -0.10506563 -0.001456669   0.20681586  -0.74885093   -5.5918895 
  328000    4.2491568    1.2657015    2.9834553  -0.16459846     0.843891    1.0126617   0.73885867   -1.2465374            1     1.354491    2.0113535    2.0157441  0.036375507 -0.011674655    0.1334911 0.0023429456    1.1985548    1.2212985    0.2654204  0.066666667    1.5145865        1e-08 6.6355101e-10    15.070431    2.5018537    30.403515 0.00073072201 -0.078940855  0.015575548   0.20612598   0.25626068   -1.5412877 
  329000     4.248182    1.2634123    2.9847697  -0.16523516   0.84236468   0.98400681   0.75423869   -1.2465374            1    1.5772974    2.1786426     2.180663   0.37258666  0.005656992   0.11253687  0.077477328    1.4181152    1.4478738   0.27211835  0.066666667    1.5182073        1e-08 6.8029588e-10    14.699486     2.504091    30.403515 -0.0059652511  -0.11754794 -0.0025368254   0.21045228  -0.58318245    1.3163252 
  330000    4.2620637    1.2687109    2.9933528  -0.16074572   0.84589749   0.99473953   0.75328509   -1.2465374            1    1.4158679    2.0429192     2.086935   0.11774949 0.0035321775  0.043326916 -0.048791223     1.256887    1.2850326    0.2761383  0.066666667    1.5045476        1e-08 6.9034576e-10    14.485495     2.507199    30.403515 -0.0028011157  -0.09860474  0.002575755   0.19053153  -0.46094913   0.43516197 
  331000    4.2968159      1.28785    3.0089659  -0.16534987   0.85865824    1.0312933   0.75122018   -1.2465374            1    1.3965382    2.0395816    2.0488776   0.10115535  0.007529311  0.044466167 -0.0037887233     1.237993    1.2608951   0.28064228  0.066666667    1.5068565        1e-08 7.0160571e-10     14.25302    2.4753703    30.403515  0.003301561 -0.077000117 -0.0031513482   0.18312432   -2.7730348  -0.10803973 
  332000    4.2741799    1.2863163    2.9878636  -0.17188403   0.85763564    1.0057727   0.76546465   -1.2465374            1    1.4088109    2.0372566    2.0510712   0.13810495 -0.0022974907  0.048420214  -0.05399512    1.2472595    1.2765245   0.28452893  0.066666667    1.5004343        1e-08 7.1132232e-10    14.058325    2.5012516    30.403515 -0.0051110871  -0.10898994 0.0052231631   0.19274099     -2.71034   -1.7949667 
  333000    4.2647688    1.2598687    3.0049001  -0.15676214   0.84000204    1.0071472   0.73598204   -1.2465374            1    1.4606745    2.1004028    2.0847666   0.19685413 -0.00050372383  0.055608836  0.017367313    1.3053454    1.3282073   0.28847988  0.066666667    1.4976047        1e-08 7.211997e-10    13.865785    2.4863014    30.403515 0.0074103644  -0.10314417  0.012915742   0.15039276   -2.2003894  -0.77816615 
  334000     4.288057    1.2751184    3.0129386  -0.16245544   0.85016961    1.0077374   0.75212004   -1.2465374            1    1.4192705    2.0655752     2.064913   0.12732342 0.0049851325  0.085331075  0.004042761    1.2605355    1.2867257   0.29545985  0.066666667     1.484997        1e-08 7.3864961e-10    13.538219    2.4783304    30.403515 0.0023980415  -0.13045643  0.018041956   0.17913226   -2.4925258   0.27418787 
  335000       4.2464    1.2623097    2.9840903  -0.16531247   0.84162957   0.99230421   0.74787435   -1.2465374            1    1.5662461    2.1554531    2.1709222   0.37236319 0.0094607092  0.058367844 -0.014850721    1.4084071    1.4357312   0.30107777  0.066666667    1.4791858        1e-08 7.5269442e-10    13.285604    2.4910688    30.403515 0.0028869415    -0.110889 -0.015347339   0.20567321   -1.5674616   0.87428829 
  336000     4.222778    1.2604297    2.9623483  -0.17055911   0.84037607   0.99877766   0.74180517   -1.2465374            1    1.4321306    2.0688226    2.0681229   0.15944637 -0.0054507117  0.098933357  0.035876894    1.2755725    1.3007642   0.30586041  0.066666667    1.4818782        1e-08 7.6465102e-10    13.077861    2.5016818    30.403515 -0.0021893538  -0.11217146 -0.0004139288    0.2217696   -1.5326788   0.18035532 
  337000    4.2304147    1.2727989    2.9576158  -0.17477331   0.84862312   0.98592698   0.76320183   -1.2465374            1    1.3866949    2.0254378    2.0669578  0.067688949 -0.0053643918    0.1017029 0.0009413699     1.225621    1.2570187   0.31001065  0.066666667    1.4832936        1e-08 7.7502662e-10    12.902783    2.5001024    30.403515 0.0029073773  -0.10932907 0.00043341408   0.17678978   -1.2456735  -0.20360354 
  338000    4.2449694    1.2626177    2.9823517  -0.17349272   0.84183495   0.98245058   0.75434857   -1.2465374            1    1.4437143    2.0707609     2.063949   0.19643293 -0.0086902313      0.12434  0.035076701    1.2845089    1.3144953   0.31659673  0.066666667    1.4677816        1e-08 7.9149184e-10    12.634369    2.5090732    30.403515 -0.0012223469 -0.088577653  0.010857107   0.18521902   -1.4139099    0.2568041 
  339000    4.2666635    1.2794679    2.9871956  -0.17081513    0.8530696    1.0008793   0.76110177   -1.2465374            1    1.4250093    2.0671036     2.056185   0.15173932  0.011219697   0.20612169  0.011140284    1.2643786    1.2933665   0.32232952  0.066666667    1.4528496        1e-08 8.0582379e-10    12.409661    2.4979598    30.403515   0.00085717  -0.10320662 -0.011228622   0.19449675   -1.9053456    2.1556471 
  340000    4.2240813    1.2569469    2.9671345  -0.16611229   0.83805395    1.0094481   0.73138567   -1.2465374            1    1.4663118    2.1080274    2.0890169   0.20189112 -0.0024676222   0.10808199 -0.017916271    1.3119528     1.333542   0.32860235  0.066666667    1.4496711        1e-08 8.2150588e-10    12.172767    2.4809706    30.403515  0.010213168  -0.10147251 -0.001178448   0.20254944   -1.3582408   0.76731542 
  341000    4.2714368    1.2680542    3.0033827  -0.16029354   0.84545961   0.99319649   0.75353588   -1.2465374            1    1.4653146    2.0897959     2.104991   0.20115685 -0.0028463475  0.096529563  0.072590386    1.3062807    1.3346823   0.33343605  0.066666667    1.4518362        1e-08 8.3359012e-10    11.996303    2.4860291    30.403515 0.0019176354  -0.10784857 -0.0066457566   0.17083606   -1.2356814   -1.9790852 
  342000    4.2896778    1.2828785    3.0067993  -0.16878041   0.85534353   0.99711248   0.76714074   -1.2465374            1     1.502732    2.1353533    2.1205343   0.25230833 0.0082876257  0.060865536  0.041914039    1.3408268    1.3715846   0.33982082  0.066666667    1.4382213        1e-08 8.4955206e-10    11.770909    2.4790795    30.403515 0.0070681216 -0.086881577 -0.013445439   0.20804014   -1.1885267 -0.010384663 
  343000    4.2396866     1.257152    2.9825347  -0.16135611   0.83819071    1.0013872   0.73663121   -1.2465374            1    1.4643481    2.1015135    2.0999176   0.19161309 -0.017303541 -0.039649398  0.083163441    1.3088819    1.3326384   0.34638992  0.066666667    1.4186053        1e-08 8.6597479e-10     11.54768    2.4846162    30.403515 -0.0025246233 -0.084958734 0.00089357198   0.17539984  -0.34416444   -2.6110404 
  344000    4.2595463    1.2814131    2.9781332  -0.17252211    0.8543665    1.0108022   0.75702321   -1.2465374            1    1.4678238    2.0903646    2.0927115   0.22039513 -0.010937698  0.028872184  0.083337625    1.3080539    1.3348758   0.35495344  0.066666667    1.4072926        1e-08 8.873836e-10    11.269084    2.5010225    30.403515 0.0012340062 -0.097202543 0.0052541798   0.23304997   -0.2860372  -0.36075284 
  345000    4.2384405    1.2515189    2.9869216  -0.17302515   0.83443496   0.98570522    0.7403073   -1.2465374            1    1.3655392     2.042643    2.0088773  0.045097381  0.011712015  0.022774321 0.0014249499    1.2092972    1.2358922   0.35994341  0.066666667    1.4178389        1e-08 8.9985852e-10    11.112858    2.4925938    30.403515   0.01159112 -0.086642938 0.0017308463   0.17482268  -0.46868777    1.2975746 
  346000    4.2770445    1.2765097    3.0005348  -0.16521221   0.85109723   0.99279946   0.76293528   -1.2465374            1    1.3380716    2.0111649    1.9929704  0.010079662  0.021734003  0.091720319  0.016101434     1.177054    1.2074915   0.36696418  0.066666667    1.3968758        1e-08 9.1741046e-10    10.900246    2.5098404    30.403515 -0.0040511618  -0.10013438 -0.0039816302      0.17835  -0.24497837   -2.6537686 
  347000    4.2861654    1.2838022    3.0023632  -0.17858999    0.8559594    1.0169355   0.75578675   -1.2465374            1    1.4015849    2.0666714    2.0087382   0.12934509  0.001508905   0.12849621  0.053268383     1.242076    1.2678302    0.3741159  0.066666667    1.3784133        1e-08 9.3528975e-10    10.691874     2.488091    30.403515 0.0034842342 -0.095820544 -0.0034954391   0.20261741  -0.64834282  -0.52638521 
  348000    4.2218342    1.2479144    2.9739197  -0.17626323   0.83203169   0.97269911   0.74451135   -1.2465374            1    1.4675285    2.1093547    2.0856814   0.20754936 0.0078977059  0.047766041 -0.042912735    1.3103992    1.3395921   0.38057934  0.066666667    1.3747455        1e-08 9.5144834e-10    10.510292    2.5047447    30.403515 0.00046126711 -0.089395771 0.0052438998   0.17305051   -2.6401176    1.8151831 
  349000    4.2476041    1.2807437    2.9668604  -0.17339474   0.85392019    1.0139822   0.75431687   -1.2465374            1    1.4160027    2.0713824    2.0666449   0.10998069  0.012999368  0.031220657  0.021519591     1.256804    1.2826364   0.38782407  0.066666667    1.3742774        1e-08 9.6956017e-10    10.313955    2.4862354    30.403515 -0.0014709593  -0.11611457 0.0054662845   0.19308306   -1.0946417   -1.3527352 
  350000    4.2235749    1.2755325    2.9480424   -0.1732515   0.85044572     1.002434   0.75587337   -1.2465374            1    1.5804786    2.2007086    2.1868594   0.35386767  0.012531386  -0.06281396 -0.0046213521    1.4209514    1.4486312   0.39351065  0.066666667    1.3645999        1e-08 9.8377663e-10    10.164909    2.4875793    30.403515 0.0056951811  -0.11643416 -0.0050260046   0.20581426    1.0448657     2.147678 
  351000    4.2639576    1.2624452    3.0015124  -0.16952396   0.84171993    1.0034774   0.74105788   -1.2465374            1    1.5380845    2.1472946    2.1650492   0.30190967  0.013020016 -0.061743522  0.067697934    1.3816841    1.4060999   0.39984183  0.066666667    1.3549901        1e-08 9.9960458e-10    10.003956    2.4817789    30.403515 -0.0031032546  -0.12004268 -0.0086769772   0.22674089  0.025718561     2.459042 
  352000     4.251633    1.2664097    2.9852233  -0.17590481    0.8443632    1.0024496   0.74598943   -1.2465374            1    1.4788368    2.0887052    2.1109162    0.2368889 -0.014798043 -0.030101205 -0.057874898    1.3213956    1.3469874    0.4089547  0.066666667    1.3422168        1e-08 1.0223868e-09    9.7810343    2.4932375    30.403515 -0.002899483  -0.09385906 0.0077617089   0.17752279    1.3942982   -1.9300413 
  353000    4.2726643    1.2881806    2.9844837  -0.17280757    0.8588787    1.0043691   0.76835731   -1.2465374            1    1.2820495    1.9608192    1.9821348 -0.096805446 -0.011788697 -0.027608199 -0.044516073    1.1198876    1.1499477    0.4150333  0.066666667    1.3374359        1e-08 1.0375832e-09    9.6377809    2.5149039    30.403515 0.0036922435   -0.1223868 -0.0095325971   0.18354277   0.11616463   -2.7120026 
  354000    4.2481232    1.2684134    2.9797099  -0.18224776   0.84569911   0.99498009   0.75281313   -1.2465374            1    1.5281546    2.1435759    2.1496847   0.29120331  0.015867804 0.00067014847 -0.0068634055    1.3692733    1.3972877    0.4213928  0.066666667    1.3178886        1e-08 1.053482e-09    9.4923312    2.4882232    30.403515 -0.004177525  -0.09883837 0.0034310355   0.20396709 -0.0061402948    2.4774186 
  355000    4.2495644    1.2801508    2.9694136  -0.17594976   0.85352488    1.0027826   0.76065476   -1.2465374            1    1.4028196    2.0425252    2.0500201   0.11591359 -0.0052110949  0.025210163  0.037846566    1.2422833    1.2709264   0.42921926  0.066666667    1.3097687        1e-08 1.0730482e-09    9.3192462    2.4847137    30.403515 0.0087865938  -0.12626039 -0.0089862366   0.16940106   0.91534174    1.4941511 
  356000    4.2299963    1.2669809    2.9630154  -0.17260299     0.844744   0.99448503   0.75157115   -1.2465374            1    1.3824109    2.0596514    2.0290888  0.058492347 0.00041373329  0.011964362 -0.049550567    1.2237916     1.251609   0.43696105  0.066666667    1.2999905        1e-08 1.0924026e-09     9.154134    2.4933487    30.403515 -0.0085744961  -0.10440015 -0.0089020884   0.19700858   -1.2110043  -0.24230352 
  357000    4.2255893    1.2624798    2.9631095  -0.18368713   0.84174298    1.0176956   0.73223448   -1.2465374            1    1.4080024    2.0424055    2.0738561   0.10774572 0.0048718956 -0.056365351 -0.033754688    1.2534642    1.2741478   0.44547777  0.066666667    1.2868508        1e-08 1.1136944e-09    8.9791238    2.4780412    30.403515 -0.0011493176   -0.1200918 0.0097651767   0.18940428  -0.14830785   0.33355486 
  358000    4.2481961    1.2665332    2.9816629  -0.17752421   0.84444554   0.98978901   0.75401321   -1.2465374            1    1.4234827    2.0658816      2.06013   0.14443641 -0.011173383  -0.07697746 -0.028983926    1.2643481    1.2932985   0.45539902  0.066666667    1.2697685        1e-08 1.1384975e-09     8.783506    2.4828322    30.403515 -0.0046868792  -0.10294906  0.010986223   0.18714085  -0.06743983   -1.7981802 
  359000    4.2199867    1.2689837     2.951003  -0.18703439   0.84607936    1.0150261   0.74093764   -1.2465374            1     1.441544    2.1003623    2.0718118   0.15245782 -0.00069427355 -0.056861776  -0.02492496     1.285169    1.3080405   0.46467314  0.066666667    1.2544468        1e-08 1.1616829e-09    8.6082014    2.5026004    30.403515 -0.0079866284 -0.092589321 -0.0066591849   0.20027645  -0.26369348   -1.4217045 
  360000    4.2130429    1.2565082    2.9565347  -0.17503603    0.8377615   0.99981804   0.73691237   -1.2465374            1    1.5350106    2.1576378    2.1701651   0.27722884 -0.019602267 -0.028127363  0.019383489    1.3794851    1.4035073   0.47308185  0.066666667    1.2509668        1e-08 1.1827046e-09    8.4551965    2.4752423    30.403515 0.0039340679 -0.096159058 0.0064638545   0.20114531    0.7410448  -0.81055016 
  361000    4.2209359    1.2699609     2.950975  -0.18644112   0.84673089   0.99883448   0.75208602   -1.2465374            1     1.329146    1.9911937    2.0027955 -0.0065510693  0.016030186  0.064253088 -0.013736751    1.1704182    1.1977721   0.48341232  0.066666667    1.2482594        1e-08 1.2085308e-09    8.2745098     2.502609    30.403515 0.0059729222  -0.10182485 0.0038445473   0.22824778  -0.90811077  -0.62026749 
  362000     4.216323    1.2642706    2.9520524  -0.18185506   0.84293695    0.9879276   0.75272424   -1.2465374            1    1.4597525    2.1063785    2.0950364   0.17784259 -0.016792608   0.05587416  0.041564855    1.3008899    1.3298131   0.48791729  0.066666667    1.2373499        1e-08 1.2197932e-09    8.1981107    2.5011512    30.403515 0.0069083979  -0.12870541  0.003557274   0.16597462   0.86726242  -0.48356047 
  363000     4.273689    1.2823601    2.9913289   -0.1800358   0.85499792    1.0135602    0.7563294   -1.2465374            1    1.4883083    2.1139886      2.10896   0.24197638  0.012627198   0.09265812 -0.045821207    1.3286849    1.3549976   0.49920224  0.066666667    1.2436322        1e-08 1.2480056e-09    8.0127846    2.5208849    30.403515 0.00016711702  -0.12489877 -0.0070635011   0.18236006   0.20605007   -1.8532602 
  364000    4.2129192    1.2707036    2.9422156  -0.17775303   0.84722606   0.98419002   0.76201635   -1.2465374            1    1.5351025    2.1609634    2.1640333    0.2803109 -0.0040178162   0.10210457 0.00051992468    1.3742788    1.4056548   0.50476546  0.066666667    1.2419136        1e-08 1.2619137e-09    7.9244724    2.4886416    30.403515 -0.0032105758     -0.12166 0.0054248066   0.18180042    0.1801701  -0.47156275 
  365000    4.2570148    1.2845781    2.9724367  -0.16634968   0.85647672     1.028752   0.74926251   -1.2465374            1    1.5770653    2.1997068    2.1670873   0.36440174 0.0055418815   0.03481435  0.066284555    1.4189333    1.4417565   0.51486588  0.066666667    1.2338666        1e-08 1.2871647e-09    7.7690135    2.5037507    30.403515 -0.003099778  -0.13009229 -0.0032644932   0.18627161    2.1038987     3.291777 
  366000    4.2234446    1.2650408    2.9584038  -0.18899548   0.84345049    1.0069306   0.74171513   -1.2465374            1    1.4305168     2.075284    2.0753266   0.14093973 -0.017066064  0.015453676 -0.036462148    1.2739777     1.298078    0.5188815  0.066666667    1.2215886        1e-08 1.2972037e-09    7.7088893    2.4856592    30.403515 0.0030229771  -0.12888016  0.014908826    0.1828296   0.79184113  -0.60298191 
  367000    4.2472813      1.27823    2.9690513  -0.17763815    0.8522442     1.015978   0.75035231   -1.2465374            1    1.4229087    2.1006355    2.0457138   0.12237687  -0.02162131 -0.030214645 -0.0067960258    1.2645467      1.28928   0.53091752  0.066666667    1.2151177        1e-08 1.3272938e-09     7.534127    2.4868247    30.403515 -0.015151075  -0.13118853 -0.012680533   0.19019958  -0.40526703   -1.6150438 
  368000    4.2190526    1.2778676     2.941185  -0.18303125   0.85200258    1.0011336   0.75921112   -1.2465374            1    1.4694627    2.1082323    2.1183162   0.18183967 -0.012456012  0.029478625  0.019928504    1.3092311    1.3377864   0.54079948  0.066666667    1.2121926        1e-08 1.3519987e-09    7.3964568    2.4907571    30.403515  0.004915325  -0.11915441 -0.0084490226   0.22796598  -0.17410919   -1.3702093 
  369000    4.2397217     1.268611    2.9711107  -0.18237653   0.84583085    1.0076445   0.74513449   -1.2465374            1     1.504067     2.143233    2.1281683   0.24079961 -0.0084024818 -0.061683361 -0.019693615    1.3468062    1.3715343   0.54331741  0.066666667        1.211        1e-08 1.3582935e-09    7.3621789    2.4815789    30.403515 0.0094869662   -0.1172085 -0.0013563136   0.17481341  -0.10582748   0.22992303 
  370000    4.2058118    1.2635888     2.942223  -0.18735546   0.84248236    1.0055329   0.74101461   -1.2465374            1    1.5920715     2.204831    2.2003887   0.37099469 0.0051619163  -0.12220479 -0.0046768543    1.4356802    1.4598166   0.55226883  0.066666667    1.2035839        1e-08 1.3806721e-09    7.2428495    2.4854002    30.403515 -0.00086503373  -0.11097968 0.0084844729   0.19717757   0.11042202    2.3806456 
  371000    4.2178241    1.2770993    2.9407248  -0.18181515   0.85149034    1.0095317   0.75314585   -1.2465374            1     1.445391    2.1042699    2.1061975   0.12570563 -0.016254793  -0.11008004 0.0070298935    1.2864394    1.3126101   0.55925713  0.066666667    1.2012288        1e-08 1.3981428e-09    7.1523451    2.5175399    30.403515 -0.012434596  -0.14542564 -0.00079183585   0.15097427    2.5796137   -5.5831523 
  372000    4.2088344    1.2639287    2.9449057  -0.19356185   0.84270904   0.98622218   0.75341708   -1.2465374            1    1.4562035    2.0910338    2.0952382   0.18233847 0.0057078876   -0.1562885  -0.02204082    1.2971947    1.3264885   0.56846493  0.066666667    1.2062976        1e-08 1.4211623e-09    7.0364938    2.4756978    30.403515 0.0024903196  -0.14437005  0.011239493   0.17515693    2.6356051   -1.6768232 
  373000    4.1908877    1.2614572    2.9294305  -0.19566108   0.84106117    1.0268254   0.72543793   -1.2465374            1    1.6297118    2.2294864    2.2433957   0.41625337  0.005277649 -0.082584441  0.039418159     1.476608    1.4946564   0.58093629  0.066666667    1.1986218        1e-08 1.4523407e-09    6.8854366    2.5298484    30.403515 -0.012185782  -0.13808687 -0.0023981193   0.21605509  0.068191961    1.2816429 
  374000    4.2254476    1.2793867    2.9460609  -0.19070303   0.85301545    1.0134241   0.75319596   -1.2465374            1    1.4647899    2.0890435    2.1010435    0.2042828 0.0080314169   -0.0390618  0.011228956    1.3058278    1.3314971   0.58712713  0.066666667     1.192302        1e-08 1.4678178e-09    6.8128346    2.4794519    30.403515 -0.012398098  -0.14693342 -0.015846521   0.20586442   0.53260325  -0.25943282 
  375000    4.2016484    1.2585644     2.943084  -0.18436567   0.83913242   0.99825892   0.74010953   -1.2465374            1    1.6661537    2.2789347     2.229497    0.4900294 0.0019934029 -0.042188462 0.0044285896    1.5099535    1.5348555   0.59161585  0.066666667    1.1835293        1e-08 1.4790396e-09    6.7611441    2.4907436    30.403515 -0.0069949133  -0.12901202 0.00092160325    0.1875338   0.03919639    1.1149736 
  376000    4.2020322    1.2780221    2.9240101  -0.18891626   0.85210564    1.0207623    0.7471458   -1.2465374            1    1.4910507    2.1410203     2.140086   0.19204575 0.0028387481 -0.029926519 -0.031519998    1.3333654    1.3567927   0.60316168  0.066666667    1.1839646        1e-08 1.5079042e-09     6.631721    2.4819744    30.403515 -0.0038047248  -0.16306918   0.01146687   0.19076113   -2.5184943   -1.1370676 
  377000    4.1910186    1.2664764    2.9245422  -0.19912087   0.84440765   0.98880359   0.75456582   -1.2465374            1    1.4774429    2.1196247    2.1119753   0.20072878 -0.010934887 -0.030840541  0.021180582    1.3181917    1.3473884   0.61035512  0.066666667    1.1873175        1e-08 1.5258878e-09    6.5535618    2.4957606    30.403515 -0.012297728  -0.13823939 0.0060193545   0.19393621    -1.968127  -0.10756881 
  378000    4.2150702    1.2807172     2.934353  -0.19421978   0.85390255    1.0222692   0.74912373   -1.2465374            1    1.6567968    2.2310202    2.2571214   0.48224891 -0.0026693839 -0.004392939   0.01960692    1.4986941    1.5223406   0.62059468  0.066666667     1.193765        1e-08 1.5514867e-09    6.4454307    2.4973768    30.403515 -0.0087943674  -0.12547364 0.0028184148   0.19764973   -1.3203653     2.901351 
  379000    4.1853954    1.2759013    2.9094941  -0.20858338   0.85069159    1.0205391   0.74498933   -1.2465374            1    1.4226874    2.0744725    2.0667816   0.12680798 0.0094107132 -0.059295093 -0.047820323    1.2654572    1.2884587   0.62791949  0.066666667    1.1993586        1e-08 1.5697987e-09    6.3702434    2.4900667    30.403515 -0.0096179705  -0.14898376 -0.0060483087   0.21275081  -0.54758074   0.10495822 
  380000    4.2000347    1.2742023    2.9258324  -0.20052426   0.84955882    1.0132789   0.74767497   -1.2465374            1    1.5152748    2.1500537    2.1354149   0.26035564 0.00077799205  -0.18281306 0.0051960622    1.3574778     1.382001   0.63483153  0.066666667    1.2015414        1e-08 1.5870788e-09    6.3008842    2.5110059    30.403515 -0.0084471229  -0.14407609 -0.0054502128   0.18897489   0.62488786   -1.2092135 
  381000    4.2068417    1.2739558    2.9328858  -0.19866954   0.84939449    1.0027868   0.75394696   -1.2465374            1    1.5341851    2.1695982    2.1620475    0.2709097  0.013730485  -0.10478638 -0.013128292    1.3750645    1.4022914   0.64159894  0.066666667    1.1968179        1e-08 1.6039973e-09    6.2344243    2.4961713    30.403515  0.004521315  -0.14820412 -0.0073890163   0.20679887    1.9063372   -1.7883157 
  382000    4.2162232    1.2778384    2.9383848  -0.19642955   0.85198312    1.0094704   0.75398402   -1.2465374            1    1.5074581    2.1283062    2.1387934   0.25527465 -0.0070529741  -0.14662406  0.044147008    1.3483296    1.3746853   0.64144414  0.066666667    1.1933719        1e-08 1.6036104e-09    6.2359288    2.4809522    30.403515 -0.016251127  -0.15416766  0.012583421   0.17990224    3.2570741   0.67163072 
  383000    4.1977593    1.2723131    2.9254463  -0.21108841   0.84829918   0.99998494   0.75391498   -1.2465374            1    1.6138719    2.2008542    2.2436966     0.397065 -0.00032457948 -0.076998483 -0.0092993862     1.454758    1.4823467   0.64775822  0.066666667    1.1919185        1e-08 1.6193955e-09    6.1751436    2.4886589    30.403515 -0.0061692421  -0.18004628 0.0082797294   0.17572243   0.66191906   0.62640979 
  384000    4.1833387    1.2569386    2.9264001  -0.19816083   0.83804846   0.98392571   0.74728237   -1.2465374            1    1.5976992    2.2155981     2.204915   0.37258461 0.0064039977 -0.060195187  -0.06900611    1.4399852    1.4682863   0.65521909  0.066666667    1.1965367        1e-08 1.6380477e-09    6.1048283    2.4902946    30.403515 0.0036400759  -0.16565644 -0.0081552425   0.19816714   -0.3183074    1.9913952 
  385000    4.1898514    1.2768719    2.9129796  -0.19751538    0.8513387    1.0174155    0.7479865   -1.2465374            1    1.3982479    2.0600496    2.0629961  0.071697911 0.0068213214 -0.057868729  -0.06491646    1.2403852    1.2644301    0.6579407  0.066666667    1.1908984        1e-08 1.6448518e-09    6.0795752    2.4851038    30.403515 0.0074826057  -0.19443835 0.0093498348   0.18478709  -0.43927273  -0.28751164 
  386000    4.1929592    1.2743102    2.9186491  -0.20586039   0.84963073    1.0013339   0.75523589   -1.2465374            1    1.6909274    2.3124108    2.2436124   0.51675883 0.0092313456 -0.043371061  0.025048348    1.5315347    1.5592247   0.66439696  0.066666667    1.2131481        1e-08 1.6609924e-09    6.0204972    2.4999954    30.403515   0.01095863  -0.16646307  0.003157665   0.22437012   -1.4134457    3.8644892 
  387000    4.1849503    1.2762452    2.9087052  -0.20582836   0.85092087   0.99864281    0.7590074   -1.2465374            1     1.562547    2.1837324    2.1980947   0.30581381 -0.0079764742 -0.022111014 -0.021181376    1.4023584    1.4311983   0.66208697  0.066666667    1.2050821        1e-08 1.6552174e-09    6.0415024    2.4987094    30.403515 0.0096372175  -0.16947958 0.00087346288   0.18364377   -1.3568426    2.8221175 
  388000    4.1609511    1.2449392    2.9160119  -0.21253463   0.83004797   0.99454252   0.72767813   -1.2465374            1    1.5497581    2.1651987    2.1852135   0.29886217 0.0068938401 0.00022821882  0.047237648    1.3961816    1.4189488   0.65965946  0.066666667    1.2111738        1e-08 1.6491487e-09    6.0637348    2.4819908    30.403515 -0.014090715  -0.18062621 -0.017982953   0.21806356   0.34993285    3.2378082 
  389000    4.1898656     1.256005    2.9338606  -0.20204093   0.83742599   0.98171895   0.74764713   -1.2465374            1    1.4234404    2.0840372    2.0686794   0.11760467 -0.013217044  -0.02496908  0.030178847    1.2656494    1.2943177   0.67254946  0.066666667    1.2017283        1e-08 1.6813736e-09     5.947518    2.5042132    30.403515 -0.016057654  -0.15500379  0.010091548    0.1694968    2.0259577 -0.093462307 
  390000    4.1903908    1.2490323    2.9413585  -0.19756269   0.83277702   0.98022051   0.74103393   -1.2465374            1    1.6101318    2.2099303    2.2338547   0.38661036 -0.013385015  0.004605909   0.04660449    1.4537364    1.4812061   0.67495456  0.066666667    1.2039497        1e-08 1.6873864e-09    5.9263249    2.4855668    30.403515 -0.010549957  -0.18982244 -0.0062751153   0.18022096    1.3363316    1.6268067 
  391000    4.1869256    1.2812943    2.9056314  -0.21846999   0.85428729     1.013976   0.75491667   -1.2465374            1     1.597619    2.1851975    2.2416875   0.36597189  0.017281532 -0.028659992  -0.07926038    1.4382937    1.4642535   0.67876339  0.066666667    1.2125028        1e-08 1.6969085e-09    5.8930698    2.4896324    30.403515 -0.0017051802  -0.18468424 -0.0058811179    0.1605646    1.7042238   0.92735607 
  392000    4.1805584    1.2631472    2.9174112  -0.21530689   0.84218797   0.99326065   0.74818478   -1.2465374            1    1.5510054    2.1612037    2.1665724   0.32524001 -0.0086414172 -0.094263872  0.024365114    1.3931009    1.4203646    0.6756313  0.066666667    1.2144234        1e-08 1.6890782e-09    5.9203888    2.4881013    30.403515  0.011015399  -0.15523291  0.019151735   0.19895104    1.5297792   0.58772619 
  393000     4.168114    1.2458202    2.9222938  -0.21338409   0.83063542   0.98409229   0.73514439   -1.2465374            1    1.6520402    2.2367141    2.2423045   0.47710207 -0.014266048 -0.042743405  0.087440785    1.4968879    1.5226053   0.68246022  0.066666667    1.2151393        1e-08 1.7061505e-09    5.8611475    2.5006735    30.403515 0.00065600411  -0.16296563  0.013165985    0.2218698   0.10788164    1.2522413 
  394000    4.1535143     1.256976    2.8965383  -0.22574806   0.83807336   0.99887137    0.7380086   -1.2465374            1    1.5503872     2.181541    2.1719271   0.29769359  0.013447996  0.032130545 -0.018143415    1.3946304    1.4190085    0.6749586  0.066666667    1.2048767        1e-08 1.6873965e-09    5.9262894    2.4819371    30.403515 -0.015776235  -0.18387193  0.007472768   0.20373333 -0.031775195    3.0279353 
  395000    4.2052444    1.2619458    2.9432986  -0.21180209   0.84138693   0.98468766   0.75222711   -1.2465374            1    1.4635862    2.0983747    2.1068146   0.18556933 -0.00020277986   0.03006823 -0.021929707    1.3048285     1.334073   0.67523662  0.066666667    1.2177449        1e-08 1.6880915e-09    5.9238494    2.4974368    30.403515 -0.0072447396  -0.17331388 -0.00023289554   0.14932231   0.62547719   0.12654746 
  396000    4.1732236    1.2737906     2.899433  -0.21419157   0.84928435    1.0060352   0.75174376   -1.2465374            1    1.5833939    2.1919082    2.2076019   0.35067168  0.016060928   0.10003257 -0.060623365    1.4247383    1.4510729   0.68494192  0.066666667    1.2216797        1e-08 1.7123548e-09    5.8399112    2.4869128    30.403515 -0.0017500711  -0.20259987  0.014642393   0.17573924   -1.1139127    2.9164907 
  397000    4.1860116     1.273984    2.9120276  -0.20586364   0.84941324    1.0021903   0.75434911   -1.2465374            1    1.5558768     2.189982     2.180366    0.2972825  0.012903984 -0.0050513278  0.030166943    1.3966713    1.4240615   0.68641736  0.066666667    1.2235134        1e-08 1.7160434e-09    5.8273585    2.5054422    30.403515 -0.0010696591  -0.17417504 -0.0061325731   0.19803026   0.75541866    2.3196071 
  398000    4.1528063    1.2455856    2.9072207  -0.21751141   0.83047898   0.97755846   0.73896234   -1.2465374            1    1.5031614    2.1436754    2.1485135   0.21729517 -0.0050376357 -0.092432059 -0.023846224    1.3472032    1.3745858   0.68872237  0.066666667    1.2221683        1e-08 1.7218059e-09    5.8078555     2.498048    30.403515 0.0067490055  -0.16961067 -0.00088319906   0.17742943    1.1578612   0.12200574 
  399000    4.1725619     1.259032    2.9135299  -0.21069787   0.83944419   0.97844241   0.75296538   -1.2465374            1    1.7062606    2.2987723    2.3145459   0.50546343 -0.0071574844 -0.0053167867 -0.018682241    1.5473471    1.5775688   0.68536397  0.066666667    1.2221786        1e-08 1.7134099e-09     5.836315    2.4999027    30.403515 -0.0084781337   -0.2037005 0.0059868595   0.18074239  -0.70528439   0.35545465 
  400000     4.139862    1.2497985    2.8900635   -0.2146214   0.83328785   0.99473392   0.73281839   -1.2465374            1    1.5826708    2.1842952    2.2166629   0.34705435  0.010032121 -0.074831321 -0.011721241    1.4280093    1.4518362   0.68810942  0.066666667    1.2222686        1e-08 1.7202735e-09     5.813029    2.4851186    30.403515 -0.0076719835  -0.17604666 0.00019412704   0.18215381  -0.17134721   0.18941204 
  401000    4.1726051    1.2646473    2.9079578  -0.22021343   0.84318814   0.99876984    0.7463751   -1.2465374            1    1.5312475    2.1761619    2.1576875   0.25989314  0.020178446  -0.13127012  0.049112987    1.3737249    1.3998821   0.69077795  0.066666667    1.2267019        1e-08 1.7269449e-09    5.7905728    2.4838811    30.403515  0.016655797  -0.17785016  0.018531258   0.23195261    1.2372375   0.90209816 
  402000    4.1990386    1.3056717    2.8933668  -0.21507721   0.87054067    1.0133528   0.78169039   -1.2465374            1     1.615574    2.2419831    2.2415229   0.36321586 -0.0024458167  -0.11247927  0.010659847    1.4505981    1.4822905   0.69481313  0.066666667    1.2258401        1e-08 1.7370328e-09    5.7569436    2.5103153    30.403515 -0.015918859  -0.23392662 -8.5855669e-05   0.18757241   0.63375549   0.42398181 
  403000    4.1557381     1.262537    2.8932011  -0.20430937   0.84178111   0.99686285    0.7452794   -1.2465374            1    1.5668822    2.1917827     2.210838   0.29802582 -0.014235334  -0.10298376 -0.020152167    1.4095908    1.4357676   0.69475459  0.066666667    1.2220661        1e-08 1.7368865e-09    5.7574287     2.492807    30.403515 -0.019022412  -0.18480467 0.0060497018    0.1948876    1.9689447    1.2039109 
  404000    4.2054311    1.2871982    2.9182329  -0.20972409   0.85822367    1.0284759   0.75227052   -1.2465374            1     1.637788    2.2414373      2.23859   0.43333663 -0.009091777 -0.063496099 -0.067982228    1.4790212    1.5025154   0.69608593  0.066666667    1.2263302        1e-08 1.7402148e-09     5.746417     2.491378    30.403515  0.012543755  -0.17950132 0.0060029729   0.16243139    1.3182735    1.6955631 
  405000    4.1819042    1.2687153    2.9131889  -0.20316013   0.84590042   0.98466981   0.75956533   -1.2465374            1    1.4744848    2.1349216    2.1085163   0.18001651 -0.013137058  -0.10351064  0.038302427    1.3141784    1.3449739   0.69403251  0.066666667     1.223261        1e-08 1.7350813e-09    5.7634188    2.5066595    30.403515 0.0068649745  -0.18225897 -0.0021091941   0.19067321    2.3405984  -0.15538336 
  406000    4.1907971    1.2828668    2.9079304  -0.21199242   0.85533574    1.0180326   0.75409059   -1.2465374            1    1.6447329    2.2536049     2.244153   0.43644081  0.015637866  -0.15164063 -0.063769652     1.485582     1.510834   0.69126276  0.066666667    1.2291033        1e-08 1.7281569e-09    5.7865116    2.4707046    30.403515 -0.0030018941  -0.21004926 -0.0035844585   0.17793153    1.5990027  -0.28314727 
  407000    4.1764932    1.2637733    2.9127199  -0.20807371    0.8426054   0.99193798   0.74968673   -1.2465374            1     1.657269    2.2551782    2.2727438   0.44388511 -0.00092842911 -0.092838261  0.013962734    1.4990475    1.5268022   0.70413565  0.066666667    1.2384276        1e-08 1.7603391e-09    5.6807236    2.5137764    30.403515 -0.0009972017  -0.19453392 -0.0032705809   0.21777722 0.0042021688   0.92431423 
  408000    4.1640079    1.2589128    2.9050951  -0.21619774   0.83936474    1.0012272   0.73863683   -1.2465374            1    1.4787802    2.1212649    2.1137284   0.20134719  0.018756188  -0.11968138  0.011976461    1.3228907    1.3470915   0.69658733  0.066666667    1.2450657        1e-08 1.7414683e-09    5.7422807    2.4769552    30.403515 -0.0072428056  -0.17020873 -0.0055795758   0.17721879    1.2735717  0.082772062 
  409000    4.1563627    1.2642577    2.8921049  -0.22337626   0.84292839   0.98964669     0.751639   -1.2465374            1    1.7076444    2.2788414    2.3163996   0.52769216 0.0032725631 -0.059223958 -0.041047579    1.5490109     1.577479   0.70266748  0.066666667    1.2473399        1e-08 1.7566687e-09     5.692593    2.4891837    30.403515 -0.0059237677  -0.21180947 0.0089010664   0.19041896  -0.96975512    2.1043393 
  410000    4.1903266    1.2777179    2.9126088  -0.20249853   0.85190279     1.011182   0.75278694   -1.2465374            1    1.5061404    2.1408817    2.1416975   0.23584206 0.0049792079  0.016227451  0.017385302    1.3472646    1.3731425   0.70054836  0.066666667    1.2380481        1e-08 1.7513709e-09    5.7098128     2.489151    30.403515 -0.0059178145  -0.17274888  -0.00705397   0.22385233   -2.0204194   0.69052149 
  411000    4.1345183    1.2288086    2.9057097  -0.21153683   0.81929314   0.96928198   0.72596144   -1.2465374            1     1.633146    2.2732241    2.2205414   0.40567258 -0.012086408 -0.049255845  0.024116603    1.4799317    1.5056591   0.69842267  0.066666667    1.2425307        1e-08 1.7460567e-09    5.7271909    2.4689897    30.403515  0.010619854  -0.21141046 0.0011184757   0.19222972  -0.28796242    2.2163466 
  412000    4.1620437    1.2716755    2.8903682  -0.21336757    0.8478741    1.0103689   0.74675359   -1.2465374            1    1.5431519    2.1839358    2.1737438   0.27177615 0.0058429708  0.082974415 -0.021873448    1.3855495     1.410261   0.69629571  0.066666667     1.259308        1e-08 1.7407393e-09    5.7446856    2.4888017    30.403515 -0.0077768139   -0.1855116 -0.014264136   0.19689065   -2.5365334    4.3349836 
  413000    4.2072448    1.2780025    2.9292423  -0.20770773   0.85209254    1.0198837   0.74767208   -1.2465374            1     1.579328    2.2007682    2.2031839   0.33403195  0.004679901  0.077948283 -0.041573851    1.4215317    1.4451856   0.69919621  0.066666667    1.2450905        1e-08 1.7479905e-09    5.7208548    2.4869963    30.403515 -0.0029703636  -0.18778454 0.00075542012   0.20005203  -0.30567004    2.6767104 
  414000     4.181343    1.2865009    2.8948421  -0.22224071   0.85775873    1.0092724   0.76348341   -1.2465374            1     1.570721     2.199213    2.1691716   0.34377855  0.003672045   0.10618609 0.0068696477    1.4095877    1.4379743   0.70511905  0.066666667    1.2550999        1e-08 1.7627976e-09     5.672801    2.4897635    30.403515 -0.010508297  -0.18476798 -0.0019847719   0.22541888   -1.4669411    1.0576332 
  415000    4.1542909    1.2692982    2.8849927  -0.21071346   0.84628905   0.99248905   0.75532325   -1.2465374            1    1.5803224    2.2105269    2.2008863   0.32955415 -0.018193618   0.13834859 -0.0095334465    1.4209113    1.4497831   0.70496716  0.066666667     1.244714        1e-08 1.7624179e-09    5.6740232    2.4929561    30.403515 -0.015571927  -0.21198566 0.0030219597   0.24889677   -1.4277076 -0.0019138413 
  416000      4.14905    1.2445286    2.9045214  -0.21321318   0.82977422   0.97969599   0.73648613   -1.2465374            1    1.6604766    2.2617783    2.2824825   0.43716908 -0.0015329979   0.11279773 -0.021243068    1.5050411    1.5316199   0.70261864  0.066666667    1.2382549        1e-08 1.7565466e-09    5.6929887     2.477018    30.403515  0.013818936  -0.18371947 0.0037224505   0.17575911   0.02092455    1.7219601 
  417000    4.1933929    1.2739717    2.9194212  -0.21862717   0.84940507   0.98616639   0.76432202   -1.2465374            1    1.5269665     2.150079    2.1566353   0.27418511 0.0098949016   0.10409809  0.030762575    1.3656562    1.3972588   0.70010994  0.066666667    1.2464187        1e-08 1.7502748e-09    5.7133884    2.4966448    30.403515  0.010194432   -0.2320982 -0.0022288107   0.15442383   -1.0477215  -0.35816123 
  418000    4.1729377    1.2640566    2.9088811  -0.21706169   0.84279427   0.99031752   0.75100321   -1.2465374            1    1.5564265    2.1807775    2.1750438   0.31345834 -0.0055919423  0.057237118  0.049431142    1.3979272    1.4261729   0.70060589  0.066666667    1.2396064        1e-08 1.7515147e-09    5.7093439    2.5023064    30.403515 -0.011919126  -0.18692831 0.00013600533   0.17828781   -1.6407403   0.12379666 
  419000     4.154414     1.249402    2.9050119  -0.22325702   0.83302354    1.0044904   0.72630903   -1.2465374            1    1.6143385    2.2290714    2.2127452   0.40119877 0.0079283211 -0.027814482 -0.019313468    1.4610508    1.4822207   0.69391099  0.066666667    1.2440147        1e-08 1.7347775e-09    5.7644281    2.4759574    30.403515 0.0085967823  -0.18046158  0.017842691   0.17808239   -1.5187374    1.2716472 
  420000     4.126966    1.2489045    2.8780615  -0.21516995   0.83269181    1.0022284   0.72718024   -1.2465374            1    1.5310523    2.1583503    2.1706836   0.26412304  0.022940629  -0.13353595 -0.034432881    1.3775808    1.3992321   0.69355163  0.066666667    1.2379219        1e-08 1.7338791e-09    5.7674149    2.5194141    30.403515  0.003042342  -0.20654526 0.0063753072   0.17206273   -1.0442831   -1.4718734 
  421000    4.1763588     1.277187    2.8991718  -0.21661884   0.85154882    1.0096362   0.75317567   -1.2465374            1    1.6353394    2.2540484    2.2243704   0.42759924 0.0095056629  0.033195715  0.063850097    1.4763815    1.5025447   0.70100153  0.066666667    1.2406876        1e-08 1.7525038e-09    5.7061217    2.5074383    30.403515 -0.003597434  -0.17604042 -0.0040974465   0.18950398   -2.6196134  -0.29954335 
  422000    4.1509952    1.2471391    2.9038562  -0.21483427   0.83151472    1.0020444   0.72538399   -1.2465374            1    1.6516948    2.2481191    2.2466283   0.46033704 0.00073810837 -0.029756053  0.011099674    1.4986024    1.5198987   0.69494695  0.066666667    1.2491441        1e-08 1.7373674e-09     5.755835    2.4722295    30.403515 -0.0043265299  -0.21303061  0.005635751   0.18883057   0.75010383 0.0056739004 
  423000    4.1559173    1.2524235    2.9034938  -0.22845092   0.83503807    0.9896908   0.73880255   -1.2465374            1    1.4715435    2.1161187    2.1055363   0.19297569 -0.010574213 0.0075418886 -0.00088439527    1.3156191    1.3413723   0.70512529  0.066666667    1.2574518        1e-08 1.7628132e-09    5.6727508    2.4849476    30.403515 -0.015128798  -0.20198883  0.012211455   0.18540703   0.18688106  -0.40543871 
  424000    4.1619637    1.2622991    2.8996645  -0.21369316   0.84162253    1.0113299   0.73600603   -1.2465374            1    1.7117808    2.3065567    2.3102152   0.51857048 0.00073048942  0.021025956  0.027974422    1.5564466    1.5787634    0.7064446  0.066666667    1.2581252        1e-08 1.7661115e-09    5.6621567    2.4915001    30.403515 -0.00084747881  -0.18556914 0.0089680847   0.20479395   0.14786737   0.55865115 
  425000    4.1843022     1.283456    2.9008462  -0.20619554   0.85572859    1.0084719    0.7606866   -1.2465374            1    1.5535379    2.1996072    2.1744548   0.28655158 -0.0013647722  0.033135962  0.062395228    1.3929948    1.4208964   0.70560458  0.066666667    1.2557604        1e-08 1.7640115e-09    5.6688974    2.5007279    30.403515 -0.0050185219  -0.19220412 -0.025832652   0.20609414   0.01093628  -0.33205036 
  426000    4.1501127    1.2492385    2.9008742  -0.21253498   0.83291448   0.98204557   0.74011969   -1.2465374            1    1.6476909    2.2409472    2.2551504   0.44697517 0.0049420243  0.027431711 -0.0085779215    1.4914885    1.5185252   0.70309165  0.066666667    1.2416499        1e-08 1.7577291e-09    5.6891587    2.4839915    30.403515 -0.00094100855   -0.2088288 -0.012179795    0.1997517   0.47066851    1.3845984 
  427000    4.1898766    1.2737954    2.9160811  -0.21321965   0.84928753   0.99637226   0.75777088   -1.2465374            1    1.4082647    2.0715971    2.0709394  0.082257685 -0.019388659  0.059144888 -0.012409474    1.2483371    1.2772147   0.70182557  0.066666667    1.2425098        1e-08 1.7545639e-09    5.6994218    2.5064742    30.403515 -0.010126881  -0.22204349 -0.0064051117   0.18891661  0.082222176   -2.0481584 
  428000    4.1614872    1.2688479    2.8926392  -0.21466059   0.84598886   0.98586582   0.75896354   -1.2465374            1    1.5694789    2.1901718    2.2175593   0.30070548 0.0059082314 -0.043795361  0.025685333    1.4092995    1.4398107   0.70751433  0.066666667    1.2326357        1e-08 1.7687858e-09    5.6535958    2.4931056    30.403515 0.00058263026  -0.16294883 0.0031815237   0.19867753  -0.74756348  -0.57497921 
  429000    4.1865455    1.2683622    2.9181833  -0.22862957   0.84566501   0.98125837    0.7613092   -1.2465374            1    1.5412501    2.1608013    2.1526972   0.31025176 0.0085331566  0.014198027  0.021586142    1.3805757    1.4121879   0.71236242  0.066666667    1.2409484        1e-08 1.7809061e-09    5.6151193    2.5059762    30.403515 0.00092049598  -0.20311135 0.0091080702   0.18407107  -0.58335271    3.5001833 
  430000    4.1822818     1.263135    2.9191468  -0.21206968   0.84217984   0.99250181   0.74864451   -1.2465374            1    1.6108488     2.239717    2.2168923   0.37593721  0.021573267 -0.012198044  0.012035707    1.4528473    1.4803079    0.6984397  0.066666667    1.2295473        1e-08 1.7460992e-09    5.7270513     2.472834    30.403515 0.0018533742  -0.19651588 -0.00016821455   0.19486285   -0.1713439  -0.31538646 
  431000    4.1696978    1.2613038     2.908394  -0.21592476   0.84095888   0.99029176   0.74803974   -1.2465374            1    1.4984649    2.1045959      2.14687   0.24392893 0.0058306135 -0.040070912 -0.0081683807     1.340591    1.3682146   0.71223828  0.066666667    1.2379358        1e-08 1.7805957e-09     5.616098    2.5079233    30.403515 -0.0060783556  -0.16984958  0.001207107   0.19789609  0.081854835    1.5795878 
  432000    4.1634793    1.2643786    2.8991006  -0.20621823   0.84300901    1.0090933   0.73965068   -1.2465374            1    1.5257907    2.1533789    2.1714594   0.25253388 0.00032303471  0.030371079 -0.079174513    1.3696873    1.3930675   0.69440957  0.066666667    1.2392068        1e-08 1.7360239e-09    5.7602893    2.4881074    30.403515 -0.0063254918  -0.18702542 -0.010214873    0.1647968    1.1272994  0.046377885 
  433000    4.1714368    1.2629784    2.9084584  -0.20888038   0.84207542   0.99860356   0.74467236   -1.2465374            1    1.5717225     2.192691    2.2024114   0.32006522  0.018959014  0.023057673  0.046584875    1.4145593     1.440379    0.7019046  0.066666667    1.2411821        1e-08 1.7547615e-09    5.6987801    2.4966889    30.403515 0.0078505538  -0.21885785  0.014265132   0.20012533    1.8945601    1.0073076 
  434000    4.1631479    1.2681147    2.8950332  -0.21119196   0.84549998   0.99745057   0.75095024   -1.2465374            1    1.6484354    2.2743678    2.2572481   0.41369032  0.011687474 0.0046661578 -0.011320112    1.4899472    1.5172435   0.70615763  0.066666667    1.2407791        1e-08 1.7653941e-09    5.6644577    2.5060502    30.403515 0.0087057097  -0.15565175 0.00029783173   0.18610354     1.782277 -0.0074710223 
  435000    4.1875172    1.2741605    2.9133568   -0.2147948   0.84953092    1.0051904   0.75267051   -1.2465374            1     1.518529    2.1472687    2.1419372   0.26638114  0.016415736  0.033400643 -0.0053010148    1.3596778    1.3863192    0.7019514  0.066666667    1.2467636        1e-08 1.7548785e-09    5.6984002    2.5075374    30.403515  0.014337439  -0.17754844 -0.0065081974   0.18711022    1.6954013 -0.069884147 
  436000    4.1672352    1.2586937    2.9085414  -0.21930651   0.83921867   0.99829635   0.74022622   -1.2465374            1    1.5366295    2.1559647    2.1913666   0.26255725 -0.0038297893  0.083375938  0.015419143    1.3804047    1.4053264   0.70314523  0.066666667    1.2505327        1e-08 1.7578631e-09    5.6887252    2.4909883    30.403515 -0.012445131   -0.1585561 -0.011489875   0.21628159  0.021698442   0.48198818 
  437000    4.1537541    1.2539131     2.899841  -0.21528126   0.83603126   0.99667488   0.73606237   -1.2465374            1     1.773536    2.3509365    2.3411908   0.62848078  0.015499605  0.085977395 -0.007245364    1.6181899    1.6424462   0.70050353  0.066666667    1.2517093        1e-08 1.7512588e-09    5.7101782    2.4979829    30.403515 -0.016389018  -0.17765312 -0.014557766   0.17792738  -0.87852168   0.67178585 
  438000    4.1892375    1.2756478    2.9135896  -0.21435687    0.8505226   0.99190084   0.76256246   -1.2465374            1    1.5082656    2.1670661    2.1384779   0.21925284  0.016908802  0.085473621   0.03401093    1.3473267    1.3778037   0.70510708  0.066666667    1.2516685        1e-08 1.7627677e-09    5.6728972    2.5026698    30.403515 0.00088563874  -0.18162821 -0.028154263   0.17569038  -0.50513103  0.099368167 
  439000    4.1610615    1.2738199    2.8872416  -0.21748579   0.84930382    1.0055591   0.75207202   -1.2465374            1    1.5895079    2.2034647    2.2180596   0.34699939  0.027072567   0.14206245  -0.01034039     1.430783    1.4572495   0.70375168  0.066666667    1.2546436        1e-08 1.7593792e-09    5.6838231    2.4816062    30.403515 -0.0077855002  -0.18181986 -0.0035289673    0.1694803   -1.3181761   0.26909011 
  440000    4.1802139     1.277663    2.9025509  -0.21830146    0.8518662    1.0166204   0.74933832   -1.2465374            1    1.5996883    2.2224782    2.2209894   0.35559731 0.0047452262   0.10638557 0.0013778853    1.4415403    1.4659751   0.70661849  0.066666667    1.2453122        1e-08 1.7665462e-09    5.6607633    2.4844571    30.403515 -0.0052626075  -0.21491729 0.0089161656   0.21754226   -1.5360246  0.017167474 
  441000    4.1897006    1.2715925    2.9181081  -0.21260962   0.84781876   0.99692979   0.75503906   -1.2465374            1     1.625173    2.2408548    2.2549744   0.37968972   0.01602518  0.083372376 -0.0064994057    1.4658219    1.4940496   0.70631403  0.066666667    1.2490988        1e-08 1.7657851e-09    5.6632034    2.4796767    30.403515 0.0083431657  -0.19050908 -0.0077941198   0.14768481   -2.0743098    3.4155851 
  442000    4.1509952    1.2577638    2.8932314  -0.22079785   0.83859861   0.99097551   0.74378202   -1.2465374            1    1.6372513    2.2322843    2.2345649   0.44490458 -0.0095914627 -0.020730339 0.0050725525    1.4802759     1.506911   0.70946223  0.066666667    1.2437595        1e-08 1.7736556e-09    5.6380732    2.4771504    30.403515 0.0035120166  -0.18792327 -0.0026011095   0.20084487  -0.87381351    4.4273702 
  443000    4.1812151    1.2524111    2.9288039  -0.22194937   0.83502982   0.99307723   0.73667872   -1.2465374            1    1.5610612    2.1808929      2.19568   0.30661057 -0.0061906434 -0.024080646 -0.0066297356     1.405585    1.4304445   0.70529817  0.066666667    1.2450345        1e-08 1.7632454e-09    5.6713603    2.5177887    30.403515 -0.0065541911  -0.17118131 0.0046627919   0.18943252   0.50482923    0.9715035 
  444000    4.1916483    1.2646136    2.9270347  -0.21073744   0.84316568    1.0140835   0.73679513   -1.2465374            1    1.6651017    2.2567917    2.2588258   0.47968766  0.010627326  0.052510258  0.013754145     1.509601    1.5317221   0.70440508  0.066666667    1.2442433        1e-08 1.7610127e-09    5.6785507     2.488974    30.403515 0.0017213027  -0.18557207 0.0039314891   0.22027186 -0.032798532    1.8047046 
  445000    4.1854792    1.2731254    2.9123538  -0.21711118   0.84884077    1.0021088   0.75347056   -1.2465374            1    1.5206999    2.1754956    2.1422557   0.24434833 -0.006336962  0.039149375  0.029337583    1.3616798    1.3888953   0.70682513  0.066666667    1.2532389        1e-08 1.7670628e-09    5.6591083    2.4916892    30.403515 -0.0075804811  -0.18024075 0.00083074049   0.21620785 -0.045141616   -1.0918387 
  446000    4.1845052    1.2792775    2.9052277  -0.21557656   0.85294264    1.0108376   0.75468962   -1.2465374            1    1.5917428     2.237404    2.1996774   0.33814679 -0.0040995139  0.055639558 0.00080295228    1.4324654    1.4587901    0.7076994  0.066666667    1.2522462        1e-08 1.7692485e-09    5.6521173    2.4909522    30.403515 0.0065443385  -0.21533835 0.0032118808   0.16732109   -1.4497326  -0.35143413 
  447000    4.1833897    1.2833251    2.9000646  -0.20899196   0.85564131   0.99857171   0.76671475   -1.2465374            1    1.5286269    2.1710328    2.1680617   0.24678624  0.016894027 0.0098924441  -0.03039928    1.3668116    1.3972876   0.70233709  0.066666667    1.2467386        1e-08 1.7558427e-09    5.6952709    2.4950926    30.403515 -0.006091742  -0.20206334 0.0017162962   0.20375917   -1.0157979   -1.2524885 
  448000    4.1663362    1.2653698    2.9009664  -0.21735317   0.84366984   0.99209154   0.75131901   -1.2465374            1    1.6181501    2.2219613    2.2201778   0.41231123  0.010062639  0.003434441 -0.026106873    1.4595841    1.4876631   0.70345257  0.066666667    1.2490055        1e-08 1.7586314e-09    5.6862398    2.4728667    30.403515 0.0070989283  -0.19170988 0.0007431861   0.18571439   -1.6819109    1.9122478 
  449000    4.1582924    1.2679025    2.8903899  -0.22400804   0.84535846     1.004247   0.74648497   -1.2465374            1    1.6075853    2.2320241    2.2158857   0.37484614 -0.0064003235 -0.0066528362   0.04141198    1.4500395    1.4754995   0.70678329  0.066666667    1.2608132        1e-08 1.7669582e-09    5.6594433    2.4860609    30.403515 -0.0055251731   -0.1708587 -0.010789072   0.17521707    1.3910561   -2.3052839 
  450000    4.1668087    1.2612685    2.9055401  -0.22039441   0.84093537   0.98992032   0.74823305   -1.2465374            1    1.4949313    2.1295488    2.1564703   0.19877478   0.00169961 -0.037413245  0.044269662    1.3370166    1.3647299   0.70433531  0.066666667    1.2642888        1e-08 1.7608383e-09    5.6791132    2.4927176    30.403515 0.00044620561  -0.17506494  0.012573137   0.23028422   0.78382486 -0.047062487 
  451000    4.1215992    1.2484047    2.8731945  -0.22132325   0.83235858    1.0016258    0.7270148   -1.2465374            1    1.6251267    2.2403521    2.2274211   0.40760704 -0.0065447222 -0.0099866884 -0.0046574532    1.4716902    1.4933857    0.7031568  0.066666667    1.2653355        1e-08 1.757892e-09    5.6886316    2.4858134    30.403515 -0.0031785735  -0.20521608 0.0074602508    0.1917305    0.2060125  0.075091585 
  452000    4.1995287    1.2957159    2.9038127  -0.21821337   0.86390276    1.0038505   0.77683645   -1.2465374            1     1.561819    2.1725661    2.2169852   0.29590568 0.0013112963 -0.015182679 0.00022644227    1.3978675    1.4297854   0.70788949  0.066666667    1.2669182        1e-08 1.7697237e-09    5.6505995    2.5172953    30.403515 0.00073491042  -0.16438685 0.0086799624   0.16501906 -0.096235721     1.173794 
  453000    4.1497772    1.2549815    2.8947957  -0.21724353   0.83674359    1.0058053   0.73152864   -1.2465374            1    1.7120842    2.3121255    2.3023741   0.52175308 -0.016558318  0.072854901  0.043534527     1.557695    1.5797935   0.70087819  0.066666667    1.2703645        1e-08 1.7521955e-09    5.7071258    2.4872374    30.403515 -0.0072795034   -0.1895098 0.00018344296   0.16699854   -1.0611397      3.59122 
  454000    4.1542856    1.2601422    2.8941434  -0.21615999   0.84018439    1.0045173   0.73791705   -1.2465374            1    1.6123338     2.218847     2.215298   0.40285647 -0.011047065  0.041091059  0.073340932    1.4565963    1.4802125   0.69942108  0.066666667    1.2622628        1e-08 1.7485527e-09    5.7190155    2.4775861    30.403515 -0.0068754286   -0.1742544  0.001282461   0.20839123  -0.87612285    1.4781798 
  455000    4.2003602      1.28446    2.9159002  -0.21161068   0.85639797    1.0121327   0.75949182   -1.2465374            1    1.4626315    2.1287233     2.110502   0.14866925   0.01589105 -0.069801303   0.01544188    1.3023406    1.3295085   0.69767257  0.066666667     1.274163        1e-08 1.7441814e-09    5.7333485    2.4852405    30.403515  0.016546993  -0.19507499 -0.0036435133   0.19497765   -0.6353017    1.6373954 
  456000    4.1785338    1.2691913    2.9093424  -0.21823383   0.84621779    1.0069222   0.74621279   -1.2465374            1    1.6563331     2.261782    2.2512455   0.45597193 -0.017195606 -0.095160317 -0.064735484    1.4988448    1.5238955   0.70294289  0.066666667    1.2548664        1e-08 1.7573572e-09    5.6903627    2.5009897    30.403515 -0.0059486345  -0.20224663  0.015086458   0.17933444   0.21606364    3.2313721 
  457000    4.1785973    1.2708979    2.9076995  -0.21542639   0.84735564   0.99720817   0.75411375   -1.2465374            1    1.5886732    2.2149652    2.2090045   0.34204993 0.0044454555 -0.019647598  -0.07658607    1.4295174    1.4575132   0.69793432  0.066666667    1.2558758        1e-08 1.7448358e-09    5.7311983    2.4770467    30.403515 0.0049202702  -0.22385653 -0.0061061981    0.1881935   -1.1663185    2.7206614 
  458000    4.1831536    1.2882439    2.8949098  -0.21923148   0.85892085    0.9976379   0.77262064   -1.2465374            1    1.6655676     2.268023    2.2722911   0.45638882 -0.0039130361 -0.097661317  0.035619818    1.5025059    1.5343511    0.6989714  0.066666667    1.2561526        1e-08 1.7474285e-09    5.7226948    2.4749618    30.403515 0.0032555633  -0.21629689 -0.014856506   0.21205089  -0.05156586     1.220699 
  459000    4.1581665    1.2685715    2.8895951  -0.21349969   0.84580451     1.005565   0.74638771   -1.2465374            1    1.6388606    2.2480409    2.2331774    0.4353634 0.0099002165  -0.13063796 -0.023595706    1.4813353    1.5066014   0.70090467  0.066666667      1.26531        1e-08 1.7522617e-09    5.7069102    2.4871948    30.403515 -0.003594325  -0.19517326 0.0031106843   0.20917494    1.7935361    0.1872731 
  460000     4.139851    1.2648084    2.8750425  -0.23128857   0.84329555    1.0067882    0.7415524   -1.2465374            1     1.593025    2.2178045    2.2038656   0.35740487 -0.00032473433 -0.082825105 -0.018686315    1.4365202     1.460605   0.70524327  0.066666667     1.258459        1e-08 1.7631082e-09    5.6718017    2.4863198    30.403515 0.0099415876   -0.1555283 0.0084267682   0.20157984   0.76014292     2.847035 
  461000     4.178553    1.2772416    2.9013114  -0.21982794   0.85158522    1.0027223   0.75754353   -1.2465374            1    1.5268726    2.1603808    2.1590723   0.26116471  0.018249764    -0.104744 -0.032783091    1.3669929    1.3949873   0.70799168  0.066666667    1.2510131        1e-08 1.7699792e-09    5.6497839    2.4983902    30.403515 0.0064966435  -0.18675749 -0.0024358196   0.20264059    2.3905386   -1.0002072 
  462000    4.1826002    1.2799754    2.9026248  -0.22058346   0.85340797    1.0073783   0.75760088   -1.2465374            1    1.6853337    2.2708626    2.2851463   0.49999211  0.020187301 -0.051227782 -0.023580824    1.5254419     1.552836   0.70037047  0.066666667    1.2525457        1e-08 1.7509262e-09    5.7112631    2.4876227    30.403515 0.0084788786  -0.22846717  -0.01251596   0.18437041      1.40746  0.098407548 
  463000    4.1624786    1.2554902    2.9069884  -0.21107172   0.83708273   0.98136669   0.74730941   -1.2465374            1    1.4676932    2.1143082    2.1239512   0.16482006 -0.0064828508 -0.0025623021   0.03473313    1.3099734    1.3386168   0.69696479  0.066666667    1.2487962        1e-08 1.742412e-09    5.7391708    2.4811871    30.403515 -0.0059625715   -0.2168888 -0.001694208    0.1908445   0.55316519    -1.582161 
  464000    4.1842969    1.2627004    2.9215965  -0.20990099   0.84189005    0.9892207   0.75021886   -1.2465374            1    1.6434505    2.2495161    2.2518364   0.42899916 -0.019061381 -0.00063996338  -0.02098631    1.4851167    1.5133411   0.69446508  0.066666667    1.2389433        1e-08 1.7361627e-09    5.7598289     2.497358    30.403515 -0.0075208556  -0.19290319 -0.00021333946   0.20506773  -0.74100487    2.4600274 
  465000    4.1661272    1.2568285    2.9092987  -0.21259888   0.83797502   0.98457648   0.74675759   -1.2465374            1    1.5497465    2.1546229    2.1763775    0.3182391 0.0002815413 -0.038648306 0.0040897465    1.3921432    1.4202479    0.7006024  0.066666667    1.2342784        1e-08 1.751506e-09    5.7093724    2.5161492    30.403515  0.010242756  -0.17515161 0.00029065697   0.17277185  -0.73436629   0.66762369 
  466000    4.1913832    1.2822359    2.9091473  -0.22083815   0.85491512    1.0061838     0.760792   -1.2465374            1    1.5855362    2.2091812    2.1906869   0.35674036  -0.01281451  -0.12183433  -0.02707126    1.4249709    1.4531956   0.69756443  0.066666667     1.233447        1e-08 1.7439111e-09    5.7342373    2.4903352    30.403515 -0.0039533498  -0.15403395 -0.00049477594   0.17638688  -0.66222557   0.82241348 
  467000     4.159283    1.2635455    2.8957375  -0.20848915    0.8424535    1.0066338   0.74028164   -1.2465374            1    1.5135233    2.1664142    2.1604813   0.21367452 0.0043187353 -0.031190481  0.091001521    1.3572868    1.3811236   0.70080011  0.066666667    1.2346077        1e-08 1.7520003e-09    5.7077616    2.4765378    30.403515 0.0055091855  -0.14717873 -0.011435105   0.16796566  -0.57778977    1.4275161 
  468000    4.1607886    1.2614292    2.8993594  -0.21837148   0.84104253    1.0091117   0.73644689   -1.2465374            1    1.5909934    2.2042942    2.2203821   0.34830378 -0.015435765  -0.12879394 -0.049664728    1.4355661    1.4582677   0.70011984  0.066666667    1.2441244        1e-08 1.7502996e-09    5.7133076    2.5133622    30.403515 0.0035238069  -0.17405692 0.0076743927   0.16560899     1.539624  -0.22691918 
  469000    4.1971227     1.293344    2.9037787  -0.21974029   0.86232128     1.039099   0.75230208   -1.2465374            1    1.5099019      2.14134    2.1710013   0.21736453 -0.0038668735 -0.040101258 -0.012218436    1.3511284    1.3732321   0.69751493  0.066666667    1.2378669        1e-08 1.7437873e-09    5.7346443    2.4888962    30.403515 -0.014204328  -0.18723707  0.011855421   0.18127919  0.016081753   0.58586961 
  470000    4.1398893    1.2706801    2.8692092  -0.21916426   0.84721043    1.0042655   0.74947984   -1.2465374            1    1.5412228    2.1876611    2.1795923   0.25641508 -0.023336997  -0.13661403  0.044651208     1.383045    1.4091346   0.69867292  0.066666667    1.2400602        1e-08 1.7466823e-09    5.7251396     2.477797    30.403515 0.0036655594  -0.20972438 -0.0046291978   0.15210921   0.61748903  -0.36246096 
  471000    4.1583153    1.2615547    2.8967606  -0.21910407   0.84112617    1.0099613   0.73605316   -1.2465374            1    1.6133606     2.237572    2.2146958   0.38781414  0.004844254   -0.1111368  0.014481053    1.4580165    1.4805233   0.70399758  0.066666667     1.240941        1e-08 1.7599939e-09    5.6818377     2.517538    30.403515 -0.0068462822  -0.20119866  0.003783526   0.17718831   0.10642788    2.0503045 
  472000    4.1909856    1.2677938    2.9231918  -0.20933989     0.845286    1.0109685   0.74217848   -1.2465374            1    1.4944881    2.1493982    2.1224879   0.21157798 -0.011494176  -0.11072691 0.0094343186    1.3378512    1.3615182   0.69537821  0.066666667    1.2491532        1e-08 1.7384455e-09    5.7522654    2.4933402    30.403515 0.0092111848  -0.21558276 -0.0015794502   0.19257872  -0.62876066   0.67830928 
  473000    4.1841263    1.2708755    2.9132508  -0.22016786   0.84734071   0.98973634   0.75874598   -1.2465374            1    1.6921115    2.2958191    2.2668261   0.51368933 -0.0029060224  -0.16456284  0.016697622    1.5319781    1.5619343   0.70359958  0.066666667    1.2569034        1e-08 1.758999e-09    5.6850517    2.4978341    30.403515 0.0093129988  -0.16923694  -0.01431573   0.19488569   0.33932225    2.3846181 
  474000    4.1798563    1.2676957    2.9121605  -0.21558525   0.84522063   0.98785849   0.75647458   -1.2465374            1    1.6858076    2.2764883    2.2916433   0.48929113 -0.00045782751  -0.02860476 -0.012131614    1.5261535    1.5558773   0.70012388  0.066666667    1.2602176        1e-08 1.7503097e-09    5.7132747     2.489189    30.403515 -0.019942867  -0.22615249 0.0090292759   0.20446432   0.36244836    4.6873439 
  475000    4.1517007    1.2316098    2.9200909   -0.2053848   0.82116076   0.97533711   0.72521972   -1.2465374            1    1.5659082    2.1899629    2.1874758   0.32028588 -0.0079844551 0.0034088852   0.02614373    1.4128505    1.4376248    0.7051331  0.066666667    1.2508244        1e-08 1.7628327e-09    5.6726879    2.5062487    30.403515 -0.001619183  -0.17117566 0.0069105924   0.19278723   -0.5863303    1.8077267 
  476000    4.1955247    1.2776467     2.917878  -0.20673369   0.85185535    1.0188943   0.74790359   -1.2465374            1    1.6436368    2.2607088    2.2424116   0.42778994 -0.0067996338  -0.11987484  0.030078286    1.4857916    1.5096245   0.70029178  0.066666667    1.2507125        1e-08 1.7507295e-09    5.7119048    2.4882341    30.403515   0.01005713  -0.21710243 0.0051382304   0.17098586    1.3959547    2.6661155 
  477000    4.1902066    1.2698768    2.9203298  -0.20583811   0.84667486   0.99239468   0.75600837   -1.2465374            1     1.527596    2.1616613    2.1466536   0.27447315 -0.017475698 -0.086460202  0.011439891    1.3680403    1.3970691   0.70074367  0.066666667    1.2625561        1e-08 1.7518592e-09    5.7082214    2.4873482    30.403515 0.0048386107  -0.18921538 -0.00013536551   0.22041819   0.18503292 -0.093804977 
  478000    4.1659626    1.2727137    2.8932489  -0.21282658   0.84856632   0.99007042   0.76052741   -1.2465374            1     1.700339    2.2765275    2.2889022    0.5355872 -0.0012580797 -0.077113071 -0.0087706366    1.5398295    1.5701178   0.69766127  0.066666667    1.2723112        1e-08 1.7441532e-09    5.7334414    2.4968269    30.403515 -0.00084868015  -0.20299131 -0.0043779863   0.18455567 -0.043360843    4.9141749 
  479000    4.1891032    1.2766878    2.9124154   -0.2185631     0.851216    1.0067023   0.75446381   -1.2465374            1    1.5326684     2.167881    2.1563329   0.27379138 -0.0082121744  -0.12308506 -0.017431767    1.3734387    1.4002597   0.70101345  0.066666667    1.2656867        1e-08 1.7525336e-09    5.7060246    2.5165322    30.403515 -0.0043422094  -0.20229326  0.010239484   0.16842788   0.71171375    1.4086474 
  480000    4.1869632    1.2775048    2.9094584  -0.20323341   0.85176071    1.0057317   0.75595296   -1.2465374            1    1.6399357    2.2453928     2.264728   0.40968621 0.0071743803 -0.061671391 -0.070794458    1.4803917    1.5076546   0.70255732  0.066666667    1.2633572        1e-08 1.7563933e-09    5.6934856    2.4975823    30.403515 0.0022151305   -0.2016959 0.00094011776   0.18606915   -1.0955681    1.7828118 
  481000    4.1546258    1.2634988    2.8911271  -0.22573795   0.84242237   0.98023873    0.7566806   -1.2465374            1    1.6315227    2.2223271    2.2530622   0.41917895  0.013183536  -0.11900888  0.043150795    1.4718252    1.5025947   0.69579902  0.066666667    1.2598405        1e-08 1.7394975e-09    5.7487865     2.506058    30.403515 -0.0021265375  -0.19836917 -0.0026819356   0.18445242   0.16040028    1.9235272 
  482000    4.1894768    1.2785118    2.9109649  -0.21645328   0.85243215    1.0176341   0.74962531   -1.2465374            1    1.6047761    2.2223009    2.1823317   0.40969567 -0.0035044615 -0.014970583  0.036304868    1.4465675    1.4709295   0.69714628  0.066666667    1.2658545        1e-08 1.7428657e-09    5.7376767    2.5081324    30.403515 0.0035359816  -0.19264694 -0.0066796968   0.20140379   0.63937332    1.8334707 
  483000    4.1828378    1.2900293    2.8928085  -0.21569964   0.86011125    1.0059597   0.76936692   -1.2465374            1    1.5372199    2.1831844    2.1644131   0.26406218  0.018227252  0.036901768 -0.0081676171    1.3748449    1.4049088   0.70360861  0.066666667    1.2568994        1e-08 1.7590215e-09    5.6849787    2.4995427    30.403515 0.0065142131  -0.20328863 -0.0044429181   0.22827526  -0.26247489   0.34352649 
  484000    4.1604657    1.2721907     2.888275  -0.21930074   0.84821762   0.99391181   0.75756737   -1.2465374            1     1.507997    2.1502333      2.14302   0.23073789 0.0087365753  0.048408813  0.029783715    1.3481123    1.3772706   0.70245251  0.066666667    1.2651482        1e-08 1.7561313e-09    5.6943351     2.504127    30.403515 0.00059761813  -0.16985544 -0.0030822965   0.17277762  -0.56327525   -2.0308301 
  485000    4.1586343    1.2633641    2.8952702  -0.20806251   0.84233258   0.99018571   0.75033585   -1.2465374            1    1.6417498    2.2428276    2.2659468   0.41647494 -0.0023668439  0.087148807  0.006340115    1.4833913    1.5115134   0.69458526  0.066666667    1.2624302        1e-08 1.7364632e-09    5.7588322    2.5144253    30.403515 -0.006890556  -0.18721718 0.0016693076   0.19763133  -0.71883248    3.5530679 
  486000    4.1742689    1.2717233    2.9025456  -0.21135328     0.847906    1.0089227   0.74770665   -1.2465374            1    1.6898246    2.2842447    2.2703543   0.51487461 -0.0080897928  0.053490348 0.0029264553     1.532021    1.5571238   0.69696834  0.066666667    1.2560984        1e-08 1.7424209e-09    5.7391416    2.4844661    30.403515 -4.0493324e-05  -0.23199985 -0.018680637   0.21411044    -1.885985    1.5416511 
  487000    4.1479831    1.2597253    2.8882577  -0.21676798   0.83990646    1.0006666    0.7398656   -1.2465374            1    1.5160516     2.154057    2.1395829     0.254515 -0.0080861908   0.10279183  -0.00659751    1.3599029    1.3844368   0.70037057  0.066666667    1.2538553        1e-08 1.7509264e-09    5.7112622    2.4938514    30.403515 0.0037570755   -0.1948147 -0.0058064646   0.21183973   -2.4142371  -0.17934116 
  488000    4.1754631    1.2738521    2.9016111  -0.21575388   0.84932532    1.0021565   0.75422744   -1.2465374            1    1.5843879    2.1845321    2.2189951   0.34963669  0.010098104  0.071155295  -0.07437524    1.4252081    1.4525771   0.69948539  0.066666667    1.2573138        1e-08 1.7487135e-09    5.7184897    2.4864439    30.403515 -0.0013665038  -0.19308634 -0.0068104723   0.20871374    -1.518921   0.96596128 
  489000    4.1764929    1.2666548    2.9098381  -0.21539642   0.84452662    0.9939747    0.7515363   -1.2465374            1    1.6251048    2.2478661    2.2142485   0.41319989 -0.0055940847   0.11778472  0.056720125     1.466493    1.4943701    0.6996862  0.066666667    1.2658833        1e-08 1.7492155e-09    5.7168485    2.4921673    30.403515 0.0016803556   -0.2117737 -0.004379101    0.2087133   -1.0743449    2.6831503 
  490000    4.2023945    1.2814842    2.9209103  -0.21424643   0.85441393   0.99380154   0.76769505   -1.2465374            1    1.5037823    2.1592138    2.1516892   0.20044375 -0.006593726  0.023556117 -0.016867106    1.3417601    1.3730703   0.70224594  0.066666667    1.2615912        1e-08 1.7556149e-09    5.6960101    2.4811231    30.403515 -0.0017070957  -0.19170665 -0.011897981   0.16916486 -0.039238536    2.0709449 
  491000    4.1785872    1.2689862     2.909601  -0.22575377   0.84608104    1.0049685   0.74720835   -1.2465374            1    1.5443406    2.1843512    2.1547384   0.29393232 0.00010456939  0.047888441 -0.023856898    1.3866422      1.41216    0.7091691  0.066666667    1.2780846        1e-08 1.7729228e-09    5.6404037    2.4959136    30.403515 0.0094737525  -0.17741451 -0.0074854716   0.19105343   0.81548266    2.7800202 
  492000    4.2030551    1.2921896    2.9108654  -0.20453638   0.86155164    1.0182723   0.76403199   -1.2465374            1     1.660952    2.2321698    2.2959719   0.45471432 -0.0021651689 0.0012262419  0.048323656    1.4997029    1.5270215   0.70384742  0.066666667    1.2772537        1e-08 1.7596185e-09    5.6830499    2.5171736    30.403515 0.0057741731  -0.19015805 0.0046628008   0.17180945   0.52973023    2.9228309 
  493000    4.1410008    1.2594323    2.8815685  -0.21417271   0.83971109   0.99118659   0.74545643   -1.2465374            1    1.5200013     2.158275    2.1419303   0.25979864 -0.014234337  0.026606668  0.028071418    1.3626726    1.3896333   0.69831296  0.066666667    1.2898433        1e-08 1.7457824e-09    5.7280908    2.4685147    30.403515 -0.0055930791  -0.16819337  0.012582268   0.22286622  -0.31642982   -1.1465337 
  494000    4.1961058    1.2752337    2.9208721  -0.20205956   0.85024648   0.99959177   0.75732121   -1.2465374            1    1.5498334     2.184966     2.159907   0.30462725 -0.0051066501 0.0084564391 -0.015103432    1.3900007    1.4183599    0.6985919  0.066666667     1.281481        1e-08 1.7464798e-09    5.7258035     2.477055    30.403515 -0.012454537  -0.19068466 0.0006770361   0.17409015   0.49070527    1.7659564 
  495000    4.1935044     1.283815    2.9096895  -0.20615792   0.85596793    1.0120721   0.75883149   -1.2465374            1    1.7320947    2.3302667     2.299024   0.56699344   0.01364324 -0.025098918  0.031180921    1.5719432    1.5989797   0.70122293  0.066666667    1.2706714        1e-08 1.7530573e-09      5.70432    2.4926372    30.403515 0.00023536139  -0.20531583  0.012025359   0.18484156   0.38731159    1.9519825 
  496000    4.1393971    1.2529286    2.8864686  -0.21873859   0.83537482   0.98774838   0.74055975   -1.2465374            1    1.5318715    2.1643989    2.1609735   0.27024195 0.0097837089  -0.10827256 -0.009231223    1.3755762    1.4019557    0.7023752  0.066666667    1.2834056        1e-08 1.755938e-09    5.6949619    2.4962823    30.403515 0.00059943012  -0.21621829 0.0085316837   0.18029727   0.17694205    2.3267231 
  497000     4.140816    1.2611151    2.8797008  -0.22558027   0.84083308   0.99719954   0.74353056   -1.2465374            1    1.5139591    2.1227996    2.1661196   0.25295819 -0.0072568894  -0.12074305  0.016907305    1.3570369    1.3828003    0.7070964  0.066666667    1.2760705        1e-08 1.767741e-09    5.6569373    2.4959588    30.403515 0.00080825919  -0.19315835 0.00039415659   0.18631294   0.45795877    2.2750987 
  498000    4.1917414      1.27864    2.9131014  -0.21410821   0.85251759   0.98758931   0.76848805   -1.2465374            1    1.6236384    2.2416356    2.2444475   0.38483205 -0.041286703   -0.1093692  0.032080387    1.4614489    1.4937436   0.70445441  0.066666667    1.2732074        1e-08 1.761136e-09    5.6781531    2.5010416    30.403515 0.0047211424  -0.16669045 0.0075547834   0.19303477   0.20899149  -0.39142363 
  499000    4.1895344    1.2598224     2.929712   -0.2180219   0.83997121   0.98536897   0.74950427   -1.2465374            1    1.4564453    2.0938896     2.109659   0.16578719  0.014374884  -0.05123146 -0.010586052    1.2982623    1.3268424   0.70756358  0.066666667    1.2660187        1e-08 1.7689089e-09    5.6532022    2.4973118    30.403515 -0.00096556757   -0.2112146 0.0015014708   0.18790729   0.52764913     2.018516 
  500000    4.1705777    1.2754717    2.8951059  -0.22301506    0.8504052   0.99101868   0.76292165   -1.2465374            1    1.6324485    2.2425871    2.2397853   0.41497316 0.0076424098  -0.12849951 0.0015072716    1.4714338    1.5021026   0.69908684  0.066666667    1.2703984        1e-08 1.7477171e-09    5.7217498     2.479998    30.403515  0.012785276  -0.20232992 -0.0033433647   0.19790472    1.9578563  0.064312684 
  501000    4.1836198    1.2498633    2.9337564  -0.21281009    0.8333311   0.97515364    0.7450911   -1.2465374            1     1.578594    2.1747767    2.1888777   0.37212754  0.025581727  -0.05009223 -0.086877787    1.4213424    1.4503348   0.69919017  0.066666667    1.2619148        1e-08 1.7479754e-09    5.7209043    2.4868225    30.403515  0.012744395  -0.19631633 0.00012872115   0.19247289    2.3879583   0.65967682 
  502000    4.1683834    1.2570386    2.9113448   -0.2150512   0.83811513   0.98826733   0.74468489   -1.2465374            1    1.6527117    2.2623256    2.2362844    0.4595251 0.0036532906 -0.073708663 -0.023737501    1.4955458    1.5227277   0.70172499  0.066666667    1.2597257        1e-08 1.7543125e-09    5.7002388    2.5054079    30.403515 -0.0046347058  -0.18377243 -0.00065784929   0.16758753    0.6653962  0.051441371 
  503000    4.1878662    1.2754581    2.9124081   -0.2231455   0.85039611   0.99389777   0.76111264   -1.2465374            1    1.5608118    2.1707945    2.1808921   0.33074888 -0.0034452148 -0.059646166 -0.065553978    1.4001789    1.4300872   0.70445924  0.066666667    1.2617357        1e-08 1.7611481e-09    5.6781142     2.500177    30.403515 0.0081519814  -0.22297412 -0.0041896922   0.18404267   0.41134455   -1.1238336 
  504000    4.1779876    1.2672813    2.9107063  -0.23470729   0.84494429   0.99163406   0.75367303   -1.2465374            1    1.6393595    2.2220516    2.2244962   0.47153073 -0.0026192858 -0.048711389 -0.020581183    1.4802967    1.5089327   0.70631892  0.066666667    1.2573787        1e-08 1.7657973e-09    5.6631642    2.4954409    30.403515 -0.00089537906   -0.1997816 0.0027643983   0.21184658    1.8560587  0.051838331 
  505000     4.186575    1.2933836    2.8931914  -0.21718923   0.86234769    1.0211449   0.76353403   -1.2465374            1    1.6334483    2.2460814     2.213635   0.44062863  0.004773646  -0.02928017  0.060878966    1.4723044      1.49914   0.70386711  0.066666667    1.2617821        1e-08 1.7596678e-09    5.6828909    2.4818088    30.403515 0.0043443561  -0.21530662 2.6930142e-05   0.19958139   0.48661248   0.63679225 
  506000    4.1488289    1.2570797    2.8917492  -0.21692789   0.83814253    1.0097887   0.73131716   -1.2465374            1    1.6622246      2.27471    2.2645583   0.44740541 0.0020096606  -0.03917458 -0.021453643      1.50788    1.5294099   0.70211902  0.066666667    1.2635971        1e-08 1.7552975e-09    5.6970398    2.4833959    30.403515 0.0061335157  -0.22385515 0.00031711425   0.19412765   0.29858157    2.4509821 
  507000    4.1791932    1.2705284    2.9086649  -0.21053435   0.84710926    1.0102886   0.74556202   -1.2465374            1    1.5794898     2.211808    2.2183116   0.30834984  0.004835028 -0.015427937  -0.04146352    1.4221388    1.4466094   0.70134248  0.066666667    1.2732244        1e-08 1.7533562e-09    5.7033476    2.4887547    30.403515 -0.00027897186   -0.2060766 -0.00011103707   0.17970758    0.3571857    0.5701682 
  508000    4.1428882    1.2692686    2.8736196  -0.21566946   0.84626932    1.0034997   0.74842932   -1.2465374            1    1.7164335    2.3393929    2.2981485    0.5117591 0.0057773645  -0.10359608 -0.027542732    1.5584774     1.584446    0.7011966  0.066666667    1.2725191        1e-08 1.7529915e-09    5.7045342    2.4923042    30.403515 -0.0052887934  -0.17635501 -0.012883314   0.17005804  -0.25204152    1.0976564 
  509000    4.1563324      1.27107    2.8852624   -0.2195997   0.84747038    1.0050655   0.74940332   -1.2465374            1    1.5874923    2.2129345    2.2224591   0.32708335   0.00399606 -0.073181529 -0.0022882362    1.4293306    1.4552989   0.70352366  0.066666667    1.2687289        1e-08 1.7588091e-09    5.6856652    2.4898013    30.403515 -0.0019651868  -0.19961464 -0.0053044901   0.21283005   -1.3068703   0.86026625 
  510000    4.1777541    1.2730059    2.9047482  -0.21931858   0.84876114    1.0158323    0.7447888   -1.2465374            1    1.5659329    2.2000865    2.1579382   0.33977407 0.0068836234 -0.069396156 -0.019511507    1.4087451    1.4323234   0.70831289  0.066666667    1.2685932        1e-08 1.7707822e-09    5.6472218    2.5008902    30.403515 -0.00025516448    -0.233849 0.0017096546   0.18923805   -1.1862359    1.6186805 
  511000    4.1739665     1.278303    2.8956635  -0.21383059   0.85229291   0.99226488   0.76520947   -1.2465374            1    1.6565201    2.2801093    2.2797366   0.40971437 -0.0017307172 -0.090699647 -0.031942574    1.4950225    1.5260103   0.71008662  0.066666667     1.264851        1e-08 1.7752165e-09    5.6331156    2.4863612    30.403515 -0.0032104024  -0.17208773 0.0065410816   0.20682572  -0.86491689    3.7340505 
  512000    4.1717672    1.2838916    2.8878756  -0.20853227   0.85601906    1.0049138   0.76337556   -1.2465374            1    1.5592177    2.1873344    2.2007539   0.28956479  0.001458187 -0.027415054  0.027961492    1.3981071    1.4270442   0.70779781  0.066666667    1.2616321        1e-08 1.7694945e-09    5.6513314    2.5171998    30.403515 0.0015398008  -0.20282392 0.0033084583   0.18727558    -0.428702  -0.44934517 
  513000    4.1764242    1.2760828    2.9003414  -0.21966107   0.85081261    1.0136998    0.7494481   -1.2465374            1    1.6248232    2.2463832    2.2129797   0.41510668 -0.016081657 0.0048824399  0.017041687    1.4666521    1.4914941   0.70954245  0.066666667    1.2662095        1e-08 1.7738561e-09    5.6374358    2.5017966    30.403515  0.012647721  -0.18180105 0.00026763327     0.224342  -0.30588424   0.94839652 
  514000    4.1686857    1.2731458    2.8955399  -0.22093942   0.84885441    1.0059167   0.75111962   -1.2465374            1    1.4879672    2.1262761    2.1069557   0.23066984 -0.011649306  0.064720434 -0.0046746909    1.3294433    1.3556618   0.69459235  0.066666667    1.2655293        1e-08 1.7364809e-09    5.7587735    2.4803664    30.403515 0.0001581504  -0.18609493 -0.0049822759   0.21318897  -0.73063979   -1.5790144 
  515000    4.1603832    1.2630719    2.8973113  -0.21687296   0.84213775     0.977038   0.75821327   -1.2465374            1    1.6332102    2.2299316    2.2566833   0.41301569 -0.0026481339   0.19609571  0.029838363    1.4731891    1.5047031   0.70335674  0.066666667    1.2651755        1e-08 1.7583919e-09    5.6870145    2.4915172    30.403515 0.0027133336  -0.17842627 0.0062414207   0.21239164    -1.220233    2.1857274 
  516000    4.1840814    1.2445911    2.9394903  -0.21833315    0.8298159   0.98656407   0.73227359   -1.2465374            1    1.6403151    2.2689733    2.2401062   0.41186592 -0.0097279498   0.21113067 -0.038210434    1.4857687    1.5105551    0.6982639  0.066666667    1.2715562        1e-08 1.7456597e-09    5.7284932    2.4837203    30.403515 0.0052634801  -0.18207802 -0.0066992607   0.16001551  -0.77432209    1.9370261 
  517000    4.1778298    1.2723755    2.9054543  -0.21506332   0.84834081   0.99529095   0.75690788   -1.2465374            1    1.6093488    2.2104321    2.2224362   0.39517818 -0.0078485457    0.1938166 -0.0092442596    1.4496033     1.478441   0.70333424  0.066666667    1.2725253        1e-08 1.7583356e-09    5.6871965    2.4832238    30.403515  0.004824231  -0.21578322 0.0083893764   0.17082045   -1.0972314    1.3202972 
  518000    4.1877018    1.2789506    2.9087512  -0.22205463   0.85272467    1.0113971   0.75398714   -1.2465374            1     1.446963    2.0713515    2.1138621   0.15567523  0.024579221   0.17902151 -0.037264704    1.2878338    1.3139367   0.70095991  0.066666667    1.2714241        1e-08 1.7523998e-09    5.7064605    2.4795916    30.403515 0.0072332478  -0.17561384 0.0012315112   0.15665187  -0.79044005  -0.20807228 
  519000    4.1981251    1.2867426    2.9113825  -0.21597511   0.85791989    1.0007449    0.7690594   -1.2465374            1    1.6391059    2.2579467    2.2400717   0.41929942 -0.0023171276  0.041417132  0.044417293    1.4767958    1.5074808    0.7003134  0.066666667    1.2797043        1e-08 1.7507835e-09    5.7117285    2.4748435    30.403515  0.013221874  -0.20051374 -0.0066266416    0.1915787  -0.90767572    2.8019714 
  520000    4.1939787    1.2738224    2.9201562  -0.20941773   0.84930554   0.99045772   0.76148608   -1.2465374            1    1.7382968    2.3109893    2.3264044   0.57749671 -0.014502061 -0.035270538 -0.033770338     1.577585    1.6080247   0.70151628  0.066666667    1.2747736        1e-08 1.7537907e-09    5.7019347    2.4914067    30.403515 0.0016443636  -0.14539236 0.0013605309    0.2047859   -1.4924912    3.1738297 
  521000    4.1413694    1.2557212    2.8856482  -0.22325518   0.83723676   0.99323448   0.74016342   -1.2465374            1     1.494295    2.1613831    2.1393865   0.18211546 -0.0093621081  0.013740495 -0.011444889    1.3380834    1.3636577    0.7067192  0.066666667    1.2690301        1e-08 1.766798e-09    5.6599566    2.4950627    30.403515 -0.004108902  -0.22680119 -0.010722722   0.18715562    0.3062923    2.0709648 
  522000    4.1885299    1.2765681    2.9119619  -0.21874306   0.85113615   0.98963338   0.76497158   -1.2465374            1    1.5960625    2.1978302    2.2089068   0.38145046 2.8939708e-05  0.019097769 -0.081435619    1.4346151    1.4658988   0.71097714  0.066666667    1.2732445        1e-08 1.7774428e-09    5.6260599    2.4864703    30.403515 0.0019317743  -0.17259714 -0.00096165637   0.18686027    -0.974279    3.3413668 
  523000    4.2166452    1.2949261    2.9217191  -0.21103215   0.86337617    1.0056384   0.77486736   -1.2465374            1    1.5769816    2.2250227    2.1813316   0.32459048 0.0012458045 -0.057174036  0.038619195    1.4134457    1.4447128   0.70697326  0.066666667     1.269329        1e-08 1.7674332e-09    5.6579226    2.4999352    30.403515 -0.018806795  -0.17648082 -0.00089353265     0.164361   0.25113648    0.4587397 
  524000    4.1774773    1.2805747    2.8969026  -0.20929299   0.85380755   0.98314435   0.77335226   -1.2465374            1    1.5585687    2.1805666     2.190594   0.30454566 0.0068931692 -0.031182529   0.05726806    1.3953526    1.4292585   0.71105307  0.066666667    1.2743728        1e-08 1.7776327e-09    5.6254592    2.5121686    30.403515 0.0030166049  -0.22853504 0.0083531161   0.18580058   0.43664545  -0.92351845 
  525000    4.1937949    1.2768005    2.9169944  -0.22133609   0.85129113   0.99320024   0.76300029   -1.2465374            1    1.4817676    2.1341865    2.1374448   0.17367158 -0.021362448 -0.0068585367 -0.042215879    1.3207363    1.3511348   0.71326191  0.066666667    1.2749522        1e-08 1.7831548e-09    5.6080381    2.5003416    30.403515  0.010998206  -0.20004908 0.0023419211   0.19034031   -1.7462711  -0.48256995 
  526000    4.2160406    1.2784723    2.9375683  -0.21563954   0.85240578    1.0123283   0.75288912   -1.2465374            1    1.6007497    2.2107699    2.2312849   0.36019416 -0.0091418758 -0.035520715 -0.038023929    1.4418523     1.467601   0.70297472  0.066666667    1.2721095        1e-08 1.7574368e-09     5.690105    2.4917745    30.403515 -0.0073943617  -0.18598521  0.018741507   0.19807681  -0.13574354    1.2728329 
  527000    4.2054565      1.27589    2.9295665  -0.21459266   0.85068406    1.0137104   0.74923281   -1.2465374            1    1.7166415    2.2953037    2.3063838   0.54823709 -0.007631209 -0.030656929  0.016846643    1.5585158    1.5833111   0.70369381  0.066666667    1.2754511        1e-08 1.7592345e-09    5.6842905    2.4828613    30.403515 0.0044095097  -0.20407509 -0.013563499   0.20505704  -0.24382683    3.2730035 
  528000    4.1730938    1.2662276    2.9068662   -0.2182081   0.84424176    1.0160386   0.73732356   -1.2465374            1    1.4287067    2.0786601    2.0904777   0.11698227 0.0093053391  0.096963983   0.05735741    1.2730944      1.29507   0.70514542  0.066666667    1.2710193        1e-08 1.7628636e-09    5.6725888    2.5229554    30.403515 0.00098478797  -0.17666308 0.0076286986   0.20333702  -0.75076542    2.2163199 
  529000     4.153576    1.2541627    2.8994132  -0.22146491   0.83619765   0.98282964   0.74496089   -1.2465374            1    1.6345649    2.2515854    2.2291957   0.42291363   0.01147526  0.059380889 -0.089696118    1.4773408    1.5052961   0.69912082  0.066666667    1.2718547        1e-08 1.7478021e-09    5.7214717    2.4861777    30.403515 0.0028891836  -0.16495128  -0.01218841   0.18199255  -0.83519298    3.7184905 
  530000    4.1574861    1.2666232    2.8908629  -0.22150751   0.84450553    1.0102465   0.74136141   -1.2465374            1    1.5307178    2.1463097    2.1657724   0.28007148 -0.0056745302   0.12213098 -0.081343982    1.3742534     1.397843   0.69599987  0.066666667    1.2675399        1e-08 1.7399997e-09    5.7471275    2.4825923    30.403515  0.012836059  -0.20106084 -0.015374246   0.19796865   -1.7607667    1.3887888 
  531000    4.2001933    1.2686032    2.9315901    -0.206548   0.84582568    1.0083561   0.74468261   -1.2465374            1    1.5876557    2.2075279    2.2243657   0.33107343 0.0072271261  0.056054755 -0.00030532342    1.4304903    1.4550294   0.69395491  0.066666667    1.2752292        1e-08 1.7348873e-09    5.7640632    2.4922846    30.403515 -0.0057844284  -0.20892031 0.0077651202   0.17495957   0.11252065    2.0957317 
  532000     4.153962    1.2627242    2.8912378  -0.21062504   0.84190593   0.99996522   0.74354861   -1.2465374            1     1.583765    2.2149653    2.2021033   0.33422639 -0.0034663972  0.019319775  0.026089881    1.4268389    1.4522424   0.70179242  0.066666667    1.2804668        1e-08 1.7544811e-09    5.6996911    2.4925705    30.403515 0.0042285445  -0.16478243  0.012821505   0.20849827  0.024098988    2.4748709 
  533000    4.1752001    1.2830686    2.8921315  -0.20996968   0.85547029    1.0087767   0.76007737   -1.2465374            1    1.5393552     2.172706    2.1633029   0.28205685 -0.003049859  0.027654699 -0.043732627    1.3789408    1.4066737   0.69750571  0.066666667     1.282009        1e-08 1.7437643e-09    5.7347201    2.4825783    30.403515 -0.0025771731  -0.20260522 -0.011922542   0.19580405   0.49212096    1.1608126 
  534000    4.1655456    1.2665107    2.8990349  -0.22284623   0.84443051    1.0067084   0.74344457   -1.2465374            1     1.556763    2.1918768     2.197305   0.28110719 0.00093010487  0.028618633 0.0011258019    1.3998589    1.4243534   0.69997894  0.066666667    1.2745483        1e-08 1.7499473e-09    5.7144577    2.4826336    30.403515  0.005561911  -0.16025077 0.0061910594   0.19173909    1.4700489    2.9779103 
  535000    4.1841489    1.2751887    2.9089602  -0.21279342   0.85021648   0.99880785   0.75776105   -1.2465374            1    1.5923439    2.2106432    2.2223585   0.34403009  0.011173438  0.032632756 -0.0044649109    1.4324184    1.4609736   0.69601836  0.066666667    1.2866934        1e-08 1.7400459e-09    5.7469749    2.4813575    30.403515 -0.0079008373  -0.19361357 -0.0092155079   0.17989623  -0.16756914    1.5976007 
  536000    4.1724465    1.2535319    2.9189146  -0.20650153   0.83577708   0.97523919   0.74900854   -1.2465374            1     1.489961    2.1305134    2.1371526   0.20221689 -0.0088600354  0.047478455 0.0083768412    1.3318826    1.3616905   0.70466169  0.066666667    1.2740839        1e-08 1.7616542e-09    5.6764829    2.5098209    30.403515  0.018328353  -0.17443688 0.0021127408   0.19840873   -1.1708753   -2.2214638 
  537000    4.1665436    1.2580469    2.9084967  -0.20703866   0.83878741    1.0011215   0.73776548   -1.2465374            1     1.603071     2.234076    2.2294036   0.34573344 -0.0077508685 0.0016449013 -0.045346941    1.4473655    1.4713963   0.70032329  0.066666667    1.2761405        1e-08 1.7508082e-09    5.7116478    2.4762553    30.403515 0.0067633028  -0.16643468   0.01540015   0.20155317  -0.35414709     3.595779 
  538000    4.1910756     1.289433    2.9016426   -0.2058184   0.85971369    1.0143661   0.76348263   -1.2465374            1    1.6597191    2.2613912     2.263488   0.45427802 -0.0043596201 -0.051241033  0.040161335     1.498586    1.5263024   0.70338641  0.066666667    1.2766036        1e-08 1.758466e-09    5.6867746    2.5041317    30.403515 0.0027965231  -0.23037275 -0.005383999   0.19543415  -0.25587744    1.8508713 
  539000    4.1649298    1.2498357    2.9150941  -0.21900588   0.83331268   0.98896533    0.7364537   -1.2465374            1    1.3967449    2.0531269    2.0660503  0.071057528 -0.0024550986 -0.019088087 -0.062756269    1.2413162    1.2666691    0.6943566  0.066666667    1.2793659        1e-08 1.7358915e-09    5.7607287    2.5071258    30.403515 -0.006219485  -0.18511856 0.0090425073   0.20462607   -1.0806833    1.1483333 
  540000    4.1789209    1.2742106    2.9047103   -0.2139548   0.84956433   0.99900287   0.75658082   -1.2465374            1    1.5840787    2.1982939    2.1855629   0.36837923 0.0027618088 -0.049559555 -0.032330708    1.4244022    1.4526826   0.69582196  0.066666667    1.2843025        1e-08 1.7395549e-09     5.748597     2.485762    30.403515 0.0075772782  -0.18392022  0.004942275   0.23133925  -0.44998555    3.1918669 
  541000    4.1890681    1.2657562     2.923312  -0.22287228   0.84392746    1.0175752   0.73585573   -1.2465374            1    1.7037731    2.2729142    2.3059472   0.53245794 -0.012359037 -0.0040516521 -0.014587275    1.5484707    1.5699343   0.69134336  0.066666667    1.2871306        1e-08 1.7283584e-09     5.785837    2.4751529    30.403515 -0.013940917  -0.19949987 -0.010537914   0.21067589   -1.5843286     4.458696 
  542000    4.1678709    1.2476134    2.9202576  -0.20031533   0.83183096    1.0062782   0.72325886   -1.2465374            1    1.5833565     2.232631    2.2086473   0.30879114 0.0040751038  0.013549367  0.055812778    1.4307126    1.4510035   0.69504229  0.066666667    1.2810651        1e-08 1.7376057e-09    5.7550455     2.477051    30.403515   0.01511904  -0.18913188  0.010865103   0.17103534   0.05368902      4.40042 
  543000    4.1623556    1.2527768    2.9095787  -0.22372369   0.83527364    0.9962185   0.73511689   -1.2465374            1    1.5380291    2.1463858    2.1730891   0.29461231  0.032373717 0.0080014938 -0.060912413    1.3828825    1.4069992   0.69354039  0.066666667    1.2843752        1e-08 1.733851e-09    5.7675084    2.5021629    30.403515 -0.0014867858  -0.19536829 -0.010448093   0.17686717  -0.10378098    1.3752113 
  544000    4.1406766     1.244168    2.8965087  -0.20363655   0.82953381    1.0084885   0.71815224   -1.2465374            1    1.5841018    2.2224379    2.1861155   0.34375188   0.01289766  0.076084835  0.015644592    1.4325356    1.4514581   0.69645632  0.066666667    1.2846104        1e-08 1.7411408e-09    5.7433609    2.4711231    30.403515 -0.013689302  -0.18106666   0.01101323    0.1834985  0.032033674  -0.53014427 
  545000    4.1362848    1.2488866    2.8873982  -0.22086995   0.83267987   0.99931594   0.72897587   -1.2465374            1    1.5487042    2.1822371    2.1595757   0.30429977  0.004641191 -0.0017238015 0.0053438342    1.3948537     1.417267   0.70017489  0.066666667    1.2851586        1e-08 1.7504372e-09    5.7128584    2.4856234    30.403515 -0.0069041805  -0.18076946 0.00074909063   0.20252319 -0.065983241 -0.063234428 
  546000    4.1621151    1.2645684    2.8975467  -0.21132116   0.84313552    0.9886862   0.75257383   -1.2465374            1    1.5845756    2.2233687    2.2058376    0.3245205 -0.012760884  0.013796635  0.028218495    1.4257448    1.4545365   0.70039108  0.066666667     1.286587        1e-08 1.7509777e-09     5.711095    2.5093667    30.403515 -0.010956054  -0.16548733 -0.0097256155   0.20941328   0.79644192    1.0503215 
  547000    4.1592617    1.2457715    2.9134903  -0.21422755    0.8306029   0.97244777   0.74234851   -1.2465374            1    1.6757887    2.2724631    2.2664726   0.48843032 -0.013244485  0.075888183 -0.0064734432    1.5191159    1.5478854   0.69644423  0.066666667    1.2793829        1e-08 1.7411106e-09    5.7434606    2.4937955    30.403515 -0.0011182559  -0.19881159 0.0035105132   0.20610788    0.9315313    1.4503362 
  548000    4.1715904    1.2608996    2.9106909  -0.21810451   0.84068937    1.0047741   0.73857679   -1.2465374            1     1.637719     2.249075    2.2586223   0.40545976 -0.0055285933    0.1559908 0.0006343868    1.4818423    1.5055639   0.69339589  0.066666667    1.2822451        1e-08 1.7334897e-09    5.7687103    2.4974636    30.403515 0.0019312086  -0.20282058 0.0075415126   0.18329994   -2.5382763    2.5982181 
  549000    4.1432989    1.2499748     2.893324  -0.21561104   0.83340544    0.9862349    0.7383059   -1.2465374            1    1.5186001    2.1530965    2.1622481   0.24045577 -0.0038313445   0.13621982 -0.016307735    1.3627805    1.3888834   0.70046392  0.066666667    1.2834578        1e-08 1.7511598e-09    5.7105011    2.5036895    30.403515 0.0064848775  -0.18357909  -0.00466449   0.16906511   -2.4665141   0.65966661 
  550000    4.1676682    1.2732757    2.8943925  -0.22098336   0.84894101   0.99477015   0.75820679   -1.2465374            1    1.5688916    2.1871484    2.2015462   0.31798029 0.0019336885   0.17294216 -0.056487801     1.408872    1.4380523   0.70730325  0.066666667    1.2880562        1e-08 1.7682581e-09    5.6552829    2.4968843    30.403515   0.01853602  -0.20176869 -0.0038884513   0.17914772   -3.5257775    2.3646599 
  551000    4.1425944    1.2573514    2.8852429   -0.2206115    0.8383237   0.99417162    0.7413439   -1.2465374            1    1.6028015    2.1923972    2.2236582   0.39234912 -0.011657729  0.047272203  0.017460626    1.4463408    1.4720409    0.7007772  0.066666667    1.2888404        1e-08 1.751943e-09    5.7079483    2.4875231    30.403515 -0.0011866035   -0.2142276 0.0051780076   0.17834318   -2.2784566  0.081911985 
  552000    4.1603981    1.2653156    2.8950825  -0.21941055   0.84363372     1.006476   0.74229591   -1.2465374            1    1.5298255    2.1788749    2.1622047   0.24839695 -0.0036576052   0.13844991  0.070152199    1.3731638    1.3974465   0.69400383  0.066666667    1.2912623        1e-08 1.7350096e-09    5.7636569    2.4686156    30.403515 0.00026036974  -0.17486981 -0.012892256   0.14941623   -1.1682514   0.20410855 
  553000     4.178966    1.2724104    2.9065556  -0.21779402    0.8483641    1.0133246   0.74570706   -1.2465374            1      1.56775    2.1788987    2.1661348   0.35821654  0.013497002 -0.035307083 -0.030796048    1.4103684    1.4344703   0.69698329  0.066666667    1.2967306        1e-08 1.7424582e-09    5.7390185    2.4844737    30.403515  0.008920497  -0.19593952 0.0030210683   0.22008474    1.6766486   -1.1378801 
  554000    4.1939652    1.2636316    2.9303336  -0.20728488   0.84251093    1.0011937   0.74376518   -1.2465374            1    1.5530469    2.1819552    2.1966605   0.28052513 0.0035118221  0.040091467  -0.04295834    1.3960752    1.4213627   0.69452839  0.066666667    1.3008301        1e-08 1.736321e-09    5.7593038    2.4848664    30.403515 0.0079153991  -0.23245821 -0.012364775    0.1859615   0.66527724    0.3963709 
  555000    4.2162722    1.2786456    2.9376266  -0.20684831   0.85252131    1.0018419   0.75961181   -1.2465374            1    1.5522456    2.1766133     2.164484   0.31563941 0.0036315346   0.17476407 -0.048818905    1.3919294    1.4204761   0.69162369  0.066666667    1.3071654        1e-08 1.7290592e-09    5.7834918    2.4903267    30.403515 -0.0046671557  -0.17739778 -0.016437584   0.19681186  -0.99428984 -0.095296491 
  556000    4.1559765    1.2603599    2.8956166   -0.2173201   0.84032955   0.97106588   0.75899972   -1.2465374            1    1.5573891    2.1808774    2.1720411   0.31924879 -0.0021815391   0.17432502 -0.071943986    1.3972021    1.4296675   0.69666555  0.066666667     1.314306        1e-08 1.7416639e-09     5.741636    2.4903221    30.403515  0.017053619  -0.20809313 -0.00059547437   0.18586335   -1.4943012  -0.78152942 
  557000    4.1465901    1.2453143    2.9012757  -0.21753606   0.83029811   0.98445137   0.73437305   -1.2465374            1    1.5381595     2.181358    2.1506779   0.28244265  0.013489904  0.057969897 -0.031268157    1.3831699    1.4086774   0.70204187  0.066666667    1.3208377        1e-08 1.7551047e-09    5.6976659    2.4820243    30.403515 0.0079895109  -0.19471298  0.007581226   0.19003454   -1.2808113   -2.3164479 
  558000    4.1753549    1.2706813    2.9046737  -0.21610771   0.84721121    1.0136154   0.74365427   -1.2465374            1    1.6395775    2.2415649    2.2433631   0.43380454 0.0095367225  0.082425637 -0.019881111    1.4826291    1.5062595   0.69783746  0.066666667     1.310928        1e-08 1.7445936e-09    5.7319938    2.4752688    30.403515 0.0050128268  -0.17496639 0.0058216894   0.18308974  -0.92367181    1.3086028 
  559000    4.2045861    1.2918876    2.9126985   -0.2075016   0.86135025    1.0141074   0.76630062   -1.2465374            1    1.7318748    2.3190102    2.2998729   0.57674131 0.00018480786  0.051842205 -0.024218096    1.5701469    1.5984921   0.70376356  0.066666667    1.3055928        1e-08 1.7594089e-09     5.683727    2.4938106    30.403515 0.0049744873  -0.20080949 0.0093640124   0.21224186   0.67497173    2.5172141 
  560000    4.1753687    1.2697635    2.9056052  -0.20636671   0.84659927   0.99429506   0.75470133   -1.2465374            1    1.4911446    2.1323993     2.144636   0.19639857 -0.0053962232  0.034551872  0.022050859    1.3318648    1.3603678   0.70253495  0.066666667    1.3009064        1e-08 1.7563374e-09    5.6936669    2.4773387    30.403515 -0.0077967068  -0.20596169  0.016489259   0.19964524  -0.40983138   -3.2785239 
  561000    4.1485561    1.2633373    2.8852188  -0.22530856   0.84231468   0.99753033   0.74572961   -1.2465374            1    1.5685735    2.1772715     2.185962   0.34248689  0.015167144 -0.035689631  0.033728574    1.4111871    1.4373711   0.70411518  0.066666667    1.3090353        1e-08 1.760288e-09    5.6808887    2.5072907    30.403515  0.005454554  -0.20562247 0.0033029596   0.16688778   -1.3497861  -0.12333275 
  562000    4.1839183    1.2812507    2.9026676  -0.21929971   0.85425826   0.99131783   0.76899018   -1.2465374            1    1.6904392    2.2423839    2.2991944    0.5297394 -0.015507385 -0.070107145 0.0027592503    1.5281437     1.560054   0.70349093  0.066666667     1.301778        1e-08 1.7587273e-09    5.6859298     2.491484    30.403515 -0.011779945  -0.18314304  0.011877161   0.17411788  -0.65312019    1.8831637 
  563000    4.1713253    1.2643614    2.9069639  -0.21454344   0.84299753   0.99327459   0.74949032   -1.2465374            1    1.5934483     2.218962    2.1855896    0.3757934 -0.0074703348 -0.089753183 -0.030821481    1.4352683    1.4628057   0.70769087  0.066666667     1.303733        1e-08 1.7692272e-09    5.6521854    2.4955981    30.403515 -0.0076175397  -0.18821898 -0.010656369   0.17350084   -1.7164485   0.51136524 
  564000    4.1933501    1.2706499    2.9227003  -0.21413658   0.84719027    1.0064767   0.74806911   -1.2465374            1    1.6574798    2.2468443    2.2655962   0.45999874 -0.0097595777  -0.12056152 -0.029899882    1.4995997    1.5251007   0.70770385  0.066666667    1.3003434        1e-08 1.7692596e-09    5.6520817    2.5289634    30.403515 -0.0013941815  -0.19139421 0.0076161832   0.20425246   -1.7488274   0.30499701 
  565000     4.187825    1.2897267    2.8980983   -0.2199372   0.85990952     1.010901   0.76596003   -1.2465374            1    1.5950931    2.2208642    2.2142171   0.35019782 0.0034275707  -0.17355077  0.028298688    1.4334371    1.4621321   0.70300976  0.066666667    1.2951814        1e-08 1.7575244e-09    5.6898214    2.4895222    30.403515  0.012542539  -0.20085095 -0.0014370952   0.23331153  -0.81131199   -1.2152682 
  566000    4.1520988    1.2646444    2.8874545  -0.21751728   0.84318617    1.0165547   0.73528832   -1.2465374            1    1.6590411    2.2605265    2.2480617   0.46853507  0.012896912 -0.047555536  0.019382302    1.5038584    1.5253365   0.70761591  0.066666667    1.3046138        1e-08 1.7690398e-09    5.6527842    2.5392177    30.403515 0.0034378954  -0.18558914 -0.0031689867   0.17117878  -0.10539275    1.6997619 
  567000    4.2037429    1.2873619     2.916381  -0.20751429   0.85833283    1.0151898   0.76072764   -1.2465374            1     1.652626     2.259444    2.2623981   0.43603578 -0.012912567  -0.10355139  0.028002003    1.4920743    1.5191009   0.70151094  0.066666667    1.3026128        1e-08 1.7537773e-09    5.7019781    2.4767285    30.403515 -0.010938842  -0.16801652 -0.018737278   0.21890175   0.26115077    2.6760488 
  568000     4.185405    1.2729521    2.9124529  -0.21411542   0.84872527    1.0055152   0.75116022   -1.2465374            1    1.6336003    2.2512209    2.2258236   0.42375641  0.010956554 0.0048645728   0.04321896    1.4750678    1.5013477   0.70150082  0.066666667    1.2950232        1e-08 1.753752e-09    5.7020603    2.4948682    30.403515 -0.0087388715  -0.20463124 0.0058272571   0.21440333  -0.61652306   0.50305758 
  569000    4.1679292    1.2590452     2.908884  -0.21339263     0.839453   0.99749088    0.7411086   -1.2465374            1    1.5986489    2.1944789    2.2297142   0.37175359  0.012718541 -0.013577096 -0.026583104    1.4422378    1.4674517   0.69685567  0.066666667    1.3000808        1e-08 1.7421392e-09    5.7400695    2.4736147    30.403515 -0.0012123592  -0.16068998 -0.00081069099   0.21095367       1.9835    1.6852136 
  570000    4.1422166    1.2407132    2.9015034  -0.21852869   0.82723037   0.99344033   0.72379099   -1.2465374            1    1.6736849    2.2688115    2.2769885   0.47525478  0.029235111 -0.049497102 -0.067695732    1.5209287    1.5430205   0.69630667  0.066666667    1.2930828        1e-08 1.7407667e-09    5.7445953    2.4858153    30.403515 0.0054764584  -0.20786772 0.00089307768   0.17117542  0.093079036    3.6323364 
  571000    4.1608046     1.255234    2.9055706  -0.21994908   0.83691194   0.98438532   0.74515094   -1.2465374            1    1.4256518    2.0911377    2.0797154   0.10610231  0.019722016 -0.073024324 -0.015291525    1.2683876    1.2961784   0.69822784  0.066666667    1.2980346        1e-08 1.7455696e-09     5.728789       2.4789    30.403515 0.0080230909  -0.15680753  0.012877296   0.24125434  0.051236919   0.75733456 
  572000    4.1901383     1.261139    2.9289993  -0.20970036   0.84084899   0.97584193   0.75686653   -1.2465374            1    1.7055224    2.2899709    2.3051558   0.52144043 -0.012589803 -0.041659493 -0.020723469    1.5457856    1.5771726   0.70105602  0.066666667    1.2898025        1e-08  1.75264e-09    5.7056781    2.4844362    30.403515 0.0017347415   -0.1875576 -0.00012759088   0.18814224  -0.09841681    1.8416026 
  573000    4.1702605     1.273213    2.8970476  -0.22572864   0.84889918    1.0131215   0.74670228   -1.2465374            1    1.4396599    2.1004308    2.0872675    0.1312813 0.0018848561  -0.19796975  0.017063767    1.2820682    1.3064068   0.70191672  0.066666667    1.2987329        1e-08 1.7547918e-09    5.6986817    2.5005411    30.403515 -0.003181257  -0.18364269 0.0050634958   0.20207538  -0.20264736  -0.10837215 
  574000    4.1850186    1.2652147    2.9198038  -0.20258198   0.84356647   0.99176685   0.75135355   -1.2465374            1    1.5852251    2.2409932    2.1843256   0.33035639  0.009345547  -0.13151019 -0.023860339    1.4266518    1.4547807   0.69766643  0.066666667    1.2955754        1e-08 1.7441661e-09    5.7333989     2.496554    30.403515 -0.0041812779     -0.19399 0.0011483584   0.18065392   0.38335138  -0.51991679 
  575000    4.1989415     1.277001    2.9219405  -0.21158391   0.85142479    1.0208186   0.74600544   -1.2465374            1    1.5215072    2.1311566    2.1608336   0.27253125 -0.0027543376  -0.12809022  -0.03491238    1.3640626    1.3872418   0.70144093  0.066666667    1.2912667        1e-08 1.7536023e-09    5.7025471    2.4820479    30.403515 0.0062473026  -0.18695839 -0.0068328817   0.20715014  0.038507375   -1.7618399 
  576000    4.1594219    1.2709761    2.8884458  -0.22396779   0.84740778    1.0140175   0.74372273   -1.2465374            1      1.57885    2.1851014    2.1912214   0.36022723 -0.00032441153 -0.099577366  0.022731877    1.4218872    1.4454792   0.70002773  0.066666667    1.2947734        1e-08 1.7500693e-09    5.7140594    2.4865045    30.403515 0.0074760397  -0.20554411 0.0077275341   0.20019452  -0.59682195      3.44773 
  577000    4.1765005    1.2720353    2.9044651  -0.20863502     0.848114    1.0190679    0.7417218   -1.2465374            1    1.5384977    2.1615886    2.1765301   0.27737442 0.0035374527 -0.057022894 -0.027678586    1.3819572    1.4044626   0.69724764  0.066666667    1.3030532        1e-08 1.7431191e-09    5.7368426    2.4767698    30.403515  0.013027353   -0.1726802  0.011737971   0.19994342     1.029354    1.1672753 
  578000    4.2131171    1.2714524    2.9416648  -0.20978882   0.84772533    1.0015739   0.75199314   -1.2465374            1    1.5634567    2.2013606    2.2031427    0.2858667 -0.012724084   0.11833671 0.0098648141    1.4047484    1.4317225    0.7089232  0.066666667    1.2867113        1e-08 1.772308e-09    5.6423601    2.4860592    30.403515 -0.0038195317  -0.17685905 0.0061158544   0.19826378  -0.60486551    1.6410622 
  579000    4.1630014    1.2786304     2.884371  -0.22774566   0.85251121    1.0012765   0.75994776   -1.2465374            1    1.5318144    2.1520291    2.1836017   0.25981234 -0.015781541  0.062926123   0.02767014    1.3714273    1.4001193   0.71808248  0.066666667    1.2926794        1e-08 1.7952062e-09    5.5703908    2.4998879    30.403515  0.009113621   -0.1753964 0.0017863259   0.19442451   0.24228985    2.1276906 
  580000    4.1892196     1.276817    2.9124026  -0.21554273   0.85130216   0.99984498   0.75887718   -1.2465374            1     1.577371    2.2124551    2.2099805   0.30967747 0.0019985794   0.10576479  0.025953343    1.4172099    1.4458642   0.71447691  0.066666667    1.2980041        1e-08 1.7861923e-09    5.5985015    2.5015088    30.403515 -0.0055473192  -0.21795132 -0.0068683947   0.19850282  -0.35352475   0.10352591 
  581000    4.1744221    1.2598171     2.914605  -0.22196158   0.83996762     1.010435   0.73387719   -1.2465374            1    1.5745107    2.2127047    2.1787832   0.33204427 -0.0020882254  0.074706331 -0.053601792    1.4196258     1.441611    0.7046456  0.066666667    1.3017117        1e-08 1.761614e-09    5.6766125    2.4764305    30.403515  0.014105803  -0.16561384 -0.0038658101   0.20318426   -1.2832758    2.0226332 
  582000    4.1958061    1.2739983    2.9218078  -0.21291928    0.8494228   0.99646271   0.75793411   -1.2465374            1    1.5246587    2.1624676    2.1495172   0.26199125 0.0082610483 -0.0074009431 -0.067921087    1.3646966    1.3935968   0.70920458  0.066666667    1.3003407        1e-08 1.7730114e-09    5.6401215    2.4928325    30.403515  0.012724949  -0.19558559 -0.0038384311    0.1520966  -0.40542614    -1.206348 
  583000    4.1885942     1.294068    2.8945262  -0.21621313   0.86280404    1.0194265   0.76534582   -1.2465374            1    1.5792001    2.1939636    2.2345854   0.30905138 -0.0061047442 -0.068639417  0.040392391    1.4176738    1.4451178   0.70582026  0.066666667    1.2946694        1e-08 1.7645507e-09    5.6671651      2.49158    30.403515   0.00760271  -0.21200487 -0.0059602758   0.18549866   0.99651375   0.39201728 
  584000    4.1706653    1.2688011    2.9018642  -0.21608148   0.84595762    1.0078819   0.74519235   -1.2465374            1    1.5517516     2.170542     2.191599   0.29311369  0.016274794  0.020674435  0.089738376    1.3944786    1.4191877   0.70392214  0.066666667    1.2900258        1e-08 1.7598053e-09    5.6824467    2.4803994    30.403515 -0.0021106263  -0.18409859 -0.0030137372   0.18132356   -1.0934363  -0.12309502 
  585000     4.179752    1.2684255    2.9113265  -0.21819859    0.8457072    1.0082499    0.7445565   -1.2465374            1    1.6944733    2.2945394     2.287698   0.50118262 -0.00011015461 -0.0027474089 -0.0054435674    1.5373346    1.5618611   0.70377091  0.066666667    1.3039156        1e-08 1.7594273e-09    5.6836677    2.4687935    30.403515 0.0060037413  -0.19098822 -0.0020146631   0.19834766   0.27999739  -0.33259476 
  586000    4.1755923    1.2811581    2.8944341  -0.22413581   0.85419653    1.0184979   0.75195129   -1.2465374            1    1.5153738    2.1738137    2.1469381   0.22536962 0.0081427481 -0.059391183 -0.013054031    1.3566744    1.3814136   0.70312809  0.066666667    1.3082729        1e-08 1.7578202e-09    5.6888639    2.4801712    30.403515 -0.0027019405  -0.17620739 -0.002708019   0.16511596   -0.1121973    0.7138686 
  587000    4.1813518    1.2709623    2.9103895  -0.21437915   0.84739855   0.98811591   0.75984975   -1.2465374            1    1.6453751    2.2305119    2.2296028    0.4760107 0.0061732223 -0.038676422 0.0061264692    1.4850087     1.515411    0.7095893  0.066666667    1.3067155        1e-08 1.7739733e-09    5.6370636    2.4843703    30.403515  0.010481884  -0.19819732  0.016378337   0.20199359    0.8677246    1.4925597 
  588000    4.1922273    1.2817137    2.9105136  -0.21655321   0.85456697    1.0064285   0.76007433   -1.2465374            1    1.6847544    2.2521801    2.2882442   0.51383884  0.006317279  0.059281909 -0.0049169421    1.5243406    1.5523817   0.70683474  0.066666667    1.3111755        1e-08 1.7670868e-09    5.6590314    2.4823758    30.403515 0.0089257897  -0.20698813  0.010174575   0.20241858   0.77278529     1.999692 
  589000    4.1757339     1.275876    2.8998579  -0.22424388   0.85067475   0.99036611   0.76376591   -1.2465374            1    1.5946704    2.2151637    2.2078885   0.36095891  0.016799625  0.049609088  0.033847087    1.4334775    1.4644103   0.70124076  0.066666667    1.3122516        1e-08 1.7531019e-09     5.704175    2.4898344    30.403515 -0.0025931142  -0.18283099 -0.0068192329   0.16477833  -0.13660127   0.96439468 
  590000    4.1706872    1.2771529    2.8935343   -0.2255438   0.85152611    1.0177299   0.74809479   -1.2465374            1    1.5263584    2.1524379    2.1625585   0.26407885  -0.01205022  0.041112022  -0.07673832    1.3684729    1.3924993   0.70436126  0.066666667    1.3088865        1e-08 1.7609032e-09     5.678904    2.4765256    30.403515 -0.013801477   -0.2432517 0.0049131495   0.18309078  0.057146916  -0.73957415 
  591000    4.1663286    1.2833741    2.8829546  -0.21717703   0.85567396    1.0165874   0.75554031   -1.2465374            1    1.6225704    2.2733054     2.227371   0.36703466 0.0089218472  0.055531675 -0.00096924893    1.4631135    1.4888615   0.70557771  0.066666667    1.3058095        1e-08 1.7639443e-09    5.6691133    2.4801783    30.403515 -0.00099201191  -0.18466583 0.0022909519   0.18001023  0.057878823     0.993424 
  592000    4.1724713    1.2642957    2.9081756  -0.21681458   0.84295372   0.98156349    0.7567176   -1.2465374            1    1.4590138    2.0861706    2.1168331   0.17403765  0.012778896 -0.021587635  0.011686651    1.2993084    1.3299115   0.70228572  0.066666667    1.3060241        1e-08 1.7557143e-09    5.6956875    2.4806129    30.403515 0.0012106042  -0.18561122  0.010432459   0.16947638  -0.33119207    3.9611149 
  593000    4.1631596    1.2764752    2.8866844  -0.22204683   0.85107425   0.99679784   0.76040618   -1.2465374            1    1.5418322    2.1729303       2.1615   0.29106611 0.0090689576  0.031883982 -0.028854193    1.3813483    1.4107261   0.70551246  0.066666667    1.2972245        1e-08 1.7637812e-09    5.6696376    2.4949137    30.403515 0.0024939507  -0.20293516 -0.0047092706   0.20518179   -1.1483305    4.1455696 
  594000    4.1547981     1.265275    2.8895231  -0.22576345   0.84360665    1.0146664   0.73714771   -1.2465374            1    1.5569417    2.2003639    2.1840864   0.28637477 0.0055999763 -0.00035250916 -0.012693316    1.4013666    1.4234855   0.69864603  0.066666667    1.2916575        1e-08 1.7466151e-09    5.7253599    2.4973352    30.403515  0.001798203  -0.14372892 -0.016058397   0.19114467  -0.66353024    6.3745228 
  595000    4.1414387    1.2677277    2.8737109   -0.2256788   0.84524195    1.0076908   0.74414963   -1.2465374            1    1.5847149    2.1786931    2.2000691   0.37538242 -0.0093655789  0.062143736 -0.020118163     1.427662    1.4521761   0.70879682  0.066666667    1.2947974        1e-08 1.7719921e-09    5.6433662    2.4931396    30.403515 0.0070338148  -0.20761047  0.011650006     0.193086   -1.7594343    4.2665999 
  596000    4.1637562    1.2678685    2.8958877  -0.20480834   0.84533583    1.0110342   0.74221844   -1.2465374            1    1.6416207    2.2566164    2.2604417   0.40780392 -0.018236212 0.0067633513 -0.032944497    1.4849753    1.5086422   0.70520156  0.066666667    1.2959686        1e-08 1.7630039e-09    5.6721372    2.5117809    30.403515 0.0082824065  -0.16573848 -0.00050124769   0.18801675  -0.83931987    4.2612583 
  597000    4.1858638    1.2779231    2.9079407  -0.22170946   0.85203962    1.0104699   0.75345287   -1.2465374            1    1.6239728    2.2385231    2.2491935   0.38420178 -0.0068656307  0.073957673 -0.056021509    1.4649564    1.4910685   0.70987523  0.066666667    1.3058928        1e-08 1.7746881e-09    5.6347931    2.4903947    30.403515 -0.0036485719  -0.17353013 0.00030863792   0.18665655   -1.2611714    5.5520792 
  598000    4.1740489    1.2584929     2.915556  -0.21670564   0.83908477   0.98189192   0.75023216   -1.2465374            1    1.4050405    2.0700091    2.0800234  0.065088917 -0.0025858447 -0.013559343 -0.021272948    1.2467039     1.275895    0.7036843  0.066666667    1.3004924        1e-08 1.7592107e-09    5.6843673    2.4915785    30.403515 0.0094824651  -0.21751665 -0.00085538979   0.18657699   0.58908377   -1.8351968 
  599000    4.1733244    1.2791955     2.894129  -0.21101412   0.85288794    1.0201013   0.74882768   -1.2465374            1    1.7235747    2.2998402    2.3334848   0.53739901 -0.0023610736 -0.0041862604  0.018498566    1.5655345    1.5894036   0.70101259  0.066666667    1.2900662        1e-08 1.7525315e-09    5.7060316     2.487975    30.403515 0.0088043205  -0.19369261  0.011449765   0.18249345    1.2979181    3.5718673 
  600000    4.1779469    1.2711904    2.9067565  -0.21242309   0.84755064     1.026736   0.73602846   -1.2465374            1    1.5654526    2.1904002    2.1828976   0.32306013 -0.0079255362  0.068775779 -0.018999801    1.4101137    1.4304089   0.69666562  0.066666667    1.2997982        1e-08 1.741664e-09    5.7416354    2.4835841    30.403515 0.0049647278  -0.20265886 -0.0084180574   0.18968836   0.77270922    3.1369458 
  601000    4.1463358    1.2508792    2.8954566  -0.21881867   0.83400843   0.99094441   0.73634979   -1.2465374            1     1.580336    2.2115223    2.1903699   0.33911568 -0.0031668983 -0.041728573 0.0040531391    1.4249292    1.4499998     0.707292  0.066666667    1.2876508        1e-08  1.76823e-09    5.6553729    2.4924852    30.403515 -0.0063223138  -0.22206735 -0.003149449   0.23115322    1.1053066    1.0725619 
  602000    4.1601785    1.2473961    2.9127824  -0.21515546   0.83168609   0.98193821   0.73819246   -1.2465374            1    1.5894079     2.188123    2.2075701   0.37253062 0.0041925068 -0.023932157 -0.086639651    1.4336122    1.4602563   0.70236772  0.066666667     1.293875        1e-08 1.7559193e-09    5.6950226    2.5046613    30.403515 0.0040553415  -0.18513095 -0.0096188671    0.2009268  -0.55015828    1.0917623 
  603000    4.1372558    1.2572795    2.8799763   -0.2190841   0.83827572   0.99216387   0.74251725   -1.2465374            1    1.6031518     2.224321    2.2020853   0.38304925 -0.018413485 0.0028938744 -0.0062585187    1.4464435    1.4726553   0.70346525  0.066666667    1.2979087        1e-08 1.7586631e-09    5.6861373    2.4814562    30.403515 0.00030277651  -0.15108097 -0.019064392   0.21495147   0.67543287    1.5493421 
  604000    4.1504997    1.2488617     2.901638  -0.22812555   0.83266326    1.0063472   0.72456701   -1.2465374            1     1.641385    2.2404125    2.2403614   0.44338094 -0.00038019936  0.030687849 0.0039364334     1.488465    1.5090229   0.69815204  0.066666667     1.295503        1e-08 1.7453801e-09     5.729411    2.4868724    30.403515 -0.011788241  -0.16900578  0.016011967   0.21002283    1.9683897     1.781319 
  605000    4.1836298    1.2804286    2.9032012  -0.21999064   0.85371011    1.0131937   0.75446719   -1.2465374            1    1.4539373    2.1166744    2.0965659   0.14857177 -0.0038951374  0.015602888  0.019050098    1.2947069    1.3206748    0.7013711  0.066666667    1.2948482        1e-08 1.7534278e-09    5.7031149    2.4996894    30.403515 -0.0051881198  -0.18622483  0.012386966   0.18801721   0.10351914   -0.8373131 
  606000    4.1800546    1.2600749    2.9199797  -0.21096472   0.84013956   0.98600296   0.74938247   -1.2465374            1    1.6377053    2.2176661    2.2351803   0.46026936 6.9019406e-05  -0.18444668  0.070436802     1.479548    1.5080191   0.70334456  0.066666667    1.2938002        1e-08 1.7583614e-09     5.687113    2.4877755    30.403515 -0.0097837793  -0.21152676 -0.004988372   0.17300201    2.2499812    1.3212047 
  607000     4.145832    1.2661847    2.8796473   -0.2181464   0.84421319    1.0190104   0.73542516   -1.2465374            1    1.5837893    2.2075334    2.2067029   0.33713162 0.0096119757  -0.16216749  -0.01554185    1.4285777    1.4497617   0.69280144  0.066666667    1.2989174        1e-08 1.7320036e-09      5.77366    2.4737204    30.403515  0.015352323  -0.16925988  0.016582143   0.18680145    2.1739015    3.3422385 
  608000    4.1709561    1.2490788    2.9218773  -0.21494975   0.83280802    1.0072923   0.72421302   -1.2465374            1    1.5219657    2.1543411    2.1502251   0.26133081 -0.015975094 -0.027075284  0.071618748    1.3691204    1.3894793   0.69350832  0.066666667    1.2930348        1e-08 1.7337708e-09    5.7677751    2.4997292    30.403515 -0.0048103993  -0.17296789   0.01221472   0.14694279    1.0617575  -0.67471225 
  609000    4.1787769     1.255089    2.9236879  -0.20542447   0.83681524   0.98096582     0.747125   -1.2465374            1    1.4265595    2.0654037    2.0945984   0.11967633 -0.0045332385  0.037399076 -0.00080690774    1.2688786    1.2975358    0.6956054  0.066666667    1.2764496        1e-08 1.7390135e-09    5.7503866    2.4949706    30.403515 -0.0073624404  -0.20759718 -0.0096273109   0.21514556    1.4462589   -2.7373238 
  610000    4.1895655     1.278317    2.9112485  -0.20830371   0.85230221   0.99510743   0.76345308   -1.2465374            1    1.6539934    2.2638936    2.2487729   0.44931362 -0.011000449   0.13034071 -0.044366862    1.4928665    1.5231097   0.69771601  0.066666667    1.2707631        1e-08  1.74429e-09    5.7329916    2.5215627    30.403515  0.006689622   -0.2199029 0.0099041524   0.18924613  -0.82629976   -1.4742689 
  611000    4.2015159      1.27198    2.9295359  -0.20928026   0.84807712   0.97729101   0.76769743   -1.2465374            1    1.5350251    2.1433367    2.1783938   0.28334485 -0.026352252  0.017009439 -0.0032013208    1.3730024    1.4064848   0.69854458  0.066666667    1.2791528        1e-08 1.7463614e-09    5.7261915    2.4997511    30.403515 -0.00098927365  -0.18373888 0.00045923519   0.19376795   0.16602267    1.9682982 
  612000    4.1667879    1.2618945    2.9048934   -0.2245207    0.8413527    1.0053723   0.73928081   -1.2465374            1     1.616898    2.2146588    2.2254233   0.41061197 0.0090010496  0.070739268 -0.040656782    1.4608727    1.4846642   0.70284238  0.066666667    1.2868713        1e-08 1.7571059e-09    5.6911765    2.5037924    30.403515 -0.0025426417  -0.20057828 0.0035863381   0.21408073   -2.2262488  -0.98773141 
  613000    4.1848537     1.276384    2.9084697  -0.21630253   0.85101343   0.99532886   0.76122292   -1.2465374            1    1.4460711    2.1109955    2.1086245   0.11859334 0.00071757106 -0.0054356466 -0.011482056    1.2854149    1.3151583   0.70146465  0.066666667    1.2841705        1e-08 1.7536616e-09    5.7023543    2.5049454    30.403515 -0.0046141147  -0.16543674 -0.0038802485   0.17799022  -0.93982634    1.7830727 
  614000    4.1790796    1.2889479    2.8901317  -0.21075706   0.85939026    1.0279719   0.75447839   -1.2465374            1    1.6940895     2.261233    2.3097877   0.51124793 -0.0048124491  0.040394324  0.012661088    1.5348568    1.5588833   0.70236049  0.066666667    1.2828028        1e-08 1.7559012e-09    5.6950812    2.4695223    30.403515 -0.0087334263  -0.22542989 -0.0021744209   0.19714471  -0.52435066  -0.97597816 
  615000     4.190253    1.2755858    2.9146672  -0.21357132   0.85048127   0.99313293   0.76172753   -1.2465374            1    1.6473113    2.2313421    2.2524293   0.45816253 -0.008427914  0.035571164 0.0071365826    1.4865486    1.5166873   0.69671615  0.066666667    1.2928914        1e-08 1.7417904e-09     5.741219    2.4973812    30.403515 0.0060037306  -0.18102307 -0.0020545198    0.1928751   -1.2487741    1.3070527 
  616000    4.1688649     1.276761    2.8921039  -0.20378361    0.8512648    1.0054178   0.75534355   -1.2465374            1    1.3724727    2.0409977    2.0838905 -0.0074701819  0.015440124  0.010989361  0.013173276    1.2130573    1.2402329   0.69935516  0.066666667    1.2877038        1e-08 1.7483879e-09    5.7195546    2.5001638    30.403515 0.0031988495  -0.17738305 0.0069433243   0.19845612  -0.57592424   -4.0485536 
  617000    4.1909129    1.2663274    2.9245855  -0.21610137   0.84430831    1.0009292   0.74684783   -1.2465374            1    1.5746331     2.185154    2.1910515   0.34769375  0.003189745  0.023904567  0.026064402    1.4170107    1.4429837   0.69788549  0.066666667    1.2873044        1e-08 1.7447137e-09    5.7315993    2.4780003    30.403515 -0.011798778  -0.16356404 -0.0065372839   0.17195157  0.035572053   -1.4058631 
  618000    4.1568029    1.2461356    2.9106673  -0.21299672   0.83084567   0.97395787   0.74180151   -1.2465374            1    1.7129426    2.2952753    2.3127784   0.53077405 0.0062293721 -0.090926586  0.029238894    1.5563852    1.5848406   0.69909464  0.066666667    1.2973062        1e-08 1.7477366e-09     5.721686    2.4889157    30.403515 -0.0024760476  -0.16849897 -0.0049955841   0.18382871   0.20063383     3.748757 
  619000    4.1770242    1.2622311    2.9147931  -0.20830957   0.84157716    1.0008867   0.74244062   -1.2465374            1    1.4795223    2.1402346    2.1171344    0.1811978 -0.012763069 -0.053284259 -0.00047985741      1.32283    1.3478784   0.69660609  0.066666667    1.2961323        1e-08 1.7415152e-09    5.7421261    2.4873183    30.403515  0.011240731  -0.19737613 0.0078814242   0.16714445    -1.103065  -0.40708475 
  620000    4.1785699    1.2759915    2.9025783  -0.20282415   0.85075176   0.98952752   0.76441354   -1.2465374            1    1.7191543    2.3322913    2.2778369    0.5473346 -0.0010121928  0.030764188 0.0090785193    1.5578247    1.5890045   0.70301755  0.066666667     1.298496        1e-08 1.7575439e-09    5.6897584     2.511857    30.403515  0.009651832   -0.2211594  0.010260381   0.18798263  -0.52972616    1.6078298 
  621000    4.2025727    1.2830287     2.919544  -0.21783442   0.85544372     1.004413   0.76275366   -1.2465374            1    1.5387369    2.1856535     2.149871   0.28068624 0.0012854544  0.052691605 -0.074011431    1.3777576    1.4066293   0.69401631  0.066666667    1.2940502        1e-08 1.7350408e-09    5.7635533    2.4928215    30.403515 -0.00029492238  -0.17879432 -0.0032982124   0.17142077    0.2269536   0.48115078 
  622000    4.1649087    1.2797902    2.8851186  -0.21792072   0.85328445    1.0073364   0.75742648   -1.2465374            1    1.5979581    2.2123783    2.2075104   0.37398549 0.0013067578   0.10402978 0.0031408704    1.4381031    1.4654659   0.69625113  0.066666667    1.2946625        1e-08 1.7406278e-09    5.7450536     2.491362    30.403515  0.006758823  -0.14358637 0.0051598852   0.21728021  -0.97408317    1.2540381 
  623000    4.1820537    1.2714214    2.9106323  -0.21007515   0.84770469   0.98329406   0.76335171   -1.2465374            1    1.6066623    2.2114016    2.2534704   0.35511505 -0.0030737932   0.13923093 -0.019184102    1.4455568    1.4773324   0.69357905  0.066666667    1.2993258        1e-08 1.7339476e-09    5.7671869    2.4895764    30.403515 0.0054475727  -0.18571117 -0.00052752541   0.19842691  -0.28648487    1.1692781 
  624000    4.2076402    1.2774662     2.930174  -0.20999418   0.85173498    1.0047111    0.7565472   -1.2465374            1    1.5064653    2.1604398    2.1235316   0.23542448 0.0029292321  0.012367076 -0.049822035    1.3467959    1.3743185    0.6906527  0.066666667    1.3000923        1e-08 1.7266317e-09    5.7916229    2.4844521    30.403515 0.0085521638  -0.16384875 0.0036937198   0.19498978   -0.2093497   0.97805441 
  625000    4.1553635    1.2597042    2.8956593  -0.20853082    0.8398924   0.99624529   0.74259817   -1.2465374            1    1.6485052    2.2570948    2.2724904   0.41593044 0.0091237746   0.10910596  0.015409299    1.4917798    1.5174719   0.69587175  0.066666667     1.309294        1e-08 1.7396794e-09    5.7481856    2.4964156    30.403515 -0.017169134  -0.20735633 -0.0033201758    0.1733724   -1.2924631  -0.16014233 
  626000     4.172934    1.2771051    2.8958289  -0.21084241   0.85149422   0.99927342   0.75954515   -1.2465374            1    1.5677593    2.1799536    2.1890918   0.33423263 -0.018560231  0.041662842 -0.027086529    1.4074572    1.4363277   0.69966726  0.066666667    1.2948678        1e-08 1.7491682e-09    5.7170032    2.4913143    30.403515  0.010350579  -0.16687827 0.0039156698   0.22626002   0.43671491    1.9715276 
  627000    4.1870083    1.2782325    2.9087758  -0.21837847   0.85224592    1.0035382   0.75810761   -1.2465374            1     1.535364    2.1607015    2.1716863   0.27370416  0.017800444   0.11268438  0.066924275    1.3753653    1.4033714   0.69975183  0.066666667    1.2979391        1e-08 1.7493796e-09    5.7163123    2.4902339    30.403515 -0.00056496891  -0.17985556 -0.0010347837   0.14925402   -1.3977736  -0.60227928 
  628000    4.1801424    1.2756535     2.904489  -0.21758248   0.85052635   0.98909885   0.76431476   -1.2465374            1    1.5521187    2.1946841    2.1679871   0.29368484 -0.009039504 -0.052504926  0.030072007    1.3908099    1.4220253   0.70303104  0.066666667    1.3027184        1e-08 1.7575776e-09    5.6896492    2.4982442    30.403515 0.0018087126  -0.18159191 -0.0099975974   0.19478403  -0.23022202   -0.5360199 
  629000    4.1760717    1.2527877     2.923284  -0.22746823    0.8352809   0.99221348    0.7376246   -1.2465374            1    1.5538636    2.1783301    2.1577153   0.32554555 -0.010931104 -0.054529109 -0.017857948    1.3981878    1.4233606   0.71001237  0.066666667    1.3059078        1e-08 1.7750309e-09    5.6337047    2.5004981    30.403515 -0.0027347567  -0.15605816 0.0062119934   0.17340145  -0.24780235   0.48700741 
  630000    4.1751449    1.2780637    2.8970812  -0.21428185   0.85213332    1.0065957   0.75601941   -1.2465374            1    1.5325944    2.1644399     2.172375   0.26096835 -0.015045776  0.072420697  0.039992063    1.3730364    1.4001997   0.70315213  0.066666667    1.2996521        1e-08 1.7578803e-09    5.6886694    2.4941491    30.403515 -0.0087152682  -0.15765069 0.0058693308   0.18199534  -0.34462999   0.85493357 
  631000    4.1572458    1.2558209    2.9014249  -0.21560008   0.83730321   0.99237684   0.74080578   -1.2465374            1    1.6384723    2.2502254    2.2286924   0.43649919 -0.0044553334     0.109299 -0.0095136408    1.4821252    1.5079478    0.7025995  0.066666667    1.3021685        1e-08 1.7564988e-09    5.6931438    2.4917545    30.403515  0.012336482  -0.17626694 0.0050765049   0.19585505  -0.13080302  0.045794462 
  632000    4.1721325    1.2630744    2.9090581  -0.20811307   0.84213943   0.97745453   0.75795642   -1.2465374            1    1.6104072    2.2123852    2.2376928   0.38114367 -0.0016729426   0.13243787 0.0095904156    1.4504404    1.4818454   0.70597493  0.066666667    1.3047296        1e-08 1.7649373e-09    5.6659236    2.4902588    30.403515 0.0064032967  -0.18981365 0.0086555513   0.20863447   -0.5976302   0.93785021 
  633000    4.1766052    1.2651363    2.9114689  -0.21074619   0.84351416    1.0055284   0.74269238   -1.2465374            1    1.5272151    2.1695386    2.1505898   0.26151681 -0.0021733927  0.069265472 -0.001899051    1.3704697    1.3949607   0.69649427  0.066666667    1.3079488        1e-08 1.7412357e-09     5.743048    2.4708244    30.403515 -0.0034217642  -0.20190539  0.019833788   0.20933536   -1.2790937    2.4818804 
  634000    4.1657024     1.274789    2.8909135  -0.21805514   0.84994996   0.99741732   0.75819497   -1.2465374            1    1.6784822     2.277859    2.2611322   0.49645546 -0.0020003731  0.054748874 -0.027019299    1.5184651    1.5472947   0.70413882  0.066666667    1.3154931        1e-08 1.760347e-09    5.6806981    2.4821509    30.403515 0.0030559353  -0.21067721 0.0072729736   0.19299638   -1.0152082   0.41794202 
  635000    4.1654206    1.2663513    2.8990694  -0.21015418   0.84432425    1.0017026    0.7463917   -1.2465374            1    1.7001682    2.2837512    2.3049356   0.51181778 -0.0020939237  0.047643501   0.04036713    1.5426421    1.5684171   0.70818774  0.066666667    1.3161815        1e-08 1.7704693e-09    5.6482198     2.507561    30.403515 -0.0039171323  -0.20194868 -0.0043679186      0.20689   -1.2676995    6.4785383 
  636000     4.168541    1.2674217    2.9011193  -0.21165216   0.84503793    1.0127409   0.74067117   -1.2465374            1    1.6097987    2.2388867    2.2235457   0.36696382  -0.01531464   0.10584547  0.053559736      1.45348    1.4765958   0.70627191  0.066666667    1.3001532        1e-08 1.7656798e-09    5.6635411     2.493045    30.403515 -0.0043155479  -0.17922552 0.0052752496   0.20255783  -0.81774787    4.2151739 
  637000    4.1769039    1.2713438    2.9055601  -0.21843055   0.84765295   0.99107143   0.75842084   -1.2465374            1    1.6427747    2.2399684    2.2497505   0.43860535 -0.0050165169  0.055608684  0.017840714    1.4827099    1.5124219   0.69878632  0.066666667    1.2967121        1e-08 1.7469658e-09    5.7242105    2.5024347    30.403515  0.012224415   -0.2094289 -0.0090421762   0.14383824   0.22316014    3.1162686 
  638000    4.1622238    1.2737737    2.8884501  -0.21411305   0.84927305    1.0016156   0.75447969   -1.2465374            1    1.5510789    2.1788925    2.1973063   0.27703773 0.00091904258  0.072514766  0.040701886    1.3918458    1.4193392   0.71155565  0.066666667    1.3021931        1e-08 1.7788891e-09    5.6214858    2.5066049    30.403515 -0.0084186259  -0.21278548  0.002468797   0.17309781   -1.3562843   0.74658132 
  639000    4.1864372    1.2821811    2.9042561  -0.20734962   0.85487861    1.0054289   0.76120317   -1.2465374            1    1.5004971    2.1359621    2.1374808   0.22804849  0.010979228 0.0045904877 -0.060845839    1.3398451    1.3682559   0.71006173  0.066666667    1.2950004        1e-08 1.7751543e-09     5.633313    2.4971894    30.403515 0.0064383056  -0.18177693 0.0041002414   0.18146504    2.1116558   0.91733182 
  640000    4.1624077    1.2623001    2.9001075  -0.22827978   0.84162319    1.0063814   0.73909103   -1.2465374            1    1.6810085    2.2756755    2.2729717   0.49437819 -0.0057071205  0.026861306 -0.010845159    1.5250232    1.5486419   0.71212862  0.066666667    1.2882609        1e-08 1.7803216e-09    5.6169628    2.4978135    30.403515 -0.0094764077  -0.18412555 0.0053988137   0.19157282    1.8307789     4.583096 
  641000     4.141616    1.2521117    2.8895043  -0.21988374   0.83483015   0.98841258   0.73926161   -1.2465374            1    1.7010398    2.2948409    2.3023742   0.50590446  0.018988115   0.12258383  0.084808472    1.5450186    1.5710367   0.71673557  0.066666667    1.2927583        1e-08 1.7918389e-09    5.5808588    2.5116901    30.403515  0.013624983  -0.19880996  0.012620354   0.17259091   0.13696067    2.9870846 
  642000    4.1562263    1.2740306    2.8821958  -0.21471176    0.8494443    1.0010415    0.7551155   -1.2465374            1    1.4587763    2.1084109    2.1010958   0.16682229  0.011316934  0.082230733  0.072892595    1.2994091    1.3271122   0.70603337  0.066666667    1.2890052        1e-08 1.7650834e-09    5.6654546    2.4864475    30.403515 -0.0056415367  -0.22905751 0.00058327449   0.21616132    1.9418733   -2.1292386 
  643000    4.2122153    1.2686928    2.9435225  -0.20179376   0.84588542   0.98978153   0.75635534   -1.2465374            1    1.5771344    2.1768878    2.1930167   0.36149876 -0.013167415  0.096364324  0.018049825    1.4175055    1.4469512   0.70592115  0.066666667    1.2950912        1e-08 1.7648029e-09    5.6663552     2.486844    30.403515 0.0065787799  -0.21098052 0.0064631236   0.21151998 -0.076802465   0.90043985 
  644000    4.1485186    1.2660784    2.8824402   -0.2275304   0.84414228   0.98625799   0.75572146   -1.2465374            1    1.6506872    2.2410813    2.2522743   0.45870589 -0.0093597552 -0.021217726  0.053744627     1.491192    1.5209674   0.70911759  0.066666667    1.2987411        1e-08 1.772794e-09    5.6408134    2.4857779    30.403515 0.0034758463  -0.18238633 -0.003157253   0.21409826   0.34449727    1.7297771 
  645000    4.1908261    1.2852035    2.9056226  -0.21643022   0.85689375     1.000677   0.76743593   -1.2465374            1    1.6533396    2.2483118    2.2632216   0.44848532  0.011031329  0.016796646  0.041300425    1.4913721    1.5217233   0.70952565  0.066666667    1.3041301        1e-08 1.7738141e-09    5.6375693    2.4859994    30.403515 -0.0050901436  -0.18161235  0.013028585   0.17020607  0.077686407    -1.636056 
  646000    4.1907209    1.2694749     2.921246  -0.21011081   0.84640685   0.99786561   0.75216379   -1.2465374            1    1.5242095    2.1895622    2.1459563   0.23711008  0.019133834   0.02602296 -0.0054369405    1.3654653    1.3929631   0.71731262  0.066666667    1.3006409        1e-08 1.7932815e-09    5.5763692    2.5055221    30.403515 -0.00029481523  -0.22281034 -0.0071613752   0.16943773   -1.0402241  -0.52369271 
  647000    4.1727578    1.2734099    2.8993479  -0.21602884   0.84903051   0.99011505   0.76125315   -1.2465374            1    1.6390571     2.229566    2.2629837    0.4246218 -0.0094509013 -0.0062033173  0.011123424    1.4783945    1.5088301   0.71679452  0.066666667    1.3071458        1e-08 1.7919863e-09    5.5803998    2.4809405    30.403515 -0.007178757  -0.17490901 0.0066408976   0.19600905   -1.4908251    1.0473786 
  648000     4.158014       1.2525     2.905514  -0.21445956   0.83508904    0.9765227    0.7470917   -1.2465374            1    1.5695018    2.1937641    2.1738549   0.34088629 -0.014961423 -0.013090678 -0.039126069    1.4118279    1.4410625   0.71130043  0.066666667    1.2944982        1e-08 1.7782511e-09    5.6235028    2.4854077    30.403515  0.014407005     -0.18896 -0.0042043914   0.20816342    1.2029027    2.0502389 
  649000    4.1522632      1.24813    2.9041331  -0.21241832   0.83217545   0.97269896   0.74474481   -1.2465374            1    1.6196202    2.2483267    2.2366385   0.37389541 -0.0028492251 -0.047849291  0.012431481    1.4624417    1.4916839   0.70595734  0.066666667    1.2946818        1e-08 1.7648933e-09    5.6660648    2.4996666    30.403515 -0.0032249452   -0.2044583 -0.015466416   0.16887531    3.7983892    2.7483759 
  650000    4.1623401    1.2879581     2.874382  -0.22122506   0.85873035    1.0215005   0.75744014   -1.2465374            1    1.6744024    2.2721177    2.2654426   0.48564708 0.0050003515  0.058212411 -0.0029657106    1.5145446    1.5400473   0.70502375  0.066666667     1.302393        1e-08 1.7625594e-09    5.6735678    2.4902443    30.403515 0.0015028455  -0.17930502 0.0066720246   0.20186247    1.9885828  -0.18010834 
  651000    4.1784015     1.262967    2.9154345  -0.21189231   0.84206782    0.9978212   0.74514759   -1.2465374            1    1.5713477    2.1909925    2.2064632   0.31658756 0.0030431168  0.076247038  0.044730406    1.4140842    1.4401071   0.71067241  0.066666667    1.3063001        1e-08 1.776681e-09    5.6284724    2.4832068    30.403515 -0.013649518   -0.2002371 0.0015541651   0.19783097   0.88499275   0.51840183 
  652000    4.1518549    1.2569697    2.8948852  -0.21029786   0.83806921   0.97949947   0.75007451   -1.2465374            1    1.6343028     2.263785    2.2470478   0.39207563 -0.0065727532  0.061846429 -0.026261602    1.4759995     1.505472   0.71252081  0.066666667    1.3189962        1e-08 1.781302e-09    5.6138711    2.4797397    30.403515 0.0015468272  -0.18485779 0.0088597103   0.21653903   0.29910067    0.9354477 
  653000    4.1548858      1.25307    2.9018159  -0.23173406   0.83546908   0.97626138    0.7478715   -1.2465374            1    1.5530836    2.1628864    2.1807983   0.31556614 0.00037332071    0.1781195 -0.0031124735    1.3952452    1.4246787   0.71339961  0.066666667    1.3140356        1e-08 1.783499e-09    5.6069557    2.5102552    30.403515 0.0053666175  -0.17422671  0.016086508   0.17461671   -2.4220665    1.3791649 
  654000     4.156639    1.2712217    2.8854173  -0.22704065   0.84757153    1.0068511   0.74845473   -1.2465374            1    1.6390757    2.2360477    2.2383014   0.44287794 -0.0085434021   0.21311841  0.014106224    1.4811142    1.5066474    0.7070112  0.066666667    1.3199956        1e-08 1.767528e-09     5.657619    2.5005121    30.403515 -0.0063662022   -0.1904201 -0.0053944217   0.23168524   -2.0854029    2.8688257 
  655000    4.1825428    1.2717538     2.910789   -0.2183216   0.84792631   0.98641395   0.76176716   -1.2465374            1    1.5867975     2.217991    2.2098842   0.33251738 0.0093242389   0.16766807 -0.011302949    1.4260264    1.4570573   0.70891146  0.066666667    1.3138396        1e-08 1.7722787e-09    5.6424536    2.4862045    30.403515 0.0040301672  -0.24204031 0.0051541244     0.168197  -0.50530009    2.4679905 
  656000    4.1929286    1.2766948    2.9162338  -0.21789775   0.85122063    1.0003931   0.75840325   -1.2465374            1    1.7070298    2.2759127    2.3072047   0.53797197   0.01967638   0.15726718 -0.0092566144    1.5469687    1.5754509    0.7030845  0.066666667    1.3259762        1e-08 1.7577112e-09    5.6892166    2.4857241    30.403515 -0.0071446847  -0.20908859 0.0034300026   0.19723695    -2.502443   -1.7775938 
  657000    4.2104325      1.30866    2.9017725  -0.21331846   0.87253305    1.0219104   0.77959163   -1.2465374            1    1.5353106    2.1711389    2.1716945   0.26309828 -0.0061776226  0.092375593 -0.047896884    1.3707776    1.4009015   0.70107139  0.066666667    1.3165573        1e-08 1.7526785e-09    5.7055531    2.4717224    30.403515  0.006008648  -0.17880302 0.0080494765   0.21520327  -0.46913837   -1.9786278 
  658000    4.1785835    1.2771431    2.9014404  -0.20992777   0.85151956    1.0100665   0.75286002   -1.2465374            1    1.6361319    2.2526974    2.2418195   0.41387896 -0.0058196127  0.033161841 0.0082561648    1.4772407    1.5032807    0.7022993  0.066666667    1.3210488        1e-08 1.7557482e-09    5.6955774     2.484738    30.403515 -0.00032995511  -0.17919451 0.0044152271    0.1732892   -1.5605561  -0.94344134 
  659000    4.1942556    1.2816616     2.912594  -0.22277693   0.85453218    1.0053929   0.76066321   -1.2465374            1    1.4469849    2.0826822    2.1112854   0.14698723 0.0060330488 -0.029635007 -0.030211405    1.2864468    1.3147484   0.69656603  0.066666667    1.3240547        1e-08 1.7414151e-09    5.7424564    2.4955083    30.403515 0.0038135175   -0.1897955 -0.0040467599   0.14802508  -0.76084379   0.80226898 
  660000    4.1948869     1.272407    2.9224799  -0.20715024   0.84836184    1.0114066   0.74689871   -1.2465374            1    1.6866864    2.2796921    2.2766954   0.50367183 -0.011504965  0.099901031 -0.0056495632    1.5290534     1.553659   0.69866718  0.066666667    1.3270352        1e-08 1.7466679e-09    5.7251867    2.4887991    30.403515  -0.01954503   -0.1892521 0.00013276288   0.17849965    0.1389949    3.4174043 
  661000    4.1546577    1.2723412    2.8823165  -0.21410009   0.84831796    1.0084286   0.74868335   -1.2465374            1    1.5804887    2.2164037     2.215965    0.3090973 0.0051411632  0.062659852 -0.0077272222    1.4224789    1.4478529   0.70241869  0.066666667    1.3128689        1e-08 1.7560467e-09    5.6946093    2.4908754    30.403515 6.1070365e-05  -0.17581543   0.00349735   0.17589026  -0.66237499    1.9663806 
  662000    4.1588179    1.2552313    2.9035866  -0.21552243   0.83691012    0.9964684   0.73761776   -1.2465374            1    1.5421371    2.1738057    2.1807211   0.27188444 -0.0015650055   0.17095487 -0.016129717    1.3864627    1.4110744   0.70698296  0.066666667     1.315629        1e-08 1.7674574e-09     5.657845    2.4835986    30.403515 0.0042428022  -0.23848206 0.0086285046   0.19013106  -0.49955298   0.86843548 
  663000    4.2034174    1.2739346    2.9294828  -0.20686298   0.84938034   0.99565089    0.7583711   -1.2465374            1    1.6332278    2.2428013    2.2321827   0.42469941  0.011841988  0.093919919  0.012520476    1.4731735    1.5022726   0.69899006  0.066666667    1.3182494        1e-08 1.7474752e-09     5.722542    2.4962947    30.403515 0.0053173112  -0.15480459 0.0042715467   0.20472899  -0.74429159    1.3221282 
  664000    4.1835758    1.2895099    2.8940659  -0.21411314   0.85976494    1.0090345   0.76688853   -1.2465374            1    1.4499757    2.1048322    2.0924162   0.15267856 0.0012084743    0.0981696 -0.024035343    1.2881237    1.3172602   0.70510408  0.066666667    1.3192925        1e-08 1.7627602e-09    5.6729214    2.4763201    30.403515  0.011102955  -0.18717731 -0.010299511   0.17542504   0.18490663   -1.0698383 
  665000    4.1915984    1.2805472    2.9110513  -0.21397309   0.85378917    1.0066813   0.75865411   -1.2465374            1    1.6588643    2.2531623    2.2696617   0.45376911  0.017956718 -0.037144124    0.0958848    1.4987503    1.5264584   0.70526001  0.066666667    1.3163577        1e-08  1.76315e-09    5.6716671     2.498458    30.403515 -0.0083977678  -0.15527507  -0.01075716   0.18060517   -0.1590456      2.94692 
  666000    4.1826188    1.2878318     2.894787  -0.21781781   0.85864609    1.0046415   0.76780991   -1.2465374            1    1.7041178    2.2757632    2.3117372   0.52485304 -0.020326065 -0.061852411 -0.043677403    1.5420714    1.5719801   0.70769113  0.066666667    1.3035966        1e-08 1.7692278e-09    5.6521833    2.4793377    30.403515  0.011338036  -0.19101686 0.0019545841   0.19390331  0.067837413   0.71978646 
  667000    4.1661228    1.2637093    2.9024135  -0.21595396   0.84256274   0.98863125   0.75167824   -1.2465374            1     1.533143    2.1696689    2.1793584   0.25040157 -0.0014424097 -0.073865469 -0.023617572    1.3745012    1.4031111   0.69581552  0.066666667    1.3101029        1e-08 1.7395388e-09    5.7486502    2.4986788    30.403515 -0.0065262153  -0.17982687 -0.0025050821   0.17186888    2.6475233   -1.0148733 
  668000    4.1535896    1.2585857    2.8950038  -0.21580155   0.83914665   0.98650354   0.74745863   -1.2465374            1    1.5525295    2.1670636    2.1948429   0.29568202 -0.0043341236 -0.072084661  0.017348901    1.3947782    1.4227775   0.70015293  0.066666667    1.3107032        1e-08 1.7503823e-09    5.7130376     2.522068    30.403515  0.017993278  -0.21104882 -0.0068441825   0.20361039    1.3417107  -0.79755828 
  669000    4.1986699    1.3022434    2.8964265  -0.22021094   0.86825485    1.0102814   0.77989376   -1.2465374            1     1.592282    2.1922578    2.2189892   0.36559904 0.0038391997 -0.033456593 0.0064109652    1.4276853    1.4594025   0.70026861  0.066666667    1.3083117        1e-08 1.7506715e-09    5.7120938    2.4864778    30.403515 0.0048831477  -0.17438733 -0.0087657268   0.19652402   0.45766178    1.8006784 
  670000    4.1827989    1.2669957    2.9158033  -0.20910547   0.84475388    1.0120639   0.74063196   -1.2465374            1    1.7170251    2.3078821    2.2967209   0.54647237 -0.029189219 -0.005289664  0.016550612    1.5607146    1.5839112   0.70360768  0.066666667     1.302499        1e-08 1.7590192e-09    5.6849863    2.4814965    30.403515 -0.0049925047  -0.20925319 -0.013038399    0.2002554    1.3564308    1.1094961 
  671000    4.1739914    1.2760314      2.89796  -0.21835592   0.85077836    1.0249179   0.74240131   -1.2465374            1     1.449731    2.1018122    2.0957346   0.15164624 0.0044767467 -0.013954999   0.07570483    1.2930471    1.3149264   0.69936458  0.066666667    1.3086572        1e-08 1.7484114e-09    5.7194776    2.4882034    30.403515 0.0080655681   -0.1587366 0.0059409107   0.18802371 -0.040330921    -2.464227 
  672000    4.1748608    1.2810044    2.8938564  -0.22866575   0.85409405    1.0089942   0.75770763   -1.2465374            1    1.5666901    2.2096317    2.1625139   0.32792454 -0.013216808 -0.031818911 -0.0073413329    1.4067757    1.4339799    0.7044158  0.066666667     1.303715        1e-08 1.7610395e-09    5.6784643    2.4873312    30.403515 -0.0061342145  -0.21472892  0.016212153   0.19834787   0.68005418    -2.736359 
  673000    4.1706857     1.285564    2.8851217  -0.21967335   0.85713408    1.0108903   0.76146108   -1.2465374            1    1.6443943     2.239288    2.2701668   0.42372813 -0.0097064147 -0.080868462 -0.036381159    1.4836878    1.5114347   0.70122255  0.066666667    1.3018894        1e-08 1.7530564e-09    5.7043231    2.4933612    30.403515 0.00022527082  -0.14594891 -0.014027726   0.18563221    1.1266127    2.2502313 
  674000    4.1476116     1.255567    2.8920447  -0.21673385   0.83713393   0.98642128    0.7442425   -1.2465374            1    1.4779685    2.1198138    2.1231136    0.1909781 -0.016538657 -0.017069596 0.0093357198     1.320896    1.3482273   0.70923517  0.066666667    1.3099314        1e-08 1.7730879e-09    5.6398782    2.5041139    30.403515 -0.0080734185  -0.18128017 0.0074288511   0.21545328    1.8165954   -3.8513419 
  675000    4.1595505    1.2574349    2.9021156  -0.22151404   0.83837936   0.99974327   0.73796199   -1.2465374            1    1.5566132    2.1761696    2.1992665   0.29440349 -0.0075648981  -0.11950899 -0.036676359    1.4008662    1.4251198   0.71638959  0.066666667    1.3203857        1e-08 1.790974e-09     5.583554    2.5070997    30.403515 1.2236018e-05   -0.1456797 0.0028873122   0.17395557    3.0188254  -0.95560613 
  676000    4.1174308    1.2449072    2.8725236   -0.2214527   0.83002669   0.98728801   0.73216461   -1.2465374            1    1.7586233    2.3187267    2.3650647   0.59207844  0.017393562  0.033197482   0.01294479    1.6040998    1.6287681    0.7135224  0.066666667    1.3151346        1e-08 1.783806e-09    5.6059908    2.5142086    30.403515 -0.0003618596  -0.17231157 0.0037097597    0.1701574  -0.07821777    4.1006708 
  677000    4.1772125    1.2560756    2.9211369  -0.21829206   0.83747304   0.99561519   0.73906333   -1.2465374            1     1.612519    2.2237365    2.2069892   0.40683124 -0.012093818   0.12563563 -0.062921687    1.4565396    1.4815685   0.71233827  0.066666667    1.3212295        1e-08 1.7808457e-09    5.6153097    2.4947126    30.403515 0.00052478874  -0.24637395 -0.0082166012   0.20677562  0.064986732    2.5813478 
  678000    4.1938015    1.2738125    2.9199891  -0.21386624   0.84929889   0.99924292   0.75600032   -1.2465374            1    1.5701442    2.2006427    2.1907792   0.31901078  -0.01349302    0.2486342  0.019672609    1.4105902    1.4387166   0.71044785  0.066666667    1.3103748        1e-08 1.7761196e-09    5.6302514    2.4955729    30.403515 -0.0072790875  -0.19819794 -0.00046768991   0.19922527  -0.29589759    2.5574339 
  679000    4.1442873    1.2610444    2.8832429  -0.22937728   0.84078595   0.98804177   0.74916121   -1.2465374            1    1.5959668    2.2124279    2.1932021   0.38227025 -0.008995308   0.17171001  0.035251042    1.4378562    1.4660124   0.70881016  0.066666667    1.3089416        1e-08 1.7720254e-09      5.64326    2.4806949    30.403515 -0.0024347706  -0.16326192 -0.00085960715   0.17179464   -1.2265206    2.3161125 
  680000    4.1354649    1.2514404    2.8840245  -0.21054682   0.83438258   0.99588327   0.73387927   -1.2465374            1    1.5608012    2.1674529    2.2068618   0.30808881 0.0094850132   0.10160173 -0.018883506    1.4059158    1.4298154   0.71093839  0.066666667    1.3030258        1e-08 1.777346e-09    5.6263666    2.5079988    30.403515 -0.011366473  -0.19825128  0.015970161   0.20062477   -0.4290909    2.8199912 
  681000    4.1530982    1.2647868    2.8883114  -0.21449378   0.84328114   0.99972467   0.74593102   -1.2465374            1    1.6447714    2.2326604    2.2762811   0.42537269  0.011868287  0.070075175 -0.0031304146    1.4873425    1.5132804   0.71591431  0.066666667    1.3101199        1e-08 1.7897858e-09    5.5872608    2.5197287    30.403515 0.0036760665  -0.20755426 0.00029267264   0.19644296   -1.2003459    1.0893301 
  682000    4.1579069    1.2597302    2.8981768  -0.22038041   0.83990971   0.99966637   0.74049424   -1.2465374            1    1.6164299    2.2131888    2.2063387   0.42976206 -0.0086684117  0.062680868  0.027472133    1.4601484    1.4849465   0.71052169  0.066666667    1.3166933        1e-08 1.7763042e-09    5.6296662    2.4938596    30.403515 0.0051535283  -0.21378964 0.0086586472   0.21536165   -1.9784296    2.1903664 
  683000    4.1644639    1.2517801    2.9126838  -0.20791391   0.83460906    1.0070792   0.72726963   -1.2465374            1    1.6037891    2.2313295    2.2139739   0.36606401 0.0084523409  0.017856779 -0.0065065658    1.4502988    1.4713308    0.7032583  0.066666667    1.3060984        1e-08 1.7581457e-09    5.6878106    2.4793961    30.403515 0.0089533311  -0.18045093  0.014915931   0.15902531  -0.42333446    1.1857138 
  684000    4.1602893     1.269927    2.8903623  -0.22650277   0.84670833    1.0007679   0.75084446   -1.2465374            1    1.5458315    2.1629915    2.1631415   0.31136155 -4.2054559e-06  -0.14353923 -0.019879936    1.3873657    1.4142033   0.70652128  0.066666667    1.3139017        1e-08 1.7663032e-09    5.6615422    2.4959806    30.403515  0.016167505  -0.20800926 -0.0019071765   0.16687734    1.3465537    2.4982446 
  685000    4.1839838    1.2727568     2.911227   -0.2185993   0.84859504    1.0053324   0.75106275   -1.2465374            1    1.5817885    2.1875763    2.1998519   0.35793707   0.01573724 -0.022018395  0.083707936    1.4232765    1.4495599   0.70858595  0.066666667    1.3111899        1e-08 1.7714649e-09    5.6450456    2.4765406    30.403515  0.011322587  -0.20708598 -0.0031600922   0.22201949  -0.90730794    3.0017769 
  686000    4.1640918    1.2656062    2.8984857  -0.21172051   0.84382745    1.0069142   0.74233733   -1.2465374            1     1.575826    2.2231676     2.199914   0.30439642 -0.0017961326   0.12041622 -0.031666737    1.4191556    1.4433894   0.70432502  0.066666667    1.3089543        1e-08 1.7608126e-09    5.6791962    2.4777548    30.403515 0.0057358407  -0.18778566 0.0046717577   0.20158951   0.15977705    1.8741414 
  687000    4.1356548    1.2517452    2.8839097  -0.22022236   0.83458578   0.97844931   0.74507405   -1.2465374            1    1.5840402    2.1941301     2.215584   0.34240643 -0.017138827   0.10104984 0.0076159754    1.4267922    1.4553475   0.70783008  0.066666667    1.3161128        1e-08 1.7695752e-09    5.6510737    2.4897271    30.403515 -0.0066561285  -0.22380328 0.0087237488   0.19012476  -0.31843749   0.62936486 
  688000    4.1866521    1.2864828    2.9001693  -0.21649424   0.85774671   0.99585137   0.77182793   -1.2465374            1     1.652606    2.2403678    2.2709574   0.44649279 0.00011682653  0.092148184  0.018732102    1.4897116    1.5216245   0.70704517  0.066666667     1.319257        1e-08 1.7676129e-09    5.6573472      2.48532    30.403515  0.013581892  -0.21585341 -0.0057048683   0.20154928  -0.24617948    1.3838914 
  689000    4.1603318    1.2764145    2.8839172  -0.21990103   0.85103379    1.0012477   0.75756733   -1.2465374            1    1.5498232    2.1583069    2.2108351   0.28032759 0.0020463233   0.10166577 -0.023150119    1.3899385    1.4181319    0.7086375  0.066666667    1.3178607        1e-08 1.7715937e-09     5.644635    2.5048673    30.403515 0.0032877244   -0.1921675 0.00093176564   0.19226227 -0.087578143   -0.1080206 
  690000    4.1869845    1.2800784    2.9069062  -0.21730585    0.8534766     1.031329   0.74278614   -1.2465374            1    1.6388791    2.2370321     2.249311   0.43029419 -0.016621734  0.072010665 -0.0030073276     1.482114    1.5032313   0.70348834  0.066666667    1.3135112        1e-08 1.7587208e-09    5.6859507    2.5057592    30.403515 0.0067652971   -0.1728295 -0.014146975    0.1770873  -0.59397823    2.3230898 
  691000    4.1473008    1.2515964    2.8957044  -0.21426604   0.83448661   0.99204681   0.73643905   -1.2465374            1    1.5669945    2.1769425    2.1953018   0.32873929 -0.015325199  -0.00678554 -0.034474775    1.4115689    1.4365134   0.69819376  0.066666667    1.3277506        1e-08 1.7454844e-09    5.7290687    2.4868032    30.403515 0.0072794384   -0.1853451 -0.006265351   0.16931919  -0.51990807    1.4683735 
  692000    4.1589789    1.2648805    2.8940985  -0.20913186   0.84334359     1.013697   0.73732481   -1.2465374            1    1.5874508    2.2135022    2.2011354   0.34771481  0.013426398 -0.057453217  0.086900725    1.4318383    1.4541221   0.70151247  0.066666667    1.3166369        1e-08 1.7537812e-09    5.7019657    2.4927563    30.403515 -0.0043100572  -0.18476803 0.0048993901   0.21927803  0.052473941  0.038803856 
  693000    4.1835092    1.2647666    2.9187427  -0.20353788   0.84326765    1.0042865   0.74306617   -1.2465374            1     1.477813    2.1128441    2.1204961   0.20009887 -0.011933267 -0.067427242  0.033563642    1.3209888     1.345722    0.6965803  0.066666667     1.314643        1e-08 1.7414508e-09    5.7423387    2.4852061    30.403515 0.0046049624  -0.18136237 0.0031056554   0.17304468   -1.2053389  -0.76718235 
  694000    4.1817484    1.2563965     2.925352  -0.20801155   0.83768698   0.98597241   0.74542004   -1.2465374            1    1.6399407    2.2569361    2.2447527   0.41813321 -0.0086093822 -0.038666411  0.014522885    1.4826197    1.5102585   0.69856466  0.066666667    1.3007683        1e-08 1.7464117e-09    5.7260268    2.4964551    30.403515 -0.005015094  -0.21198682 0.0070260671   0.21035711    0.3590482    1.7149458 
  695000    4.1676086    1.2893321    2.8782765  -0.21402481    0.8596464    1.0256243   0.75635725   -1.2465374            1    1.6061663    2.2107274    2.2596045   0.34816684 -0.010576188 -0.096721989 0.0019878742    1.4465369    1.4712688   0.69427296  0.066666667    1.3091201        1e-08 1.7356824e-09    5.7614227    2.4926852    30.403515  0.011931442  -0.16807231  0.011940204   0.16725784     0.959033    3.0843595 
  696000    4.1343259    1.2530729     2.881253  -0.21542297   0.83547104   0.97699111   0.74741991   -1.2465374            1    1.4848938    2.1416612    2.1344301   0.17859009 0.0053500427  -0.19314098 0.0097395513    1.3271507    1.3563929   0.69885052  0.066666667    1.3166413        1e-08 1.7471263e-09    5.7236847    2.4920818    30.403515 -0.013758197  -0.17056313 0.00087080525   0.18581868    2.4541022    2.6004438 
  697000    4.1459814    1.2605855    2.8853959  -0.22006644   0.84047998   0.97483369   0.75689583   -1.2465374            1    1.5540221    2.1942061    2.1866422   0.28121809 -0.00088949601  -0.16898026 -0.031252773    1.3942791     1.425805   0.69212743  0.066666667    1.3098134        1e-08 1.7303186e-09    5.7792826    2.4757105    30.403515  0.010819476  -0.19605736  0.011511031   0.17191473    1.3388012    1.9158149 
  698000    4.1461371    1.2477829    2.8983543  -0.21106098   0.83194397   0.99401784   0.73108303   -1.2465374            1    1.6640802    2.2355729    2.2724603    0.4842073 0.0024066048 -0.098762714  0.026257798     1.509785    1.5333398   0.69834644  0.066666667    1.2982065        1e-08 1.7458661e-09    5.7278161    2.4953187    30.403515 -0.0041450055  -0.22815478 0.0093332572   0.23782488  -0.26430092    2.4117849 
  699000    4.1944417    1.2725395    2.9219023  -0.20900534   0.84845013    1.0008488   0.75362163   -1.2465374            1    1.5228839    2.1622898     2.157704   0.24865794 0.0098436745 -0.064900642  0.046826451    1.3638319    1.3912451   0.68696621  0.066666667    1.2952537        1e-08 1.7174155e-09    5.8227027    2.4832154    30.403515  0.019096936  -0.19059524  0.010749908   0.17844853   -2.0849692    1.8923549 
  700000    4.1413095    1.2390951    2.9022144  -0.21984204   0.82615153   0.98472096   0.72747357   -1.2465374            1    1.5966721    2.1954354    2.2251183   0.36946244  0.012377464 -0.076660333  0.010728081    1.4431386    1.4671545   0.68678667  0.066666667    1.2923031        1e-08 1.7169667e-09    5.8242249    2.4817424    30.403515 -0.004079714  -0.16534698 0.0064561757    0.1690132   -1.1026135   0.47948471 
  701000    4.1610058    1.2670725    2.8939333  -0.21832859   0.84480514   0.99431569   0.75177592   -1.2465374            1    1.6308156    2.2306508    2.2294594   0.43233679 0.0036342887 -0.046549558 -0.046752379    1.4721532    1.5000361   0.69283498  0.066666667    1.2976301        1e-08 1.7320874e-09    5.7733806    2.4965323    30.403515 -0.0017739419  -0.19104097 0.0046920637   0.18698844  -0.83746041  -0.67405116 
  702000    4.1524621    1.2477985    2.9046636  -0.20760385   0.83195442   0.97938903   0.74021672   -1.2465374            1    1.6186704      2.21538    2.2234635   0.41716756 0.0021872085   0.03503446  0.018923678    1.4624475    1.4898541   0.69711425  0.066666667    1.3007162        1e-08 1.7427856e-09    5.7379404    2.4874342    30.403515 0.00021317218  -0.19847361 0.0071913289     0.222604   0.30108947  -0.59361072 
  703000    4.1632468    1.2566214    2.9066253  -0.21516757   0.83783698   0.99628315   0.73923785   -1.2465374            1    1.5908106    2.1967318    2.2081439   0.36755601  0.013603029 -0.021052909  0.016732573    1.4347943    1.4597722   0.70517326  0.066666667    1.3077689        1e-08 1.7629332e-09    5.6723648     2.518266    30.403515 0.0043174348  -0.19978818  0.011796559   0.20475475    1.6366541   -2.0954383 
  704000     4.175571    1.2623652    2.9132058  -0.20682963    0.8416666    1.0069763   0.73879077   -1.2465374            1     1.590186    2.2311858    2.2211083   0.31826392 -0.0053626688  0.016714705 0.0082077716    1.4342641    1.4577412    0.7060278  0.066666667    1.3117721        1e-08 1.7650695e-09    5.6654993    2.5075503    30.403515 -0.0032389697  -0.18352329 -0.0011709635   0.18381809  -0.59545563   -1.6823921 
  705000      4.17127    1.2766872    2.8945828  -0.22409016    0.8512156   0.99327134   0.76283337   -1.2465374            1    1.5772099    2.1936886    2.1870252   0.35091601 -0.014356493 -0.0017767255 -0.072050778    1.4162138    1.4465678   0.69919388  0.066666667    1.3226822        1e-08 1.7479847e-09    5.7208738    2.5022071    30.403515  -0.01623883  -0.20779669 -0.021769269   0.18517364   0.26148571   -1.8372766 
  706000    4.1623284    1.2632796    2.8990488  -0.20983281   0.84227621   0.99110346    0.7496724   -1.2465374            1    1.6581005    2.2489834    2.2556287   0.46968925  -0.01761299 -0.094216526  0.027211703     1.499882    1.5277434   0.69856853  0.066666667      1.30262        1e-08 1.7464213e-09    5.7259952    2.4819282    30.403515 -0.012408757  -0.19014804 -0.004748918   0.20220363  -0.91851557   0.77856589 
  707000    4.1733251    1.2684618    2.9048633  -0.20946374   0.84573143   0.99523198   0.75270862   -1.2465374            1     1.577396    2.1843636    2.2046525    0.3431718 -0.0024355359  -0.13065212 0.0004910373    1.4185367    1.4464959   0.70148747  0.066666667    1.3119196        1e-08 1.7537187e-09    5.7021689    2.5027373    30.403515 -0.0060897546  -0.19302055 -0.0024574003   0.22455661   -1.6572602  -0.15085075 
  708000    4.1447674    1.2527841    2.8919833  -0.22297432   0.83527849   0.97952607   0.74552754   -1.2465374            1    1.5570416    2.1805532    2.1820968    0.3084748   0.01071035  -0.11337708  -0.02397561    1.3996979    1.4282073   0.69692324  0.066666667    1.3142832        1e-08 1.7423081e-09     5.739513    2.4878278    30.403515 0.0071438186  -0.20296258 -0.0027865187   0.21942581  -0.75792018   -1.1930197 
  709000     4.153142     1.270905     2.882237  -0.21561442   0.84736037    1.0076253   0.74762944   -1.2465374            1    1.5715418    2.1994108    2.1935454   0.32166931  0.017757484 -0.083083319 -0.025279759    1.4137545    1.4390117   0.70280478  0.066666667    1.2903334        1e-08 1.7570119e-09    5.6914809     2.511631    30.403515 -0.0018638796   -0.1695264 -0.008791465   0.15897506   0.09142257   0.15469699 
  710000    4.1769659    1.2820852    2.8948807  -0.21822059   0.85481461   0.99811648   0.76565641   -1.2465374            1    1.4262148     2.068985     2.073318   0.13634121  -0.01429575  -0.14828106 -0.010732568    1.2646229    1.2949353   0.69476747  0.066666667    1.3070331        1e-08 1.7369187e-09     5.757322     2.465996    30.403515 0.0063464745  -0.23983672  9.35722e-05   0.17820587    1.7627054     1.107993 
  711000    4.1669128    1.2728612    2.8940516   -0.2186724   0.84866462   0.99894929   0.75515365   -1.2465374            1    1.6392339    2.2395934     2.245179   0.43292933 -0.0082356891  -0.14389881 -0.060580463    1.4798586    1.5078449   0.69611918  0.066666667    1.3165575        1e-08 1.740298e-09    5.7461425    2.5001265    30.403515   0.01259438   -0.2039935 -0.0011279637    0.1867609    1.5329112    3.7808673 
  712000    4.1901224    1.2581684    2.9319541  -0.21592179   0.83886837    1.0042222   0.73596455   -1.2465374            1    1.6002948    2.2363145    2.2140595    0.3505105   0.02077138   -0.1029255  0.033249656    1.4449694    1.4682123   0.70552756  0.066666667    1.3100368        1e-08 1.7638189e-09    5.6695163    2.4896727    30.403515  0.004323213  -0.19176498 -0.002371847   0.22423286    2.3083971     2.884774 
  713000    4.1532555     1.268404    2.8848515   -0.2150928   0.84569287    1.0082069   0.74456001   -1.2465374            1    1.6994697    2.2848249    2.2840237   0.52956066 0.0095295608 -0.011527901  0.041754314    1.5423302    1.5668631   0.69910745  0.066666667    1.3087658        1e-08 1.7477686e-09    5.7215812    2.4728956    30.403515 -0.015923223  -0.21558006 0.0078136854   0.24435494    2.1802208    2.3459864 
  714000    4.1857188    1.2858166    2.8999022  -0.21299645   0.85730249   0.99246885   0.77321479   -1.2465374            1    1.5832009    2.2024089    2.2107829   0.33641104  0.004543428 0.0049047646 -0.052310442    1.4200138    1.4526643   0.70002383  0.066666667     1.309093        1e-08 1.7500596e-09    5.7140912     2.490461    30.403515 0.00022146851  -0.17815242  0.014295165   0.21107131    1.0778412    2.0226074 
  715000    4.1848925    1.2879601    2.8969324  -0.20737793   0.85873168    1.0101069   0.76454281   -1.2465374            1    1.5937073     2.186275    2.2238073   0.37103953 0.00045888898 -0.097632854 -0.00095363165    1.4323504    1.4608507   0.69382042  0.066666667    1.3069308        1e-08 1.7345511e-09    5.7651806    2.4826476    30.403515 0.0083141338  -0.23581618 -0.0077069252   0.21073459    2.2545231  -0.27929521 
  716000    4.1516917     1.260488    2.8912037  -0.21949787     0.840415   0.99343365   0.74519878   -1.2465374            1    1.4453804    2.0914335    2.0921388   0.15256895 -0.0080026448  0.059949548 -0.044372751    1.2881061    1.3147169   0.69100232  0.066666667    1.3056957        1e-08 1.7275058e-09    5.7886926    2.4956143    30.403515 -0.005496045  -0.17845602 0.00078688328   0.17481113   0.54441028    -1.401319 
  717000    4.1548485    1.2549227    2.8999258  -0.20790593   0.83670438   0.99625901   0.73741426   -1.2465374            1      1.73018     2.323876    2.3040406    0.5626233  0.015019573   0.01097564 -0.016952945    1.5745486    1.5991448   0.69118347  0.066666667    1.2914982        1e-08 1.7279587e-09    5.7871754    2.4832343    30.403515 -0.0033015902  -0.17105128 0.0084502431   0.18596488   0.54075556  0.036133232 
  718000    4.1937959    1.2860407    2.9077552  -0.21377586   0.85745194    1.0069851   0.76441084   -1.2465374            1    1.5899458    2.1784197    2.2035216   0.38789629  0.012256273 -0.058337078 -0.022378229    1.4286168    1.4574999   0.69055935  0.066666667     1.300616        1e-08 1.7263984e-09    5.7924059    2.4921041    30.403515 -0.0013473508  -0.20342721 -0.0027833648   0.21206986    1.2280834   0.53357922 
  719000    4.1591266    1.2603507    2.8987759  -0.21621888   0.84032343   0.99429394   0.74451398   -1.2465374            1    1.5598722    2.1991746    2.1889908   0.29145111 -0.011636469 -0.088948189  0.066902638    1.4027424    1.4290955   0.70189956  0.066666667    1.3115457        1e-08 1.7547489e-09    5.6988211    2.4948653    30.403515 0.0014205676  -0.21575585 -0.0041869154   0.20635469  -0.50458116    3.6499441 
  720000    4.1507613    1.2690672    2.8816941   -0.2213248   0.84613507   0.99615054   0.75279142   -1.2465374            1     1.710849     2.304708    2.2924277   0.53541135  0.031686511 -0.022392342 -0.012271939    1.5519723    1.5798281   0.69945317  0.066666667    1.3112284        1e-08 1.7486329e-09    5.7187531     2.506825    30.403515  0.012355214   -0.1668255 -0.0092296943   0.19690873   0.03808059   0.62345273 
  721000     4.164412    1.2485233    2.9158887  -0.21071479   0.83243768   0.97703522   0.74246814   -1.2465374            1    1.5539707    2.1849897    2.1673672   0.30955521 -0.017308789 0.0063365007 -0.0057105332    1.3972727     1.425464   0.69135655  0.066666667    1.3048235        1e-08 1.7283914e-09    5.7857266    2.4891985    30.403515 0.0053740746  -0.21087903 0.0081894139    0.1517838  -0.89775212  -0.63064754 
  722000    4.1740989    1.2573253    2.9167737  -0.21180128   0.83830625   0.99718224   0.73943934   -1.2465374            1    1.6222705    2.2436832    2.2210266   0.40210168 0.0073158809 -0.029743852  0.027348953    1.4662117    1.4911139   0.69817166  0.066666667    1.2978437        1e-08 1.7454292e-09      5.72925    2.4860383    30.403515 0.0090973375  -0.20154223 -0.010569741   0.18217483     -1.59224   0.19793797 
  723000    4.1443036    1.2493073    2.8949963  -0.21940975   0.83296037    1.0033913   0.72689143   -1.2465374            1     1.367995     2.025558    2.0337134  0.044713543 -0.0023940409 -0.023384324 -0.022824339    1.2145844    1.2360217   0.70721548  0.066666667    1.2963522        1e-08 1.7680387e-09    5.6559848    2.5145655    30.403515 -0.0060998306  -0.20059288 -0.0074614066   0.21975811  -0.17267411   -1.4551874 
  724000    4.1956692    1.2699325    2.9257366  -0.20737954     0.846712     1.019041   0.73946259   -1.2465374            1    1.7488319    2.3332186    2.3166224   0.59665475 0.0019022067  0.065197673  0.065249179    1.5927682    1.6148003    0.6977591  0.066666667     1.296931        1e-08 1.7443978e-09    5.7326375    2.4860096    30.403515 0.0024883266  -0.17714974 -0.00014212694    0.1571458  -0.62960514    4.3883987 
  725000    4.1698858    1.2732904    2.8965954  -0.20784581   0.84895081   0.98778262   0.76257736   -1.2465374            1    1.4893314    2.1323842    2.1440296   0.19158026 0.00086684149  0.016776099  -0.01729927    1.3283893    1.3594111   0.69750363  0.066666667    1.2966615        1e-08 1.7437591e-09    5.7347372    2.4938211    30.403515 -0.020900021  -0.26093961  0.010954301   0.20472455    1.1825181  -0.64132654 
  726000    4.1699037    1.2646953    2.9052084   -0.2091367   0.84322016     1.002556   0.74406754   -1.2465374            1    1.5665318    2.2056286    2.1889093   0.30505752 0.0011684754  0.017126461 -0.0042704737    1.4094962    1.4346684   0.69524206  0.066666667    1.2885067        1e-08 1.7381052e-09    5.7533918    2.4914987    30.403515 0.00056701866  -0.17025801 -0.0038042413   0.23682815   0.11671478   -0.6318263 
  727000     4.168904    1.2654729    2.9034311  -0.21482585   0.84373859    1.0006548   0.74609399   -1.2465374            1    1.6486354    2.2578366     2.229925   0.45814469 -0.0026857986  0.029494531 -0.0086970418    1.4911722    1.5170221   0.69294634  0.066666667    1.2921702        1e-08 1.7323659e-09    5.7724527    2.4731512    30.403515  -0.01041666  -0.17236026 0.0064824652    0.2119768   0.15434034   0.67244942 
  728000    4.1266381    1.2506879    2.8759502  -0.21904529   0.83388086    0.9955398   0.73327884   -1.2465374            1    1.5407037    2.1639611    2.1779025   0.28024746  0.010744441  0.041732383 -0.0015754875    1.3859451    1.4097631   0.69912967  0.066666667    1.2859361        1e-08 1.7478242e-09    5.7213993     2.484862    30.403515 -0.0061678696  -0.17342603 -0.0019339825   0.19329005   0.33798625   -1.8907664 
  729000    4.1637376    1.2527187    2.9110189  -0.22129586   0.83523488      1.00611   0.72888952   -1.2465374            1    1.5612119    2.1926034    2.1791169    0.3119153 -0.012966157 -0.026199913 -0.066161817    1.4073796     1.428881   0.69738344  0.066666667    1.2908473        1e-08 1.7434586e-09    5.7357255    2.4832762    30.403515 -0.014295536  -0.19410879 -0.0065667828   0.20729135  -0.49363296  -0.19912747 
  730000     4.172264     1.264439     2.907825  -0.21654866   0.84304927    1.0039133   0.74294424   -1.2465374            1    1.6160249    2.2380005    2.2123946   0.39767957 -0.018127943 -0.0030846462 -0.046072504    1.4592264     1.483983   0.70562191  0.066666667    1.2868175        1e-08 1.7640548e-09    5.6687583    2.4988797    30.403515 0.0050334498  -0.18687598 0.0037423781   0.19192859  -0.50030416    0.8615404 
  731000    4.1814517    1.2786516    2.9028001  -0.21074655   0.85252534    1.0302028   0.74194373   -1.2465374            1    1.6327242    2.2484899    2.2479907   0.40169207 0.00093640918  0.051300275  0.066207894    1.4761369    1.4972245   0.70524491  0.066666667    1.2841581        1e-08 1.7631123e-09    5.6717885    2.4818331    30.403515 -0.0085685363  -0.23900965 -0.011298861   0.20255003   -1.1708275  -0.87979126 
  732000     4.145013     1.277005     2.868008  -0.22273125   0.85142749    1.0032208   0.75697679   -1.2465374            1    1.7008831    2.2818549    2.2984904   0.52230392 0.0036719336  0.060800831  0.020393899     1.541123    1.5689323   0.71297473  0.066666667    1.2879873        1e-08 1.7824368e-09     5.610297    2.4766597    30.403515 0.0011433288  -0.19896444  0.010061675   0.18828139  -0.92993282   0.74181921 
  733000    4.1607795    1.2655112    2.8952683  -0.21948893   0.84376413   0.99718106   0.74830028   -1.2465374            1    1.5275018    2.1828042    2.1348519   0.26484921 0.0045294028    0.0532052 -0.069177176    1.3695729    1.3963454   0.71098907  0.066666667    1.2919928        1e-08 1.7774727e-09    5.6259655    2.4853824    30.403515 -0.0012982859  -0.20197374  0.013607985   0.16214347   0.41252274    -1.927136 
  734000     4.127641    1.2426157    2.8850253  -0.22854438   0.82849881   0.99901662   0.72237499   -1.2465374            1    1.5958403    2.2138025     2.212598   0.36112037 -0.0030563724  0.042211291 -0.0082088174    1.4433829    1.4644424   0.70795767  0.066666667    1.2933881        1e-08 1.7698942e-09    5.6500553    2.4830931    30.403515 -0.0089173276  -0.18755796 -0.0081618558   0.19346162    2.2022179  -0.25805749 
  735000    4.1466788    1.2634736    2.8832052  -0.22214189   0.84240558    1.0134607    0.7359493   -1.2465374            1      1.54064    2.1744204    2.1784947    0.2690049  0.017666598 0.0011165764  -0.04030122    1.3853178    1.4073424    0.7049031  0.066666667    1.2912896        1e-08 1.7622578e-09    5.6745388    2.4902025    30.403515 -0.011130527  -0.17399167 0.0046788024   0.19326218    2.6051493   -2.0235735 
  736000    4.1802045    1.2622491    2.9179554  -0.20400243   0.84158917   0.99324549   0.74722215   -1.2465374            1    1.5777686    2.2019343    2.1858549   0.34551678 -0.0065287031  -0.10621995   0.04324636    1.4200673    1.4471299    0.7054629  0.066666667     1.288366        1e-08 1.7636573e-09    5.6700359    2.4894486    30.403515  0.013269059  -0.18719253 -0.005711263   0.22561546    2.2124593     1.599441 
  737000    4.1870876    1.2906574    2.8964302  -0.22648575   0.86053005    1.0301468   0.75497334   -1.2465374            1    1.5919315    2.2036397    2.2017877   0.37036711 -0.015861409 0.0049839281 0.00036509101    1.4325942    1.4564392   0.70275632  0.066666667    1.2965031        1e-08 1.7568908e-09    5.6918734    2.5050401    30.403515 -0.00027790461  -0.17580066 -0.014563581   0.17479762  -0.28237623  0.093146752 
  738000    4.1483231    1.2533581     2.894965  -0.21798839   0.83566118   0.96923873   0.75255988   -1.2465374            1    1.5458358    2.1731184    2.1840896   0.28029952 -0.013838304 -0.066414983 -0.053960834    1.3870079    1.4183546   0.70467883  0.066666667    1.2902696        1e-08 1.7616971e-09    5.6763448    2.4853049    30.403515 0.0053592154  -0.21459757 -0.0021098622   0.20952442    0.4932876   -3.0369305 
  739000    4.1670128       1.2687    2.8983128  -0.21352559   0.84589025    0.9731114   0.76675206   -1.2465374            1    1.5655011    2.1908855    2.1590111   0.34660657  0.012026843  -0.01908749  0.035554019    1.4036779    1.4375105   0.69884366  0.066666667    1.2972941        1e-08 1.7471092e-09    5.7237408    2.4837686    30.403515 0.0096363803  -0.17306521 -0.015332707   0.20296626   0.38892595  -0.84581302 
  740000    4.1646973    1.2731834    2.8915138  -0.22097913   0.84887949    1.0176848   0.74382644   -1.2465374            1    1.5340292    2.1729344     2.170051   0.25910215 -0.033791413  -0.16173813  0.018031412    1.3770445     1.400176   0.69642658  0.066666667    1.2979181        1e-08 1.7410664e-09    5.7436062    2.4933563    30.403515 0.0032512265  -0.15848766  0.014549667   0.16384974  -0.23916545  -0.31769471 
  741000    4.2064144    1.2766725    2.9297419  -0.20252502   0.85120578   0.99620952   0.76098634   -1.2465374            1    1.5631355     2.185805    2.1803334   0.32326803 -0.012338307   -0.1442402  -0.06646232    1.4025292    1.4321068   0.69272854  0.066666667    1.3016929        1e-08 1.7318214e-09    5.7742676    2.4996048    30.403515 -0.00017163811  -0.20669506 0.0016100112   0.18159491    1.1023934    1.8770981 
  742000    4.1425694    1.2479716    2.8945979  -0.21403074   0.83206978   0.99123842   0.73301941   -1.2465374            1    1.6910068    2.2969803     2.255698   0.52034217 0.0030494845  0.015454011 0.0016775754     1.536303     1.560632   0.69788247  0.066666667    1.3023958        1e-08 1.7447062e-09    5.7316241    2.4852249    30.403515 2.3387442e-05  -0.18769185  0.016885009    0.2301057   0.60807248    1.5032603 
  743000    4.2051044    1.2951094    2.9099949  -0.21722722    0.8634984    1.0245919   0.76325392   -1.2465374            1    1.5500449    2.1373018    2.1908961   0.32193681 0.0096189625 -0.032842853  0.027213785      1.38896    1.4152832   0.69704845  0.066666667    1.3007518        1e-08 1.7426211e-09     5.738482    2.4822569    30.403515 0.0027589206  -0.19133963 0.0081960691   0.19141227   -0.1703488    1.0585718 
  744000    4.1948898     1.287022    2.9078678  -0.21180329   0.85810622     1.016093   0.75979686   -1.2465374            1    1.4469225    2.1141323    2.0994594   0.12717573  0.011028594 -0.090585278 -0.0069758449    1.2865672    1.3132786   0.70204046  0.066666667    1.3122225        1e-08 1.7551011e-09    5.6976773    2.4868931    30.403515 -0.0049929559  -0.18413192 -0.0010166138   0.20187809    1.1735152    -1.405753 
  745000    4.1727721     1.270137    2.9026351  -0.22313825   0.84684833    1.0125632   0.74372091   -1.2465374            1    1.6094389    2.2178117      2.21892   0.39158515 -0.0045826401 -0.0050570521 -0.016648306    1.4524765    1.4762594   0.70402996  0.066666667    1.2982448        1e-08 1.7600749e-09    5.6815764    2.5004765    30.403515 0.0033995605  -0.17964244 -0.011938162   0.17767158     1.298104    3.5174163 
  746000    4.1740697    1.2594696    2.9146002  -0.22369032   0.83973595    0.9979588   0.74127633   -1.2465374            1    1.5391847    2.1539108    2.1822629   0.28138038  0.017866798 -0.078324194 -0.0067623123    1.3827382     1.407926   0.70332247  0.066666667    1.2972222        1e-08 1.7583062e-09    5.6872917    2.5063705    30.403515 0.0026757209  -0.17421142 0.00038306209   0.21194603    1.5178782    3.0852286 
  747000    4.1425541    1.2479672    2.8945869  -0.21562545   0.83206687   0.98191078    0.7388277   -1.2465374            1    1.5075403    2.1654197    2.1093168   0.24788445  0.014512282 -0.065289269  0.058411787    1.3516106    1.3783924   0.70919859  0.066666667     1.290035        1e-08 1.7729965e-09    5.6401691    2.5000433    30.403515 -0.00037285395  -0.20810245 0.0082055303   0.25462567    1.6626135     1.308566 
  748000    4.1601351    1.2597248    2.9004103    -0.221574   0.83990614    1.0016879   0.73922861   -1.2465374            1    1.5542273    2.1972554    2.1777938   0.28763263 -0.010409208 -0.063920884 -0.049722092     1.398213    1.4224781   0.69929959  0.066666667    1.2921678        1e-08 1.748249e-09    5.7200091    2.5004477    30.403515 -0.0049301547  -0.15532729 0.0032914806   0.18308912    1.3740249    3.9100338 
  749000    4.1669031    1.2561944    2.9107087  -0.20244422   0.83755227   0.99046175   0.74240358   -1.2465374            1    1.6506283    2.2376635    2.2614812   0.45274021 -0.0036475641 -0.055177079 -0.020972119    1.4939439    1.5203556    0.6960521  0.066666667    1.2944672        1e-08 1.7401302e-09    5.7466963    2.4938206    30.403515 0.00015695609  -0.19250758 -0.00074433134   0.23990257   0.23903455    3.4757752 
  750000    4.1321204    1.2483047    2.8838157  -0.21584957   0.83229187   0.98199504   0.73914046   -1.2465374            1    1.5787005    2.2054541    2.1773583   0.35328902 -0.00032344408  0.010168735 -0.017145025    1.4227048    1.4495414   0.69602169  0.066666667    1.3026746        1e-08 1.7400542e-09    5.7469474    2.4950437    30.403515 0.0042713431  -0.19096756  0.012450073   0.19926312  0.014804081    3.7985471 
  751000    4.1709976    1.2556848    2.9153128  -0.21419001   0.83721249   0.99914501   0.73644056   -1.2465374            1    1.5343182    2.1769613    2.1503926   0.27560059 0.0024422556 -0.070703591  0.015528215    1.3788923    1.4029034   0.69708238  0.066666667    1.2952192        1e-08 1.742706e-09    5.7382027    2.5017025    30.403515  0.027030817  -0.19054169 -0.00082305198    0.1916255    1.4760716    2.6284076 
  752000    4.2049559    1.3003102    2.9046457  -0.21490719   0.86696591    1.0363035   0.76158427   -1.2465374            1    1.6536124    2.2666469    2.2557764   0.43841404 -0.025720976 -0.058541661 0.00066082306      1.49288    1.5173104   0.68869991  0.066666667    1.2948905        1e-08 1.7217498e-09    5.8080449    2.4796905    30.403515 0.0013608537  -0.18099977 -0.0021192867   0.18829835   0.59409097    4.1378894 
  753000    4.2057148    1.2822455    2.9234693  -0.22021192   0.85492152    1.0042575   0.76200285   -1.2465374            1    1.5492362    2.1637258    2.1759415   0.30804124 -0.0069324629 -0.050122999  0.065547994    1.3884154     1.417149   0.70233835  0.066666667    1.2825746        1e-08 1.7558459e-09    5.6952607    2.5090959    30.403515 -0.0064694158  -0.17540915 -0.020075056    0.2127717  -0.53747312    2.4096925 
  754000    4.2159917    1.3022069    2.9137848  -0.21552813   0.86823054    1.0245755   0.77094617   -1.2465374            1    1.5129905    2.1518883    2.1342472   0.25283598 -0.018466181   -0.0335965  0.032103353    1.3502822     1.378231   0.70149414  0.066666667     1.282429        1e-08 1.7537354e-09    5.7021146     2.494547    30.403515 -0.015582644  -0.18844843  0.014856593   0.20707056   -1.3796866 -0.098558509 
  755000    4.1675364    1.2612463    2.9062902  -0.21178001   0.84092053     1.001328   0.74109968   -1.2465374            1    1.5689017    2.2018106    2.1904094   0.31448496 0.0025124688  0.018811322 0.0012257984    1.4124924    1.4371998   0.69884457  0.066666667    1.2808043        1e-08 1.7471114e-09    5.7237334    2.4916719    30.403515 -0.002428083  -0.20209168 0.0097240951    0.2076558   -2.3839015   -0.3009518 
  756000    4.1545518    1.2699697    2.8845822  -0.21296025   0.84673677   0.99919658   0.75186991   -1.2465374            1    1.5753905    2.1969411    2.1789139   0.35031648 0.0010362628  0.075723157 -0.029163921    1.4167082     1.443969   0.69930061  0.066666667    1.2891746        1e-08 1.7482515e-09    5.7200007    2.4893803    30.403515 0.0025186714  -0.21692583 0.0024403179   0.20232011   -2.2413608    2.4107681 
  757000    4.1690185    1.2635791    2.9054393  -0.20737008   0.84247595   0.99302123   0.74880149   -1.2465374            1    1.7184347    2.2922285    2.3041906   0.55888502 -0.0037864007  0.063507574  0.013804151       1.5604    1.5878254   0.69305793  0.066666667    1.2816602        1e-08 1.7326448e-09    5.7715233    2.4781498    30.403515 -0.001979833  -0.19797642 -0.00039175165   0.20053784  -0.30096176    3.2224653 
  758000    4.1976225     1.290931    2.9066915  -0.21217951   0.86071246    1.0041064    0.7714979   -1.2465374            1    1.5346739    2.1720339    2.1545538   0.27743388  0.018652564  0.032850683 -0.045293067    1.3718491    1.4026066   0.70038058  0.066666667    1.2818216        1e-08 1.7509515e-09    5.7111806    2.4862135    30.403515 -0.0069265959  -0.21677647 -0.0096568687   0.19487023  -0.16052866   -1.3780881 
  759000    4.1803354    1.2727067    2.9076287  -0.21234327   0.84856161   0.98818723   0.76169338   -1.2465374            1    1.5037394    2.1572913    2.1174239   0.23650301 -0.019448016 -0.014345523 -0.019583768    1.3429839    1.3737659   0.70417237  0.066666667    1.2777429        1e-08 1.7604309e-09    5.6804273    2.5166808    30.403515 0.0030330243  -0.18519949 -0.012176354   0.18732338    1.0269427   -1.1873199 
  760000    4.1722684    1.2712065    2.9010619  -0.21836206   0.84756139   0.99925001   0.75317528   -1.2465374            1    1.6669474    2.2668009    2.2623529    0.4716884 0.0075533979 -0.046873234 -0.038488371    1.5079896    1.5355188   0.70512189  0.066666667    1.2786792        1e-08 1.7628047e-09    5.6727781    2.4775569    30.403515  0.011287761  -0.19176327 0.00083289575   0.17834741   0.74812191    2.6040725 
  761000    4.1889799    1.2756677    2.9133122  -0.21091133   0.85053583   0.99589127   0.76009709   -1.2465374            1    1.5460438    2.1718788    2.1920665   0.27418624 0.0025543843 -0.032469299  0.083108514    1.3856252    1.4150571   0.71449559  0.066666667    1.2754316        1e-08 1.786239e-09    5.5983551    2.4928858    30.403515  0.010557535  -0.23314439 -0.015035337   0.20255824   0.71387596  -0.77921449 
  762000    4.1561079    1.2541831    2.9019248  -0.21433781   0.83621124    1.0106756   0.72762926   -1.2465374            1    1.6638954    2.2584797    2.2576057   0.47560092 -0.012341385  0.074446186 -0.042447554    1.5103292    1.5309641   0.70573679  0.066666667    1.2807366        1e-08 1.764342e-09    5.6678355    2.4804011    30.403515 -0.0072330827  -0.21915336 -0.014654172   0.20470963   -1.1094451    3.0211012 
  763000    4.1429629     1.256057     2.886906  -0.21459358   0.83746063    1.0116006     0.729081   -1.2465374            1    1.5361657    2.1777769    2.1750004   0.25571968 -0.0015873721   0.18297448  0.026198741     1.382293    1.4031127    0.7107801  0.066666667    1.2786907        1e-08 1.7769503e-09    5.6276195    2.5018545    30.403515  0.014584595  -0.20166335 -0.0078718576   0.17181034   -1.7400534  -0.15101435 
  764000    4.1524918    1.2515554    2.9009364  -0.21875679   0.83445927   0.98334899   0.74181518   -1.2465374            1    1.5400637    2.1523991    2.2048191   0.26297275  0.013514622   0.05765142 -0.056768093    1.3835034    1.4107265   0.71483515  0.066666667    1.2726748        1e-08 1.7870879e-09    5.5956957     2.506439    30.403515 0.0061947929  -0.17227585 0.00023486914   0.18640107  -0.51612291   0.37183728 
  765000    4.1816947    1.2786515    2.9030432  -0.21372017   0.85252526    1.0180189   0.74953666   -1.2465374            1    1.6221441    2.2449465    2.2274245   0.39406129  0.021203196  0.024412742 -0.00085847837    1.4639543    1.4882469   0.70887163  0.066666667    1.2668544        1e-08 1.7721791e-09    5.6427706    2.4812185    30.403515 0.0075627387  -0.20840058  0.016203253   0.19225164  -0.78068551    1.2456979 
  766000     4.173772    1.2818931    2.8918789  -0.21731346   0.85468655   0.99906091   0.76485994   -1.2465374            1    1.5726669    2.2122537    2.2121136   0.29363321  0.015556294  -0.10208695 -0.019570809     1.411243    1.4412632   0.70963985  0.066666667     1.273616        1e-08 1.7740996e-09    5.6366621     2.492595    30.403515 0.0062012681  -0.20898794 -0.0080433496   0.15895203  -0.73398095    3.8073984 
  767000    4.1581828    1.2698745    2.8883083  -0.22086448   0.84667329   0.98661284   0.75960909   -1.2465374            1    1.5275892     2.171523    2.1471206   0.26412378   0.02038862  -0.11023487    0.0166186    1.3672735    1.3978227   0.71459953  0.066666667    1.2600101        1e-08 1.7864988e-09    5.5975408    2.4863631    30.403515 0.0019538807  -0.20159637 0.0020139782   0.17893174  -0.51327152    2.6055831 
  768000    4.1675914    1.2742666    2.8933248  -0.21283181   0.84960166   0.99747034    0.7575965   -1.2465374            1    1.6729054    2.2982458    2.2692902   0.45118023 0.0055828867  -0.11879645 0.0053007681    1.5130145    1.5417109   0.70726402  0.066666667    1.2691764        1e-08 1.7681601e-09    5.6555966    2.5005646    30.403515   0.01615152  -0.21806626 -0.007905383   0.20666541 0.0068105508    1.9077195 
  769000     4.183725    1.2829084    2.9008166  -0.21234921    0.8553635   0.99669022   0.76743631   -1.2465374            1     1.564697    2.1912314    2.1887112   0.31414843 -0.0027011211  -0.18190349 -0.031257146    1.4027295    1.4336052   0.71046535  0.066666667    1.2713827        1e-08 1.7761634e-09    5.6301127    2.4903259    30.403515 -0.010405425  -0.18893046  0.013833384   0.21483903    2.1369245   0.86195737 
  770000    4.1585957    1.2672135    2.8913823  -0.21049598   0.84489909   0.98470599   0.75791725   -1.2465374            1    1.5654334    2.1854195    2.2202664   0.29061443 0.0018035564  -0.22068265  0.034537899    1.4054749    1.4359178   0.70700366  0.066666667    1.2727564        1e-08 1.7675092e-09    5.6576793    2.4911798    30.403515 -0.0028521295  -0.16184756 0.0013671062   0.16731608    1.8297458  -0.36157046 
  771000    4.1762149    1.2680109     2.908204  -0.20902792   0.84543076   0.99802967   0.75047699   -1.2465374            1    1.6194176    2.2363937    2.2224139   0.39944514  0.015046697 -0.0078192257 -0.052817881    1.4610293    1.4881495   0.70570815  0.066666667    1.2898248        1e-08 1.7642704e-09    5.6680654     2.478724    30.403515 -0.0095296157   -0.1841601  0.015464979   0.18094241   -1.0237326    1.8118371 
  772000    4.2090114    1.2895235    2.9194879  -0.21291481   0.85977405    1.0298932   0.75390408   -1.2465374            1    1.4865789     2.112668    2.1333717    0.2136971  0.012106308 -0.041844187  0.011796485    1.3274673      1.35112   0.70581864  0.066666667    1.2893665        1e-08 1.7645466e-09    5.6671781    2.4713287    30.403515 0.0027677628  -0.20816114  -0.01325218   0.20968747    1.0432626   -2.1478729 
  773000     4.159586    1.2606749    2.8989111  -0.21255553   0.84053958   0.98214402   0.75243675   -1.2465374            1    1.6532378    2.2473525    2.2554361   0.45692485 -0.017123671   0.02338405  0.061244554    1.4944359    1.5240592   0.70356954  0.066666667    1.2879437        1e-08 1.7589239e-09    5.6852944    2.4699069    30.403515 -0.0049182944  -0.17374545 -0.0019828047    0.2001959  -0.11814401   0.57275384 
  774000    4.1663708    1.2681858     2.898185  -0.21762901   0.84554737    1.0022124   0.74805958   -1.2465374            1    1.5443317    2.1741464    2.1631223   0.29572629  0.015199787   -0.1039702 -0.040116611    1.3864536    1.4125135   0.70798819  0.066666667     1.278233        1e-08 1.7699705e-09    5.6498117    2.5010678    30.403515 0.0052876421  -0.15359207 -0.0029892159   0.18771162   0.43120268    2.2845574 
  775000    4.1640113    1.2645184    2.8994928  -0.21656754   0.84310221    1.0071356     0.741022   -1.2465374            1    1.6774642    2.2749161    2.2632487   0.49422788 -0.0014133647 -0.0084109914  0.059956477    1.5210714    1.5449985   0.71434319  0.066666667    1.2717074        1e-08 1.785858e-09    5.5995494    2.4964387    30.403515 -0.0084877261  -0.23333974 0.0056312864   0.22071467  -0.69273821    3.5564057 
  776000    4.1525027    1.2553809    2.8971219  -0.21691858   0.83700985   0.98460004   0.74517607   -1.2465374            1    1.5561698    2.2190883    2.1696708   0.27975022 -0.0018780018 -0.027412809 -0.0062151514    1.3989002    1.4266681   0.71118782  0.066666667    1.2604198        1e-08 1.7779695e-09    5.6243933    2.4828234    30.403515  0.012332297  -0.22408515 -0.028459046   0.16979649  -0.88996765    4.0527585 
  777000    4.1548373    1.2819641    2.8728732   -0.2233888   0.85473386     1.012305   0.75668297   -1.2465374            1    1.5566544    2.1833316    2.1917286   0.29490313 -0.0094060433  0.023727049  0.016358987    1.3969564    1.4235088   0.70544849  0.066666667    1.2644485        1e-08 1.7636212e-09    5.6701518    2.5024854    30.403515  0.001770583  -0.19517826  0.012117607    0.1762982  -0.84024248    1.3692443 
  778000    4.2275428    1.2903572    2.9371856  -0.21548155   0.86032987    1.0168103   0.76295968   -1.2465374            1    1.5497949    2.1705355    2.1867694   0.29207987 -0.016671126  -0.10483569   0.11227847    1.3887722    1.4160567   0.70273484  0.066666667    1.2680597        1e-08 1.7568371e-09    5.6920474    2.4814922    30.403515 -2.9436968e-05  -0.19725952 -0.0038618187   0.14751454  0.096825719    1.2597229 
  779000    4.1790707     1.278661    2.9004097  -0.22664173   0.85253162   0.99645597   0.76298509   -1.2465374            1    1.5415195    2.1582626    2.1728069   0.29348897 -0.0013267036 -0.080389144 -0.0077634575    1.3804914    1.4104584   0.70919176  0.066666667    1.2618931        1e-08 1.7729794e-09    5.6402235    2.5132454    30.403515  0.004909388  -0.19835017 0.0054906225     0.207628  0.077346896    1.8406658 
  780000    4.1516113    1.2679579    2.8836534  -0.22268677   0.84539544    1.0020333   0.74792459   -1.2465374            1    1.7917515    2.3821057    2.3289646   0.66418415 -0.0062572691  -0.10651577 -0.0085810205    1.6339019    1.6599569   0.70751804  0.066666667    1.2643518        1e-08 1.7687951e-09    5.6535661    2.4796979    30.403515  0.002306147  -0.17594466 -0.011581368   0.20875319   0.55289795    4.1726143 
  781000    4.1816893    1.2677659    2.9139234  -0.21452148   0.84526742   0.99761835   0.75046816   -1.2465374            1    1.4717983    2.1124644    2.1261726   0.17675805 0.0044766193 -0.038886487 -0.0088952036    1.3134119    1.3405844   0.70751706  0.066666667    1.2755627        1e-08 1.7687927e-09    5.6535739    2.5034252    30.403515 0.0079241091  -0.20907319  0.008808938   0.20164362   0.40306672    1.4710715 
  782000    4.1376428    1.2539592    2.8836836  -0.22740495   0.83606198   0.99572122   0.73670657   -1.2465374            1    1.6217105    2.2484029    2.2311891   0.38553942 0.0014446932  0.025381857  0.033762994    1.4662284    1.4907461     0.702126  0.066666667    1.2765175        1e-08 1.755315e-09    5.6969831    2.4945211    30.403515 0.0082678905  -0.22916641 -0.0011587727   0.19622239   0.83446984   0.73928226 
  783000     4.168322    1.2767684    2.8915536  -0.22368542    0.8512697    1.0108229   0.75198301   -1.2465374            1    1.5860638    2.1845532    2.2084805   0.36515751 -0.014556963 0.00017371977  -0.01771541    1.4273576    1.4531131   0.69576649  0.066666667    1.2687998        1e-08 1.7394162e-09    5.7490553    2.4743614    30.403515 0.0058064547  -0.20389651  0.013440947   0.20715124    1.0831431    0.4389461 
  784000    4.1577926    1.2484035    2.9093891  -0.21315237   0.83235776   0.98209281   0.73918649   -1.2465374            1    1.6285541     2.227999    2.2103259   0.44733735  0.028304415 -0.089550869 0.0051542047    1.4725486    1.4993822   0.70389728  0.066666667    1.2684849        1e-08 1.7597432e-09    5.6826473    2.5130712    30.403515 -0.0056297764   -0.1793699  0.011337345   0.20374015    1.3398447    2.1082672 
  785000    4.1456978    1.2554403    2.8902575  -0.21612374   0.83704945    1.0048735   0.73260586   -1.2465374            1    1.6395324    2.2408419    2.2602866   0.41746872 -0.0016050525  -0.13198708  0.015069971    1.4849158    1.5073642   0.69742315  0.066666667    1.2615245        1e-08 1.7435579e-09     5.735399    2.4864925    30.403515 0.0019828698  -0.20234024 0.0032640744   0.18121053    1.8243096  -0.26876359 
  786000    4.1602326    1.2760155    2.8842171  -0.21501881   0.85076773    1.0000356   0.75789078   -1.2465374            1    1.5416698    2.1783242    2.1695034   0.27718192  0.024557117 -0.085727334 0.0045979951    1.3817168    1.4101379   0.70215299  0.066666667    1.2621001        1e-08 1.7553825e-09    5.6967641    2.4951924    30.403515 -0.0080017644  -0.17216951 -0.011387757   0.18723982   0.80321327   0.36912844 
  787000    4.1743137    1.2603449    2.9139688  -0.21121317   0.84031955    1.0189144   0.72916416   -1.2465374            1    1.6341179    2.2397594     2.234575   0.42801912  0.012896391   -0.1378217 -0.00087944323    1.4802276    1.5001029   0.70497964  0.066666667    1.2558666        1e-08 1.7624491e-09    5.6739227     2.491885    30.403515  0.018281888   -0.1844219 0.0087956976   0.19306793    2.0630756   -1.1875483 
  788000    4.1722927    1.2572196    2.9150731  -0.21419716    0.8382358   0.98582762   0.74640121   -1.2465374            1    1.6786272    2.2923958    2.2374904   0.50599527 -0.006665787  -0.11159657   0.01411553    1.5210991     1.548964   0.70037812  0.066666667    1.2653205        1e-08 1.7509453e-09    5.7112007    2.4983576    30.403515 -0.0082758847  -0.20174346 -0.011108889   0.22446519   0.58726247   0.62277627 
  789000    4.1663208    1.2673679    2.8989529  -0.22101054   0.84500207   0.99868337   0.74937367   -1.2465374            1    1.5788551    2.1726605    2.1758111   0.38809366 -0.024147823 -0.092408175 -0.0085748749    1.4206996    1.4475011   0.70086363  0.066666667    1.2573998        1e-08 1.7521591e-09    5.7072444    2.4994244    30.403515 -0.005748946   -0.2138946 0.0024311377   0.19053695  -0.20227628   0.45020629 
  790000    4.1794599    1.2838791    2.8955807  -0.21487377   0.85601073    1.0130662   0.75828142   -1.2465374            1    1.6234291    2.2261477    2.2340551   0.41008465 0.00015311344   -0.0461082  0.033409791    1.4633937    1.4901834   0.69643472  0.066666667    1.2592785        1e-08 1.7410868e-09    5.7435391    2.5025972    30.403515 -0.012023634  -0.18962221 0.0075121383   0.19277551   0.90319115   -1.4326206 
  791000    4.1673979    1.2737859    2.8936119  -0.21359771    0.8492812    1.0005984   0.75512684   -1.2465374            1    1.5699615    2.2056157    2.1691442    0.3351247 -0.0012311255  0.028039735 -0.0074445722    1.4105919    1.4383556   0.70059761  0.066666667    1.2564326        1e-08 1.751494e-09    5.7094114    2.4875181    30.403515 0.0072868946  -0.20007787 -0.017039423   0.19557572   0.23319915    3.2096776 
  792000    4.2067923    1.2988207    2.9079717  -0.21490048    0.8659728     1.024129   0.76755925   -1.2465374            1    1.6350467    2.2507445    2.2508725   0.40352303  0.011696766 -0.0038752374 -0.058406678    1.4730532    1.5003458   0.70275491  0.066666667    1.2583108        1e-08 1.7568873e-09    5.6918848    2.5308549    30.403515 0.0031706077  -0.15494254 0.0024772084   0.18643718   0.27101529   -1.4933053 
  793000    4.1608402    1.2654349    2.8954053   -0.2129265   0.84371327   0.98855594   0.75359291   -1.2465374            1    1.6140299    2.2363797    2.2208271   0.38488294 -0.0092361017  0.063227281  0.038585759     1.454984    1.4840079    0.6937314  0.066666667    1.2672552        1e-08 1.7343285e-09    5.7659204    2.4822671    30.403515 0.00017954742  -0.15209362 -0.0066460932   0.17447679    0.4246336    1.1156923 
  794000     4.182031     1.253155     2.928876  -0.21955982   0.83552579   0.99989257   0.73323652   -1.2465374            1    1.4622653    2.1022446    2.1231615   0.16138973  0.044104009  0.066420241  0.018373382    1.3075156    1.3307522    0.7017967  0.066666667    1.2708251        1e-08 1.7544917e-09    5.6996563    2.4865658    30.403515 -0.010169383  -0.20275487 -1.5405139e-05   0.16417399   0.25747358    0.7755352 
  795000    4.1789252     1.266348    2.9125772  -0.20977732   0.84432205    1.0009016   0.74688736   -1.2465374            1    1.5859325    2.1974336    2.2216033   0.33876065 0.0010921754 -0.043766405 -0.023674507    1.4283018    1.4542868   0.70489147  0.066666667    1.2790678        1e-08 1.7622287e-09    5.6746324    2.4858768    30.403515 -0.010401091  -0.18115279 0.0029961927   0.23071147   0.69554204     0.806802 
  796000    4.1585795    1.2748483    2.8837312  -0.21699884   0.84998954   0.99764952   0.75811451   -1.2465374            1    1.6692306    2.2704056    2.2713742   0.46591211 -0.016114222 -0.024937933 -0.0078402861    1.5092305    1.5380126   0.69959574  0.066666667    1.2729883        1e-08 1.7489893e-09    5.7175877    2.4778297    30.403515 -0.015478986  -0.19018415 0.0015100909   0.17480294 -0.086982908    4.4309709 
  797000     4.185098    1.2969923    2.8881058  -0.21921597   0.86475374    1.0219263     0.766953   -1.2465374            1    1.6376226    2.2663886    2.2509947   0.39548447 -0.0016274848 -0.035931587    0.0624543    1.4757571    1.5032115    0.7065577  0.066666667    1.2735467        1e-08 1.7663943e-09    5.6612503    2.4882256    30.403515 -0.0093301556  -0.17425458 -0.0035000133   0.19416536  -0.28984008    2.9913486 
  798000     4.218377    1.2923288    2.9260482  -0.20909244   0.86164444   0.99599322   0.77806703   -1.2465374            1    1.5887842    2.1970114    2.2093465   0.35999457 -0.00017285211  -0.13245271 -0.0088408862     1.424573     1.457784   0.70360171  0.066666667    1.2880333        1e-08 1.7590043e-09    5.6850345    2.4927537    30.403515 -0.0068940843  -0.21874637 -0.0090111457   0.19845175   0.53275859    1.5878952 
  799000    4.1944877    1.2593308     2.935157  -0.22023371    0.8396434   0.99406287   0.74355404   -1.2465374            1    1.5973787    2.1816575    2.2089913   0.40148729 0.00097789515 -0.053269924 -0.0029093395    1.4404515    1.4666324   0.70884112  0.066666667    1.2931076        1e-08 1.7721028e-09    5.6430135    2.5020828    30.403515 -0.0028946229  -0.20069419  0.022800172   0.18442696  -0.35193764   0.91878624 
  800000    4.1650105    1.2627322    2.9022783  -0.21454186   0.84191127    1.0115296   0.73635031   -1.2465374            1    1.5465704    2.1827122    2.1691049   0.28789422   0.01304866 -0.088682806 -0.0060347622    1.3911636    1.4135268   0.70170634  0.066666667    1.3002396        1e-08 1.7542658e-09    5.7003903    2.4867401    30.403515    0.0185844  -0.19855203 -0.0097940408   0.21172678  -0.14304367   -3.5241637 
  801000    4.1768631    1.2669706    2.9098926  -0.21332811   0.84473713    1.0007622   0.74764802   -1.2465374            1    1.5982965    2.2149097    2.2002119   0.37976804 0.0025038332  -0.11202464   0.03477071    1.4405053    1.4666691   0.69859949  0.066666667    1.2949455        1e-08 1.7464987e-09    5.7257414    2.4942517    30.403515 -0.0034518748  -0.20628643  0.011127697   0.20189793   0.23790153    2.1616967 
  802000    4.1941912    1.2716237    2.9225675  -0.21082569   0.84783957     1.001055   0.75250201   -1.2465374            1    1.5399777    2.1410055    2.1862818   0.29264583 -0.023488892 -0.027573466 -0.0098805163     1.381162    1.4083118   0.69856781  0.066666667    1.2876996        1e-08 1.7464195e-09     5.726001    2.4928537    30.403515 0.0033170473  -0.17826305 0.0025495491     0.196273  -0.14482802   0.64106193 
  803000     4.167422    1.2694572    2.8979648  -0.21542187   0.84639507   0.99869326   0.75162887   -1.2465374            1    1.5246015    2.1361118    2.1569703   0.28072227 -0.010447197 -0.024754971  0.027667664    1.3659701    1.3932462   0.70396682  0.066666667    1.2931943        1e-08 1.7599171e-09     5.682086    2.5138404    30.403515 0.0072876505  -0.21994733 0.0018691392   0.21504009    0.6917482    2.0738228 
  804000    4.1226554    1.2414855    2.8811699  -0.21259756   0.82774531   0.96362681   0.74320682   -1.2465374            1    1.6495096     2.251984    2.2701841   0.42636058   0.01175331  -0.03179402 -0.033148191    1.4926556    1.5227664   0.69660183  0.066666667    1.2906105        1e-08 1.7415046e-09    5.7421612    2.4784167    30.403515 0.0022611313  -0.17121577 -0.0065613926   0.17201186   0.42513899    5.8290372 
  805000    4.1798435    1.2679683    2.9118751  -0.20445348    0.8454024   0.99932122   0.74962604   -1.2465374            1    1.4764951    2.1485148    2.1159258   0.16504453 -0.002081178  0.070640702  0.017884088    1.3182864    1.3450571   0.69607738  0.066666667    1.2801512        1e-08 1.7401934e-09    5.7464876    2.4953472    30.403515 -0.0076558638   -0.1844235 0.0070135425    0.1756935    -1.124811   0.59957638 
  806000    4.1794099    1.2559516    2.9234584  -0.21516085   0.83739036   0.99842538   0.73717778   -1.2465374            1    1.6606583    2.2342123    2.2663839   0.48137869 0.0061849473  -0.01388568  0.052460919    1.5050768    1.5293382   0.69631563  0.066666667    1.2758776        1e-08 1.7407891e-09    5.7445214      2.49745    30.403515 -0.0027600804  -0.17371686 -0.012157379   0.16590782    -1.047544    2.8891099 
  807000     4.148348    1.2696557    2.8786923  -0.21494688   0.84652745   0.99759119   0.75253058   -1.2465374            1    1.4879066    2.1420018    2.1464033    0.1753147 -0.013285576  0.044828419 -0.062989468    1.3290849    1.3566962   0.69527058  0.066666667    1.2816623        1e-08 1.7381765e-09    5.7531558    2.4860316    30.403515 0.0006783813  -0.19448276  0.004436389   0.17163133  -0.74598154   0.92706566 
  808000    4.1702272    1.2678796    2.9023476  -0.21468368   0.84534322    1.0103267   0.74267131   -1.2465374            1    1.6708864    2.2988542    2.2560002   0.45780479  0.002523099 -0.016410779 -0.033542257    1.5141455     1.538001   0.70182546  0.066666667    1.2877603        1e-08 1.7545637e-09    5.6994227    2.4765416    30.403515 -0.021509052  -0.20970477 -0.0091817636   0.19831422    -1.239961    4.0092436 
  809000    4.1650352    1.2829916    2.8820436   -0.2154178   0.85541895    1.0190613   0.75358459   -1.2465374            1    1.4592596    2.1205986    2.1247846   0.13239576  0.014591942 -0.085615929 -0.017443877    1.3002155    1.3252254   0.70675021  0.066666667    1.2896885        1e-08 1.7668755e-09    5.6597082    2.4785092    30.403515 0.00087480047  -0.21161161 0.0036222842   0.18971122   0.19723928   -0.8736384 
  810000    4.1462382     1.271958    2.8742802  -0.22397443   0.84806244    1.0058708   0.74986256   -1.2465374            1    1.7544307    2.3324308    2.3346231   0.59623817 -0.0076495813 -0.055433653   0.02228171    1.5961721    1.6221313    0.7112036  0.066666667     1.287535        1e-08 1.778009e-09    5.6242685    2.4995079    30.403515  0.011315484  -0.18541869 0.0088193685   0.17225635   0.29934918    6.0546832 
  811000    4.1273556    1.2431452    2.8842103  -0.21543904    0.8288519   0.99614662   0.72473677   -1.2465374            1    1.5785634     2.195816    2.2159869   0.32388709  0.018283623 -0.095735613 -0.053042673    1.4256075     1.447543   0.71424104  0.066666667    1.2922468        1e-08 1.7856026e-09    5.6003503    2.5105339    30.403515 -0.0059957065  -0.21115126 -0.018343246   0.20914394   0.91868043    2.2188833 
  812000    4.1618286    1.2705659    2.8912627  -0.21380607   0.84713432    1.0108727    0.7452387   -1.2465374            1    1.4306458    2.1008421    2.0755899   0.11550556 -0.0063665836  -0.10450624 -0.039724866    1.2733631    1.2976886   0.70748984  0.066666667     1.286593        1e-08 1.7687246e-09    5.6537915      2.50325    30.403515 0.0026850392  -0.19544223 -0.013557292   0.16882716   0.87941406   -2.0786435 
  813000    4.1952272    1.2607029    2.9345244   -0.2251959   0.84055822     1.001443   0.74043981   -1.2465374            1    1.6094723    2.1943704    2.2183749   0.41567148 0.0085155603  0.014694076 -0.018494115    1.4532023    1.4777553    0.6997772  0.066666667    1.2760335        1e-08 1.749443e-09     5.716105    2.4725593    30.403515  0.002432693  -0.18579639 0.0023626519   0.20553796    1.1023549    1.7101646 
  814000    4.1858341    1.2709223    2.9149117  -0.19939985   0.84737192   0.99804543    0.7536184   -1.2465374            1    1.5695638    2.2148199    2.2161159   0.27775544 -0.0067975739  0.051843037 -0.037479488    1.4105125    1.4382937   0.70573795  0.066666667    1.2862022        1e-08 1.7643449e-09    5.6678261    2.4859917    30.403515 -0.00099425507  -0.22132956  0.011830108    0.2155816    1.6232213   0.17070418 
  815000    4.1550239    1.2717679     2.883256   -0.2221087   0.84793572    1.0095504   0.74736373   -1.2465374            1    1.6341303    2.2573382    2.2247673   0.42028533  0.013329141   0.11686167 -0.00013182453     1.476399    1.5013469   0.71265917  0.066666667    1.2925798        1e-08 1.7816479e-09    5.6127812     2.488227    30.403515 0.0034626767  -0.19277108 0.0024368558   0.18881138    1.5679802    2.6124586 
  816000    4.1493493    1.2716626    2.8776867  -0.21046412   0.84786552    1.0347057   0.73157287   -1.2465374            1    1.5593225    2.1822325    2.2081075    0.2876275  0.017059202   0.10445741 0.0088887775    1.4049239    1.4232306    0.7110533  0.066666667    1.2872343        1e-08 1.7776333e-09    5.6254573    2.5132615    30.403515  0.015169288  -0.24519046 -0.0067249534   0.17851669    2.9423948    1.2171756 
  817000    4.1589046    1.2654889    2.8934157  -0.21654099   0.84374929    1.0087702   0.74105378   -1.2465374            1    1.5671702     2.211561    2.1753137    0.3146358  0.016288513   0.04153062  0.039138972    1.4107706    1.4344894   0.71032086  0.066666667    1.2780619        1e-08 1.7758021e-09     5.631258    2.5120484    30.403515 -0.0029767359   -0.1961708  0.014806451   0.21937906    2.3559475    1.2619617 
  818000    4.1492335    1.2655833    2.8836502  -0.21829329   0.84381222    1.0005551   0.74627561   -1.2465374            1     1.511875    2.1600305    2.1354425     0.240152 -0.0049526179  0.085289242   0.11345948    1.3543734    1.3802748   0.70942717  0.066666667    1.2789207        1e-08 1.7735679e-09    5.6383518    2.4904692    30.403515   0.01014308   -0.1827378 0.00029781045   0.17246576  -0.82325119  -0.88587355 
  819000    4.1357482    1.2571372     2.878611  -0.22754147   0.83818086   0.99706695   0.73930764   -1.2465374            1    1.5561962    2.1585773    2.1769325   0.33307872 0.0033079908   0.05881315  0.056681818    1.4001652    1.4250548   0.70856247  0.066666667    1.2708189        1e-08 1.7714062e-09    5.6452326     2.472439    30.403515 0.0034804921   -0.1978166  0.012107131   0.19356135  -0.72494372    2.7217911 
  820000    4.1317797    1.2623143    2.8694653  -0.22573644   0.84163266    1.0110285   0.73621033   -1.2465374            1    1.6036676    2.2145873     2.230166   0.36624955 -0.00021546946  0.031556208 -0.052018764    1.4482903    1.4706899   0.70820648  0.066666667    1.2644141        1e-08 1.7705162e-09    5.6480703    2.4801441    30.403515 0.0094117267  -0.17614744 -0.00063412434   0.18517577   -1.5847446    2.8122183 
  821000    4.1621402    1.2765487    2.8855915  -0.21648433   0.85112323    1.0170091   0.74788999   -1.2465374            1    1.5636056    2.1986342    2.1974011   0.29478147 -0.005593098 -0.0082578498 -0.016070212    1.4057633    1.4298412   0.70714456  0.066666667    1.2706606        1e-08 1.7678614e-09    5.6565521    2.4870695    30.403515  0.013308875  -0.19035052 -0.0051006259   0.18553619   -1.4056391  -0.82785923 
  822000    4.1641293    1.2644059    2.8997234  -0.21148167    0.8430272   0.99347389   0.74941429   -1.2465374            1    1.6174096    2.2408204    2.2190198   0.39238858 0.0031927285   0.12599721  -0.03398594    1.4592456    1.4867408   0.70988208  0.066666667    1.2735138        1e-08 1.7747052e-09    5.6347386     2.504698    30.403515  -0.00215715  -0.16084931  0.012045534   0.21395621   -1.4711008 -0.073541882 
  823000    4.1507123    1.2749967    2.8757156  -0.21555047   0.85008845    1.0071037   0.75238317   -1.2465374            1    1.5338483    2.1887155    2.1569749   0.25585451  0.014417163 -0.018131284  0.010861893    1.3750577    1.4013868   0.70368753  0.066666667    1.2802274        1e-08 1.7592188e-09    5.6843412    2.4991461    30.403515 -0.0012821465  -0.22436681 -0.0055905083   0.17369548   0.87493002   0.18881142 
  824000    4.1738806    1.2715136     2.902367  -0.21236427   0.84776616   0.99132584   0.75844607   -1.2465374            1    1.6985124    2.2983486    2.2858119   0.51137667  0.008931826 -0.036893672  0.053260697    1.5384422    1.5681261   0.70755196  0.066666667    1.2783802        1e-08 1.7688799e-09    5.6532951    2.4949876    30.403515 0.0085215976  -0.20893808 0.00059383184   0.20534782   0.61411751     4.388515 
  825000    4.1708062    1.2848515    2.8859547  -0.21775365   0.85665901    1.0194815   0.75533581   -1.2465374            1    1.5646915    2.1970905    2.1867833   0.31020068 -0.025176958  0.017948317 -0.042855743    1.4052778     1.430602   0.70865644  0.066666667    1.2774741        1e-08 1.7716411e-09    5.6444841    2.4958548    30.403515 0.0047322962  -0.21752472 -0.0057738724   0.19789293    1.2002442    2.4968092 
  826000    4.1673355    1.2676082    2.8997273  -0.22962555   0.84516225   0.99858972   0.74969208   -1.2465374            1    1.6281346    2.2375177      2.22321   0.42367601  0.014600287 0.0093021734  0.018344981    1.4699119    1.4967929   0.70708075  0.066666667    1.2711012        1e-08 1.7677019e-09    5.6570625    2.4975981    30.403515 0.0018865247   -0.1989593 0.0056738357    0.1722981    1.0392178    1.8556952 
  827000     4.148808    1.2793669    2.8694411  -0.22152185   0.85300221     1.004026   0.75903138   -1.2465374            1    1.4596416    2.0855708     2.126478   0.16687614 -0.010390458  0.059262695 -0.0023534734    1.2994479    1.3275849   0.70682943  0.066666667    1.2660841        1e-08 1.7670736e-09    5.6590739    2.4836892    30.403515 -0.00073028635  -0.19393789 -0.0036041206   0.22555878  -0.19259649  -0.29342158 
  828000     4.155048    1.2685075    2.8865405   -0.2234049   0.84576187   0.99311191   0.75407927   -1.2465374            1    1.5465526    2.1723832    2.1846213   0.28265328 -0.019720029  0.037609694 -0.051398248     1.387404    1.4159314   0.71146416  0.066666667    1.2617617        1e-08 1.7786604e-09    5.6222088    2.4800394    30.403515 -0.0092223675  -0.19879572 0.0094796661   0.20865818   0.91551929    1.7428542 
  829000    4.1653331    1.2691536    2.8961795  -0.22657055   0.84619264   0.97434789   0.76647238   -1.2465374            1    1.5884048     2.223099    2.2116105   0.33050475 -0.0075821545 -0.00067636347 -0.00036803439    1.4266406    1.4602515   0.71531923  0.066666667    1.2490087        1e-08 1.7882981e-09     5.591909    2.4998889    30.403515 0.0064191877  -0.19675644 -0.0035691366    0.2211752  -0.60977835 -0.036181743 
  830000    4.1933044    1.2825604     2.910744  -0.21619292   0.85513147    1.0099337   0.75880624   -1.2465374            1    1.5808599    2.2170279    2.2045478   0.32100408 0.00036662584 -0.013017384  0.047144294    1.4207137    1.4480262   0.70680147  0.066666667    1.2466546        1e-08 1.7670037e-09    5.6592978    2.4824189    30.403515 -0.0018293809  -0.19192943  0.004155079   0.16981665   -1.7118736   0.82979154 
  831000    4.1502095    1.2562512    2.8939582   -0.2136969   0.83759015   0.98591765   0.74529697   -1.2465374            1    1.7289533    2.2978983    2.3077215   0.58124003 0.0068661356  0.023198717  0.062582887    1.5716582    1.5992783   0.71264396  0.066666667    1.2501216        1e-08 1.7816099e-09     5.612901    2.5035627    30.403515 0.0077161428  -0.21372247 -0.0003853938   0.20713045   -1.2124922    2.0635388 
  832000    4.1916229    1.2895221    2.9021008  -0.22303699   0.85977311    1.0153673   0.76295512   -1.2465374            1     1.629227    2.2427197    2.2364077   0.40855361 -0.012094508 -0.036935425   0.01867332    1.4682052    1.4956786   0.71979106  0.066666667     1.253218        1e-08 1.7994776e-09    5.5571682    2.4962941    30.403515 -0.0047541962  -0.21228251 0.0034579978   0.22405682   0.63787759    1.8428688 
  833000    4.1900645     1.295022    2.8950425  -0.21809405   0.86344009    1.0213294   0.76519242   -1.2465374            1    1.7033738    2.2773771    2.3089564   0.52378774 -0.0083981252  0.010257214 -0.062502724    1.5418798    1.5690412   0.71582878  0.066666667    1.2474902        1e-08 1.789572e-09    5.5879284    2.4924801    30.403515 -0.019185633  -0.20044687  0.012119173   0.23552166   0.15889235    2.6886293 
  834000    4.1169647    1.2439152    2.8730495   -0.2247294   0.82936523    0.9974031   0.72478706   -1.2465374            1    1.6182642    2.2433485    2.2243252   0.38711896 -0.0018853186 -0.040431162  0.047514217    1.4652978    1.4870786   0.71909846  0.066666667    1.2588837        1e-08 1.7977461e-09    5.5625206     2.501078    30.403515  0.015103634  -0.20198327 -0.00065951088   0.20589435    1.8158898    2.4353273 
  835000    4.1430736    1.2472585    2.8958151  -0.21531116   0.83159438   0.98953863   0.73330698   -1.2465374            1    1.5181974    2.1667365    2.1676407   0.22021502 -0.0076008031  0.037510154 -0.023400387    1.3634329    1.3880462   0.71025318  0.066666667    1.2598181        1e-08 1.775633e-09    5.6317946    2.4807131    30.403515  -0.00502227   -0.1851227 -0.00049469187   0.18098121   0.40538816   -1.0584365 
  836000    4.1681037    1.2813956    2.8867081   -0.2163317   0.85435488    1.0170852    0.7530887   -1.2465374            1    1.6501336    2.2532321    2.2832242   0.41394463 -0.0071962817 -0.041194971 -0.010347755    1.4911941    1.5163593   0.71169954  0.066666667    1.2505685        1e-08 1.7792489e-09    5.6203492    2.4925921    30.403515 -0.017109447  -0.19154744  0.012644222   0.16871106   0.77471041   0.31906741 
  837000     4.159719    1.2582834    2.9014356  -0.22464895    0.8389451   0.98946853   0.74528365   -1.2465374            1    1.6202823    2.2167516    2.2383785   0.40571674 -0.018285413   0.01645552  0.093919717    1.4629901    1.4901403   0.70800099  0.066666667    1.2569699        1e-08 1.7700025e-09    5.6497096    2.4845164    30.403515  0.001835166   -0.1847416  0.010720126   0.18400975    1.7038822   0.26039914 
  838000    4.1195571    1.2442624    2.8752947  -0.22025344   0.82959676   0.98134131   0.73517268   -1.2465374            1    1.6175172    2.2255155     2.205249   0.42178707 -0.006036935 -0.050781836  0.046583296    1.4623589    1.4884441    0.7090027  0.066666667    1.2598305        1e-08 1.7725067e-09    5.6417275     2.470698    30.403515 -0.009053571   -0.2406799  0.023865017   0.19131786   0.56310248   0.95538684 
  839000    4.1487857    1.2446554    2.9041303  -0.22321244   0.82985875   0.98291717   0.73461591   -1.2465374            1    1.6049094    2.2247033    2.2135832   0.37644167 -0.0075188775 -0.075606674  0.055790809    1.4498686     1.475629   0.71065239  0.066666667    1.2693265        1e-08 1.776631e-09    5.6286309    2.4816066    30.403515  0.001637147  -0.21426781  0.016032345   0.18042474    2.4830482    3.9604941 
  840000    4.1474793    1.2551884    2.8922909  -0.22114122   0.83688152   0.98743051   0.74320378   -1.2465374            1    1.6619831    2.2659884    2.2612983   0.45866281 0.0048535414  -0.09941764 -0.028231931    1.5051299    1.5321092    0.7099766  0.066666667    1.2733539        1e-08 1.7749415e-09    5.6339885    2.4725927    30.403515  0.022333654  -0.18857313 0.0054327649   0.16777617    2.7234154   0.59820285 
  841000    4.1753664    1.2878696    2.8874968  -0.22440737   0.85867133    1.0120865   0.76321116   -1.2465374            1    1.4789083    2.1192912    2.1441854   0.17324846  0.034769533 -0.093125769  -0.03601365    1.3178325    1.3457915   0.71465855  0.066666667      1.27052        1e-08 1.7866464e-09    5.5970785    2.5047488    30.403515 -0.0027555553  -0.17284724 -0.0020766463   0.18661037    1.7322982    2.1630701 
  842000    4.1800472     1.283582    2.8964652  -0.22200272   0.85581262     1.012389   0.75838189   -1.2465374            1    1.6173372     2.227768    2.2245955   0.39964802  0.014806536  0.056395399  0.021573137    1.4572806    1.4841805   0.71031525  0.066666667     1.273365        1e-08 1.7757881e-09    5.6313024    2.4941018    30.403515 -0.015104264  -0.17858137 -0.009643277   0.19847916   0.54930034    1.1597359 
  843000    4.1883988     1.298388    2.8900108  -0.21837416   0.86568431    1.0243958   0.76692466   -1.2465374            1    1.5585347    2.1846619     2.184857   0.30608526  0.021434278 0.0085815382 -0.027706329    1.3966751    1.4237988   0.70485876  0.066666667    1.2735762        1e-08 1.7621469e-09    5.6748958    2.4835371    30.403515 -0.007232047  -0.17785378  0.017399514   0.17695304   0.40983194     3.749929 
  844000    4.1510555    1.2635436    2.8875119  -0.21658398   0.84245227    1.0143663   0.73546072   -1.2465374            1    1.5269205    2.1550483    2.1578102   0.26790287 0.0064872148 -0.062800142  -0.04440603    1.3717014    1.3935037   0.70612069  0.066666667    1.2762505        1e-08 1.7653017e-09     5.664754    2.4865641    30.403515 -0.0015163212  -0.19493298 -0.00054665123   0.18937956   0.53527458    3.1149193 
  845000    4.1715313    1.2635336    2.9079977  -0.22572717   0.84244559   0.99302761   0.74874823   -1.2465374            1    1.6850563    2.2900102    2.2742992   0.49085951   0.01085381  0.023592766  0.015712253    1.5270329    1.5544462   0.71310165  0.066666667    1.2723204        1e-08 1.7827541e-09    5.6092984    2.5062609    30.403515 -0.001828661  -0.20167329 -0.0019831672   0.18173775  -0.64924436    2.8604283 
  846000    4.1670568    1.2657806    2.9012762  -0.21750532   0.84394375   0.98461645   0.75642217   -1.2465374            1    1.6386256    2.2369375    2.2596992   0.41924013 0.0054983692 -0.044772097 0.0059413465    1.4789826    1.5091218   0.70936321  0.066666667     1.269861        1e-08 1.773408e-09    5.6388602    2.4777015    30.403515 0.0019546998  -0.17856136 -0.00045880117   0.22664557   -1.1569693    1.3399459 
  847000    4.1770208    1.2828284    2.8941924  -0.22233428   0.85531015    1.0110041   0.75842924   -1.2465374            1    1.6108886    2.2317251    2.2218771   0.37906369  0.011599866  -0.10881796 0.00025550892     1.450822    1.4779141   0.70942236  0.066666667    1.2673569        1e-08 1.7735559e-09    5.6383901    2.4781757    30.403515 0.0007502681  -0.15564691  0.010971315   0.25190323    1.3163249   0.58576082 
  848000    4.1496692    1.2807309    2.8689383  -0.22649617   0.85391168     1.023493   0.74837589   -1.2465374            1    1.6786008    2.2708919    2.2838573   0.48105322 -0.0048446567 -0.040736169 0.0064582535     1.520656    1.5439837    0.7167195  0.066666667    1.2616946        1e-08 1.7917988e-09    5.5809839    2.4880068    30.403515 -6.0703143e-05  -0.19096888 -0.0025587564   0.21890099   0.33434227  -0.23447031 
  849000    4.1660319    1.2772609    2.8887711  -0.23348373   0.85159808   0.99590213   0.76181476   -1.2465374            1    1.6842881    2.2797921    2.2750653   0.49800691 -0.015190678 -0.048465039  0.065426827     1.523507    1.5532999   0.72100136  0.066666667    1.2585299        1e-08 1.8025034e-09    5.5478398    2.5172634    30.403515 -0.0072611279  -0.21380521 -0.0096118992   0.18494712    2.0584142    2.9815871 
  850000    4.1304578    1.2571346    2.8733232  -0.21988116   0.83817913   0.97906543   0.75052344   -1.2465374            1    1.6283229    2.2242437    2.2506506   0.41007438 -0.0033157836  0.043351927 -0.023866661    1.4699248    1.4995492   0.71391637  0.066666667    1.2593198        1e-08 1.7847909e-09    5.6028971    2.4836353    30.403515 0.0081335257  -0.20159844 0.0093550063   0.18118349   0.36260184  -0.09486836 
  851000    4.1616891    1.2840246    2.8776646  -0.21639121   0.85610768    1.0100476   0.76032004   -1.2465374            1    1.6694569     2.266645    2.2617874   0.47993829 -0.001688225 -0.092823344   0.02346677    1.5089912    1.5366082   0.70952858  0.066666667    1.2657583        1e-08 1.7738214e-09     5.637546    2.4821094    30.403515 -0.0020116719  -0.21570436 0.0051003506    0.2015612   0.91100589   0.58276702 
  852000     4.192965    1.2692705    2.9236945  -0.22183435    0.8462706    1.0023089   0.74917354   -1.2465374            1    1.5832532    2.1901156    2.1930211   0.36662287   -0.0167157 -0.066772599 0.0081544757      1.42514    1.4514223   0.70186474  0.066666667     1.267857        1e-08 1.7546618e-09    5.6991038    2.4794252    30.403515 -0.0053035759    -0.171113 0.0039742078   0.18783114     1.130731     3.968701 
  853000     4.168051    1.2670576    2.9009934  -0.21717161   0.84479516   0.98426994   0.75802028   -1.2465374            1    1.6661688    2.2710805     2.265338   0.46208803 -0.010384419 -0.031076912 -0.019876492    1.5061885    1.5367106   0.70219022  0.066666667    1.2766505        1e-08 1.7554755e-09    5.6964621    2.5046165    30.403515 -0.0091349418  -0.19849916 -0.0027987267   0.17834552  -0.57905279  -0.32929097 
  854000    4.1870146    1.2720113    2.9150033   -0.2075125   0.84809796   0.98344238    0.7638977   -1.2465374            1    1.5249269    2.1536679    2.1498384   0.27127448 -0.0070244937  0.024885302 -0.031976188    1.3637062    1.3955775   0.69296743  0.066666667    1.2637651        1e-08 1.7324186e-09    5.7722771     2.472919    30.403515 -0.0081669213  -0.17039457 0.0061348578   0.20146767   -1.6599147   0.81192873 
  855000    4.2022228    1.2888726    2.9133502  -0.21118428   0.85934006    1.0139828   0.76311499   -1.2465374            1    1.5575736    2.1567387    2.2035017   0.31248029 -0.0026203165   0.08307563 0.0062006079     1.396518    1.4242073   0.70107688  0.066666667    1.2664204        1e-08 1.7526922e-09    5.7055083    2.4893975    30.403515 0.0061274121  -0.19094035 -0.0043926709    0.1776636  -0.35457393  0.057035471 
  856000    4.1645783    1.2728439    2.8917344  -0.21970514   0.84865312    1.0025926   0.75286443   -1.2465374            1    1.6516549    2.2628907    2.2488366   0.44323743 0.0020189103   0.12352886  0.037105359    1.4927628    1.5197867   0.71126877  0.066666667    1.2706287        1e-08 1.7781719e-09    5.6237532    2.4879463    30.403515 -0.0012446611  -0.19616688   0.01336513   0.22934447  -0.51199869   0.22913141 
  857000    4.1718897    1.2799994    2.8918903  -0.21311931   0.85342393    0.9955677   0.76498722   -1.2465374            1    1.6422565    2.2689158    2.2479973   0.40985637  0.013304087  0.051695481 -0.045551955    1.4808058    1.5113123   0.70848047  0.066666667    1.2660966        1e-08 1.7712012e-09    5.6458861    2.4747417    30.403515 -0.005233135  -0.20136622 -0.013022629   0.21608462  0.016348772    2.1071717 
  858000    4.1610833     1.274127    2.8869563  -0.21084083   0.84950858   0.97496142   0.77147304   -1.2465374            1    1.5220821    2.1493259    2.1691986   0.24772172 -0.0004553637  0.044937679 -0.016006859    1.3592626    1.3938481   0.70488807  0.066666667    1.2598322        1e-08 1.7622202e-09    5.6746598    2.4912677    30.403515 -0.00061112999  -0.22683967 -0.0065988026   0.19546963   0.52550462   0.60380824 
  859000    4.1962168    1.2716878    2.9245291  -0.21596176   0.84788227     1.002611   0.75160158   -1.2465374            1    1.5834323    2.2009049    2.1984936   0.35089836 -0.019281553 0.0056623928 -0.0075497524    1.4248067    1.4515617   0.70089512  0.066666667    1.2696751        1e-08 1.7522378e-09     5.706988    2.4921604    30.403515 -0.020408835  -0.20968587 0.0019533118    0.1826862   -0.5559839  -0.86252687 
  860000    4.1587495    1.2620073    2.8967421  -0.22385066   0.84142796    1.0020089   0.74149909   -1.2465374            1    1.5919531    2.2186955    2.1979542   0.35920954   0.00475671  -0.15774942  0.039500835    1.4354596    1.4601617   0.70373542  0.066666667    1.2667359        1e-08 1.7593385e-09    5.6839544    2.4950851    30.403515  0.011360114  -0.18871921  -0.01586157   0.18781414  -0.66306785    4.1269229 
  861000    4.1371256    1.2496471    2.8874785  -0.21743116   0.83318692   0.96583264   0.75066593   -1.2465374            1    1.6118991    2.2394455      2.21895   0.37730187 -0.0072313572 -0.090287709 0.0026342223     1.453471    1.4848659   0.70493049  0.066666667    1.2660204        1e-08 1.7623262e-09    5.6743184     2.500001    30.403515  -0.01932141  -0.20504767   0.01666048   0.18701755  -0.21523382    2.1478275 
  862000    4.1855734    1.2648364     2.920737   -0.2076933   0.84331423    1.0169141   0.73527223   -1.2465374            1    1.4742958    2.1107706    2.1184812   0.19363552 -0.016752277 -0.086984957  0.014753914    1.3191165    1.3405439   0.70318935  0.066666667    1.2630606        1e-08 1.7579734e-09    5.6883683    2.4864079    30.403515 0.0025203306  -0.18249832 -0.011451212   0.20364616    0.5874339  -0.33658021 
  863000    4.1604058    1.2569727    2.9034331  -0.20968766   0.83807118   0.97796364   0.75103483   -1.2465374            1    1.5491914    2.1611691    2.1642226   0.32218249 -0.0020219854  0.013017451 -0.00017018063    1.3906854    1.4205626   0.69837511  0.066666667    1.2601913        1e-08 1.7459378e-09     5.727581    2.5034962    30.403515 -0.00072429686  -0.16770989 -0.0075521743   0.19599318     1.887189   -1.9060073 
  864000    4.1874108    1.2843928    2.9030179  -0.21653766   0.85635323    1.0051177   0.76379101   -1.2465374            1    1.6326612    2.2500283    2.2092936   0.43866181  0.036000167 -0.047329242  0.024384005     1.471463    1.5004609   0.70122322  0.066666667    1.2633985        1e-08 1.7530581e-09    5.7043177    2.5015595    30.403515 0.00021928267  -0.20841632 0.00025499946   0.20505138    2.8487224   0.27045127 
  865000    4.1862671    1.2796256    2.9066415  -0.21999129   0.85317474    0.9975069   0.76337418   -1.2465374            1    1.5783751    2.1828206    2.2095541   0.34275041 -0.00080416074 -0.026970079 0.0023163201    1.4172648    1.4471758   0.69554788  0.066666667    1.2681223        1e-08 1.7388697e-09    5.7508622    2.4785305    30.403515 0.0051377378  -0.18209272 -0.017666422   0.17776407    1.4319643   0.63869788 
  866000    4.1378984    1.2479015    2.8899969  -0.21249436   0.83202308   0.99748055   0.72905348   -1.2465374            1     1.602107    2.2220241    2.2160178   0.36827903 0.0036819411 -0.093577934 -0.061693385    1.4482401    1.4709112   0.70467773  0.066666667    1.2641844        1e-08 1.7616943e-09    5.6763536    2.4801626    30.403515  0.017691987  -0.18496373 -0.009123533   0.18923359    2.4549399   0.06200522 
  867000    4.1693089    1.2641046    2.9052043  -0.21635739   0.84282632   0.99808809   0.74621258   -1.2465374            1    1.5420126    2.1719097    2.1734238   0.28070427 -0.0063045302 -0.074337931 -0.030479008    1.3845243    1.4107369   0.70135807  0.066666667    1.2612726        1e-08 1.7533952e-09    5.7032209    2.4919614    30.403515 -0.015182355  -0.17323387 -0.0080520561     0.195194   0.87090233     1.832802 
  868000    4.1570136    1.2592704    2.8977432   -0.2175523   0.83960316   0.99629649   0.74209673   -1.2465374            1    1.6090762    2.2110786    2.2311189   0.38503101 -0.017592911 0.0011843774  0.015945184    1.4524566    1.4780361    0.7013033  0.066666667     1.263466        1e-08 1.7532582e-09    5.7036663    2.4894618    30.403515 -0.020782893  -0.20135409 0.0014395467   0.14986381   0.44386049    1.1309467 
  869000    4.1459126     1.260625    2.8852876  -0.21352053   0.84050629    1.0009841   0.74064149   -1.2465374            1    1.6862694    2.2806089    2.2648766   0.51332259 0.0011599281   0.05075434 -0.015908905    1.5299569    1.5546127   0.70768668  0.066666667    1.2627496        1e-08 1.7692167e-09    5.6522189    2.4965439    30.403515 0.00048969279  -0.22431649 0.0021105601   0.19092802    0.3734139    2.9573991 
  870000    4.1623695      1.26041    2.9019595  -0.21338835   0.84036298   0.99268833   0.74557882   -1.2465374            1    1.6960674    2.2923475    2.2452015   0.55065306 0.0037303267   0.14829874 -0.0040714271    1.5387128    1.5655019   0.70023474  0.066666667    1.2513541        1e-08 1.7505868e-09    5.7123701    2.4782245    30.403515 0.0066524861  -0.19852196 -0.013413744   0.19967302    -1.557926     3.191851 
  871000    4.1164737    1.2450031    2.8714706  -0.21864971   0.83009062   0.97694494   0.73871424   -1.2465374            1    1.4830629    2.1456257    2.1294945   0.17406848 -0.019898107  0.050349566 0.0067178202    1.3271571    1.3545681   0.70347491  0.066666667    1.2576407        1e-08 1.7586873e-09    5.6860592    2.4949543    30.403515 0.0039762512  -0.20241035  0.016012812    0.1829123  -0.62692665   0.31548876 
  872000    4.1534334    1.2573443    2.8960891  -0.21942348   0.83831895   0.99345745   0.74178126   -1.2465374            1    1.6013878    2.2034264    2.2008545   0.39988242 -0.00074142482   0.15234897 0.0096276617    1.4448347    1.4707211   0.69903116  0.066666667    1.2653119        1e-08 1.7475779e-09    5.7222056    2.4743916    30.403515 -0.0037455026  -0.18972435 -0.0033676789   0.22215977   -2.5886726     5.119207 
  873000    4.1571548    1.2853598     2.871795   -0.2247704   0.85699793    1.0076201   0.76327807   -1.2465374            1    1.5315476    2.1797229    2.1394801   0.27543998 -0.014195151   0.14280367 -0.043633149    1.3704577    1.3990182    0.7041982  0.066666667     1.262298        1e-08 1.7604955e-09     5.680219    2.4829352    30.403515 -0.019333106  -0.21665384 0.0057822673   0.21060139   -2.5955452    3.3098349 
  874000    4.1366632    1.2466777    2.8899855  -0.22071858    0.8312071   0.99714841   0.72793584   -1.2465374            1    1.6007333    2.2057222    2.2053812   0.39109659  0.010385633   0.14042792  0.035553395    1.4471024    1.4695812   0.71333599  0.066666667    1.2651309        1e-08  1.78334e-09    5.6074557    2.5140926    30.403515 -0.0013010718  -0.19818302   -0.0124546   0.23939323  -0.82995889    2.8929553 
  875000    4.1733209    1.2698151    2.9035058  -0.20746451   0.84663373    1.0024423   0.74967986   -1.2465374            1    1.5395769    2.1850695    2.1633316    0.2703297 -0.0012129853  0.074090209 -0.025188216    1.3813569    1.4077285   0.70732788  0.066666667    1.2552776        1e-08 1.7683197e-09     5.655086    2.4851742    30.403515 -0.012436545   -0.2274814 0.0024759161   0.18782406   0.44537313     2.675214 
  876000     4.143589    1.2424566    2.9011325  -0.21722538   0.82839274   0.96529617   0.74321749   -1.2465374            1    1.5086112    2.1635353    2.1422616   0.22003655  0.026906592   0.06008137 -0.030074877     1.351755    1.3816485   0.69820735  0.066666667    1.2627978        1e-08 1.7455184e-09    5.7289571    2.4905463    30.403515 0.0053777963  -0.17125799 -0.012689379   0.17134052    1.3281381    2.7843828 
  877000    4.1641601    1.2741781    2.8899821  -0.22142357   0.84954266    1.0107411   0.74923035   -1.2465374            1    1.5489394     2.189366     2.168851   0.28860128   0.02383165  0.033322903 -0.048310012    1.3908142    1.4159995   0.70930892  0.066666667    1.2704749        1e-08 1.7732723e-09    5.6392918    2.4879148    30.403515 -0.0051878871   -0.2052786 9.0321925e-05   0.21073249    1.6296442    2.3716522 
  878000    4.1522304     1.260128    2.8921023  -0.21626104   0.84017495    1.0035759   0.73848837   -1.2465374            1    1.6358995    2.2329209    2.2471956   0.42758187  -0.01315317  0.019629336 0.0031090876    1.4800414    1.5039019   0.70410931  0.066666667    1.2707593        1e-08 1.7602733e-09    5.6809361    2.4840477    30.403515 -7.7306222e-05  -0.16154583 -0.0028512967    0.2193602    1.0268319    3.6517838 
  879000    4.1803842    1.2799035    2.9004807  -0.22210949   0.85336001   0.99410303   0.76579625   -1.2465374            1    1.5212599    2.1596348     2.136605   0.26753982 0.0044884695 -0.014846952 -0.072188882    1.3596385    1.3905083   0.70089504  0.066666667    1.2726855        1e-08 1.7522376e-09    5.7069886    2.4788771    30.403515 -0.0069593616  -0.18675448 -0.0012547468   0.16347619    2.8524899  -0.68306278 
  880000    4.1570762    1.2559309    2.9011453  -0.22030687   0.83737657     1.004476   0.73338465   -1.2465374            1    1.6392161    2.2393594    2.2704556    0.4078333 0.0023861407   0.08465644  0.025231116    1.4844351    1.5071002   0.71360496  0.066666667    1.2679518        1e-08 1.7840124e-09    5.6053422    2.4957669    30.403515 0.0035284612  -0.18374204 0.0040213932   0.16174509   0.43835016    0.7406096 
  881000    4.1527957    1.2566282    2.8961674  -0.21760851   0.83784152    1.0016665   0.73589031   -1.2465374            1    1.6069455    2.2218185    2.2235261   0.37549192 0.0036442027 0.0028939489 -0.0086914484    1.4516357    1.4751991   0.71204593  0.066666667    1.2759644        1e-08 1.7801148e-09    5.6176151    2.4954142    30.403515 -0.0028872863  -0.17809232 -0.001570825   0.19829607    1.0306849    3.9550774 
  882000    4.1930914    1.2711662    2.9219252   -0.2062795   0.84753452    1.0090767   0.74700763   -1.2465374            1    1.6043354    2.2298583     2.208799   0.37434897 -0.0055066587  0.073932726 -0.036273683    1.4466793    1.4716144   0.70028296  0.066666667    1.2671475        1e-08 1.7507074e-09    5.7119768    2.4748489    30.403515 -0.0051534433  -0.16808982  0.011155963   0.19647628    1.6796871    3.2122359 
  883000    4.1689315    1.2721846     2.896747  -0.21297527    0.8482135    1.0016312   0.75274991   -1.2465374            1    1.5646089    2.1835172    2.2111002   0.29920925 -0.029081901 -0.0070419843  0.017758519    1.4057409    1.4328671    0.7081461  0.066666667    1.2647108        1e-08 1.7703652e-09    5.6485519    2.4891831    30.403515 0.0087919093  -0.19839619 -0.0087827274   0.17410048   0.39462689  -0.35293816 
  884000     4.175423    1.2715986    2.9038244  -0.20744869   0.84782284   0.99489187   0.75631572   -1.2465374            1    1.5762441     2.209814     2.198485   0.32043323 0.0070933448 -0.047287125 0.00071221075    1.4166235    1.4453887   0.70620447  0.066666667    1.2682251        1e-08 1.7655112e-09    5.6640819    2.4983419    30.403515 -0.0027722407  -0.21967171 0.0037846035   0.17141699   0.58428583   0.50355834 
  885000    4.1447304    1.2713362    2.8733942  -0.22890127   0.84764788    0.9975909   0.75434965   -1.2465374            1    1.5268483    2.1583379    2.1675086   0.25469826 0.0053465421 -0.014411286 -0.066966267    1.3676426    1.3956379   0.70331522  0.066666667     1.253141        1e-08 1.758288e-09    5.6873503    2.4866303    30.403515 -0.0028771638   -0.2066664   0.00661682   0.21192274   0.70020194  -0.45198053 
  886000    4.1576349    1.2673395    2.8902955  -0.21549273   0.84498309    1.0040199   0.74601714   -1.2465374            1    1.6670174     2.255734    2.2864829   0.45883542 -0.0017697455   0.04459308 -0.0037949443    1.5095704    1.5349615   0.70188759  0.066666667    1.2509528        1e-08 1.754719e-09    5.6989183     2.491072    30.403515 0.0036559928  -0.18595093 0.0043176934   0.17695685   0.65379584    1.5706931 
  887000    4.1453506    1.2600717     2.885279   -0.2210627   0.84013738   0.99478718   0.74390456   -1.2465374            1    1.5386918    2.1616384    2.1687842   0.28565284  0.010493202 0.0046026477  0.020355433    1.3816907    1.4078503   0.70259523  0.066666667    1.2647828        1e-08 1.7564881e-09    5.6931784    2.4880089    30.403515 -0.0094653989  -0.19398383 0.0063285027   0.17823113    1.2992791   0.99588486 
  888000    4.1577689    1.2498807    2.9078882  -0.20604216   0.83334267   0.98648742   0.73804663   -1.2465374            1    1.6046018    2.2168882    2.2119489   0.38496819 -0.0066101549 -0.022254668  0.038890038    1.4488369    1.4748518   0.70232596  0.066666667    1.2729178        1e-08 1.7558149e-09    5.6953611    2.5059404    30.403515 -0.018728984  -0.20935373 -0.0022342145   0.17749508   0.69214352   -1.2746698 
  889000    4.1756534     1.264707    2.9109464  -0.21907685   0.84322794    1.0034564   0.74351905   -1.2465374            1    1.6415849     2.255395    2.2494519   0.41990789 -0.029142041 -0.0029559203 -0.021837215    1.4846651    1.5096031    0.7096941  0.066666667    1.2605396        1e-08 1.7742352e-09    5.6362312    2.5054414    30.403515  0.011797716  -0.19589835 -0.0030347538   0.19344664   0.83761776    1.5961939 
  890000    4.1572105    1.2594149    2.8977955  -0.22169508   0.83969951   0.99696463   0.74183674   -1.2465374            1     1.645361    2.2312494    2.2731252   0.43170846 -0.007436167  0.048469671 0.0011101828    1.4887963    1.5142331   0.70621589  0.066666667    1.2648265        1e-08 1.7655397e-09    5.6639904    2.4833559    30.403515 -0.003103684  -0.19373776  0.013799683   0.20610328  -0.71935006    2.6937738 
  891000    4.1697236    1.2684909    2.9012327  -0.22166322   0.84575078    1.0129197   0.74171696   -1.2465374            1    1.5433899    2.1622623    2.1803724   0.28753504 -0.0077324489  0.014530484  0.010737082    1.3868505    1.4101634   0.71000894  0.066666667    1.2634972        1e-08 1.7750223e-09    5.6337319    2.5054629    30.403515 -0.010517581  -0.21010785 0.0037866166   0.22600817   0.49650585   -2.5966347 
  892000    4.1746746    1.2600328    2.9146419  -0.20481161   0.84011145    1.0183777   0.72916078   -1.2465374            1    1.5820871       2.1999    2.2126236   0.33373761 -0.004925122 -0.048250351  0.022268366    1.4281976    1.4481427   0.71151966  0.066666667    1.2640678        1e-08 1.7787991e-09    5.6217702    2.5018501    30.403515 0.0030809125  -0.20894008 -0.0086992889   0.21345118    1.1156894   -1.3454972 
  893000    4.1790049    1.2743761    2.9046288  -0.22018348   0.84967468    1.0286626   0.73827592   -1.2465374            1    1.6170139    2.2252821    2.2185469   0.40721262 -0.002335229 -0.048986614 -0.067905824    1.4612006    1.4817168   0.71343116  0.066666667    1.2740565        1e-08 1.7835779e-09    5.6067077    2.5119319    30.403515 -0.015827027  -0.18664047 -0.0059348042   0.23524961   -1.5520384    1.5238656 
  894000    4.1897051    1.3032845    2.8864206  -0.22052269   0.86894899    1.0169199   0.77688346   -1.2465374            1    1.6095195    2.2404823    2.2171744   0.37090169 0.0052244047 -0.047776096  0.030361692    1.4455581    1.4757668   0.70794318  0.066666667    1.2741084        1e-08 1.7698579e-09     5.650171    2.5031511    30.403515 0.0051908768  -0.22676173 0.0032824392   0.18467583   -1.6034904   -1.4354529 
  895000    4.1761324    1.2720104     2.904122   -0.2158294   0.84809738   0.98690198   0.76174073   -1.2465374            1    1.5636623    2.1783724     2.183636   0.32897842 -0.0044912301   0.12902558 -0.002503016    1.4028967    1.4338578   0.70781988  0.066666667    1.2624552        1e-08 1.7695497e-09    5.6511552    2.4982714    30.403515 -0.0058097033  -0.19282036 0.0040911938   0.19117305   -4.0484387     1.755605 
  896000    4.1293707    1.2344178    2.8949529  -0.22474091   0.82303299   0.96788416   0.73290377   -1.2465374            1    1.6993411    2.2865274    2.3001658   0.51133002 -0.0019042428  0.055853458 -0.021448355    1.5446616     1.572038   0.70792705  0.066666667    1.2694016        1e-08 1.7698176e-09    5.6502997    2.4886789    30.403515 -0.00071862079  -0.17274589 -0.012956598   0.17700874   -2.5084777     1.449718 
  897000    4.1760914    1.2886773    2.8874141  -0.22372116   0.85920981   0.99779308   0.77299302   -1.2465374            1     1.505741    2.1578396      2.13861   0.22077356 -0.022226429  0.040245903 -0.067986261    1.3426007    1.3745041   0.70936768  0.066666667    1.2741782        1e-08 1.7734192e-09    5.6388247    2.4846437    30.403515 0.0076112055  -0.19681808 -0.0037927098   0.16196688    1.0335581    2.2876533 
  898000    4.1673759    1.2643981    2.9029778  -0.21429795   0.84302197   0.98954707     0.751853   -1.2465374            1    1.6236573    2.2404085    2.2185252   0.41203834 0.0042026074    0.1359012 -0.021312011    1.4649786     1.493505   0.70552363  0.066666667    1.2738687        1e-08 1.7638091e-09    5.6695479    2.5056128    30.403515 0.0071357079  -0.19340524  0.011380108   0.16416436   0.88811832    1.1227291 
  899000    4.1521677    1.2483568    2.9038108  -0.20999876   0.83232667   0.99370726   0.73189785   -1.2465374            1    1.5536729    2.1747311    2.1859785   0.30030918  0.014416745   0.15380796  0.096914896    1.3992058    1.4229734   0.70550592  0.066666667    1.2742502        1e-08 1.7637648e-09    5.6696902    2.5026607    30.403515 -0.0035953375  -0.17560156 0.0042627766   0.21649024    1.4294559   -2.5611759 
  900000    4.1956684    1.2864767    2.9091917   -0.2139379   0.85774259    1.0138306   0.76061653   -1.2465374            1    1.7149494    2.3107371    2.3162365   0.51787476  0.018889548  0.079177863  0.044830407    1.5544212    1.5816032   0.70546443  0.066666667    1.2700424        1e-08 1.7636611e-09    5.6700236    2.4999016    30.403515 -0.0048318232  -0.18392049 -0.0069406084   0.22186096  -0.12011326    2.5613798 
  901000    4.1866446    1.2732037    2.9134409   -0.2110295   0.84889302   0.98722447   0.76283138   -1.2465374            1    1.6316028    2.2081468    2.2460767   0.44058473 -0.011661235    0.1158596 -0.029201235    1.4706071    1.5017559   0.70329102  0.066666667    1.2672719        1e-08 1.7582275e-09     5.687546     2.494016    30.403515 -0.0035753608  -0.17639257 -0.0025342117   0.20642495   -1.8385536    3.5173493 
  902000    4.1551465    1.2472809    2.9078656  -0.20847846    0.8316093   0.99894358   0.72746999   -1.2465374            1    1.6156803    2.2047686    2.2377605   0.40451174 -0.0061042944 0.0066542276  0.052114205    1.4621476     1.484292   0.70487436  0.066666667      1.27012        1e-08 1.7621859e-09    5.6747702    2.5091061    30.403515   0.00366048  -0.20611261 0.0058477557   0.18452468    1.3498868   0.48361269 
  903000    4.1981632    1.2936559    2.9045073  -0.21658369   0.86252926     1.009616   0.77101365   -1.2465374            1    1.5028532    2.1452515    2.1578492   0.20545902 0.0027686877 0.0029120893 -0.025545794    1.3401307    1.3700613   0.70253824  0.066666667    1.2738063        1e-08 1.7563456e-09    5.6936403    2.4829446    30.403515 -0.0088208682  -0.23601206   0.01618239   0.19920214   -1.6278798  -0.39793977 
  904000    4.1703317    1.2633192    2.9070124   -0.2112929   0.84230266    1.0092107   0.73843086   -1.2465374            1    1.6785231     2.282231    2.2413338   0.51200459 0.0018328444  0.010488504  0.032887361    1.5226772    1.5457845   0.70508686  0.066666667    1.2732479        1e-08 1.7627172e-09    5.6730599    2.4970853    30.403515 -0.00089058656   -0.2168714 0.0027989276   0.18379164   -2.1050155    2.4485233 
  905000    4.1658879    1.2714272    2.8944607   -0.2186499   0.84770858    1.0134046   0.74459306   -1.2465374            1    1.5751005    2.2009186      2.19128   0.33310289 -0.0083629792 -0.041734878  0.010492068     1.417954    1.4418102    0.7062721  0.066666667    1.2690059        1e-08 1.7656802e-09    5.6635396    2.5026912    30.403515  -0.01128245  -0.19675635  0.012019902   0.21062754   -1.5402206    1.8762006 
  906000    4.1743812    1.2891134    2.8852678  -0.22206039    0.8595006    1.0133677   0.76375892   -1.2465374            1    1.5316529    2.1776714    2.1581867   0.25910058  0.030393822   0.12011006 0.0047583686    1.3704614    1.3983675   0.70703085  0.066666667    1.2650979        1e-08 1.7675771e-09    5.6574617    2.4826079    30.403515 0.0071708359  -0.21411744 -0.011127981    0.1752255   -3.5560357   0.65360553 
  907000    4.1706625    1.2637313    2.9069312  -0.22228099   0.84257738    1.0129188   0.73656594   -1.2465374            1    1.6007415    2.1907435    2.2125666   0.39891439 -0.0024962727   0.14339257  0.014268399    1.4452891    1.4675151   0.70767089  0.066666667    1.2725615        1e-08 1.7691772e-09     5.652345    2.4875297    30.403515 -0.0068231515  -0.19420151 0.0022361638   0.18714553  -0.22934305   0.79852312 
  908000    4.1802566    1.2738576     2.906399  -0.21757722   0.84932899    1.0098651   0.74942938   -1.2465374            1    1.5614932    2.1641315    2.1786177   0.34173041  0.011732848  0.090099185   0.02029018     1.403326    1.4286685   0.69903992  0.066666667    1.2697547        1e-08 1.7475998e-09    5.7221339     2.482173    30.403515 -0.010031395  -0.15819609 -0.007017168   0.18525264   -1.0079021    0.8770874 
  909000      4.15914    1.2815309     2.877609  -0.21434963   0.85444508    1.0001421   0.76379417   -1.2465374            1    1.5918348    2.1950402    2.2387763   0.34168792  0.015094278   0.11384895  0.031632887    1.4306359    1.4602889   0.70818756  0.066666667    1.2730088        1e-08 1.7704689e-09    5.6482212    2.5182276    30.403515 -0.0056627071  -0.19128338 0.0059508753   0.21219403   0.12755066   -2.4091688 
  910000    4.1539555    1.2602659    2.8936896  -0.22088624   0.84026685    1.0013507   0.74002435   -1.2465374            1    1.5638221    2.1925842    2.1853026   0.31357945   -0.0102359   0.13470867  -0.03561919    1.4076398    1.4321172   0.70416968  0.066666667    1.2846605        1e-08 1.7604242e-09     5.680449    2.5024256    30.403515 -0.0016118797  -0.19586132 0.0058024488    0.1699153    2.4761877    1.6386341 
  911000     4.159588    1.2643912    2.8951968  -0.22019911   0.84301738   0.99030374     0.751374   -1.2465374            1    1.7165273    2.2822887    2.3178965   0.54939652 0.0048655558   0.09146577  0.044622786    1.5579497    1.5862754   0.70307257  0.066666667    1.2859433        1e-08 1.7576814e-09    5.6893132     2.494955    30.403515 -0.00065448096  -0.15099839 0.0078675752   0.18784929  -0.37339751    2.2903872 
  912000    4.1448692    1.2665324    2.8783369  -0.21628032   0.84444498    1.0021457   0.74631159   -1.2465374            1    1.5249757    2.1832437    2.1581101   0.23357336 -0.0040082934    0.1226165   0.03216421    1.3674665    1.3931663   0.69733179  0.066666667    1.2812824        1e-08 1.7433295e-09    5.7361503    2.4913518    30.403515 0.0062272019   -0.1857621 0.0055193809   0.20071643   -1.1718961    1.9450167 
  913000    4.1617875    1.2617745     2.900013  -0.21312058   0.84127271    0.9885914   0.74960886   -1.2465374            1    1.6424337    2.2634491     2.245967   0.41788508 0.0036573746   0.16360284 -0.045614374    1.4842286    1.5124071   0.69571427  0.066666667    1.2712292        1e-08 1.7392857e-09    5.7494868    2.4850256    30.403515  0.001999164  -0.19836782 0.0021555742   0.19910389  -0.78551916    3.5720703 
  914000    4.1879658    1.2586758      2.92929   -0.2020423   0.83920669    1.0085565   0.73381263   -1.2465374            1    1.5995784    2.2100319     2.205142   0.38356126  -0.01229039  0.052352519 -0.017589439    1.4447071    1.4669258   0.69271401  0.066666667    1.2739516        1e-08 1.731785e-09    5.7743887    2.4837763    30.403515 0.0059206981  -0.19063241 -0.004938058   0.16591928   -2.2583817    3.2029559 
  915000    4.1604471    1.2609549    2.8994923  -0.20915602   0.84072626    1.0104663   0.73508924   -1.2465374            1    1.5291108    2.1474993    2.1737702   0.26606286 -0.00081339233 -0.055213523 -0.038554435    1.3739701     1.396207   0.69947379  0.066666667    1.2733662        1e-08 1.7486845e-09    5.7185845    2.4921784    30.403515 -0.0016196164  -0.20829753 0.00053459989   0.20197625   0.14400429    2.6843793 
  916000      4.21442    1.2832808    2.9311392  -0.20792216   0.85561177   0.99844797    0.7667439   -1.2465374            1    1.5196489    2.1518485    2.1746934   0.23240489 -0.023669679 -0.0061664712 -0.041887073    1.3578275    1.3883259   0.69156351  0.066666667    1.2737879        1e-08 1.7289088e-09    5.7839952    2.4879435    30.403515 -0.0053742256  -0.18363038 -0.012209308   0.18128679   -2.1806667    3.7897901 
  917000    4.2150551    1.2819844    2.9330707  -0.20966507    0.8547474    1.0105797   0.75778019   -1.2465374            1    1.6678369     2.272153     2.286819   0.44453875 -0.00049564821 -0.064307901 -0.032493519    1.5079073    1.5349182   0.70014237  0.066666667    1.2756276        1e-08 1.7503559e-09    5.7131237    2.5020884    30.403515 0.00053056156  -0.21439957 0.00097888606   0.17952189  -0.84669839    5.1362983 
  918000    4.1661111    1.2670808    2.8990302  -0.20532081   0.84481066   0.99842402   0.74922457   -1.2465374            1    1.5464125    2.1952381    2.1767769   0.26722258 -0.0084851333 -0.0051910962 -0.0096961572    1.3882885    1.4150926   0.69231614  0.066666667    1.2748549        1e-08 1.7307904e-09    5.7777073     2.478282    30.403515 0.0069357485  -0.17417779 0.0078062589   0.16366618   0.32524811     1.306675 
  919000    4.1775919    1.2685299     2.909062  -0.21385277   0.84577682    1.0033585   0.74771785   -1.2465374            1     1.639775    2.2591273    2.2179205   0.44227709 -0.013278172  0.073641948 -0.001989302     1.481969     1.507806   0.69460336  0.066666667    1.2704111        1e-08 1.7365084e-09    5.7586822    2.4706854    30.403515  0.012733728  -0.19023945 -0.012976341   0.20014241   -1.1258429    1.4336499 
  920000    4.1727951    1.2684311    2.9043639  -0.21254635   0.84571094    1.0004779   0.74940607   -1.2465374            1    1.4629022    2.1104428    2.1202925   0.15797122 -0.013378945 -0.034242442  0.037095828    1.3047399    1.3313121   0.69701377  0.066666667    1.2665133        1e-08 1.7425344e-09    5.7387676     2.489018    30.403515 -0.001387221  -0.18782563  0.016427349   0.17751219    1.7167961   -2.3755563 
  921000    4.1485823    1.2362468    2.9123354  -0.21223453   0.82425248   0.99330589   0.71904053   -1.2465374            1    1.7211405    2.3189607    2.2674281   0.57703289 0.0075364656  0.045281104 -0.010874506    1.5693869    1.5904938   0.69589174  0.066666667    1.2626902        1e-08 1.7397294e-09    5.7480205    2.4836698    30.403515 -0.011627643  -0.19007725 0.0016890611     0.198725    1.1376679    3.1961699 
  922000    4.1755311    1.2692136    2.9063175  -0.22108726   0.84623264   0.99978389   0.75068551   -1.2465374            1    1.5130194     2.149726    2.1610902   0.22824186 0.00094063989 -0.069247468 -0.0048878917    1.3545871    1.3815206   0.69403627  0.066666667    1.2780748        1e-08 1.7350907e-09    5.7633875    2.4881594    30.403515 0.0014585554  -0.22087652 0.0032515895   0.17021683   0.88741198    1.7393328 
  923000    4.1706349    1.2674993    2.9031356  -0.21734902   0.84508966    0.9932171   0.75292246   -1.2465374            1    1.5985297    2.1906154     2.215282   0.38969162  0.018540332 -0.088949778 -0.014917929    1.4396253    1.4678946   0.69968945  0.066666667    1.2763685        1e-08 1.7492236e-09    5.7168219     2.495098    30.403515 -0.024516277  -0.21285987 -0.0053811172    0.1937787    1.0207027   -1.0780023 
  924000    4.1597855    1.2732862    2.8864993  -0.21395917   0.84894798   0.99465685   0.75828872   -1.2465374            1    1.4865615    2.1546803     2.107983   0.19702135 -0.013134194 -0.087294596 -0.0028279034    1.3265246    1.3557371   0.70486892  0.066666667    1.2795372        1e-08 1.7621723e-09     5.674814    2.5095456    30.403515 0.0033240115  -0.19404205     0.012756   0.18173603   0.28290078    0.5468695 
  925000    4.1921357    1.2674446    2.9246911   -0.2179537    0.8450532   0.99042384   0.75460405   -1.2465374            1    1.6464656    2.2244667    2.2480137   0.46691652  0.014981232  0.010343925 -0.028194616    1.4872063    1.5161979   0.70258993  0.066666667    1.2770376        1e-08 1.7564748e-09    5.6932214    2.4819446    30.403515 -0.014392464  -0.24046941 0.0080519794   0.17679856 -0.025482291   0.94271937 
  926000    4.1890377    1.2742416    2.9147961  -0.21882262   0.84958499    1.0031865   0.75400709   -1.2465374            1    1.5300522    2.1648512    2.1437519   0.28155338 0.0023067693   0.10960389 -0.0029930015    1.3709188    1.3981058   0.69677177  0.066666667    1.2893115        1e-08 1.7419294e-09    5.7407607    2.4990612    30.403515 -0.0066776138  -0.20301728 0.0037293147   0.19473115 -0.093886337  -0.98517869 
  927000    4.1430764    1.2421611    2.9009153  -0.21188631   0.82819573   0.99030713   0.72731076   -1.2465374            1    1.6149628     2.217225    2.2338021   0.39386117 -0.0099573262   0.21730505  0.017951975    1.4614637    1.4847104   0.69996803  0.066666667    1.2900974        1e-08 1.7499201e-09    5.7145467    2.4923573    30.403515 -0.00026543208  -0.16941208 -0.0011892162   0.21043233   -2.5869871    1.4946851 
  928000    4.1406657    1.2602791    2.8803866   -0.2242526   0.84027567   0.97990586   0.75340316   -1.2465374            1    1.4479495    2.1094968    2.0967583   0.13759347  0.008924211   0.12539446  0.015135033    1.2889437    1.3190653   0.69738328  0.066666667    1.3057241        1e-08 1.7434582e-09    5.7357268     2.493301    30.403515 -0.00044078596  -0.20351008 0.0014177721   0.19333825   -1.6018212    1.3264528 
  929000    4.1591656    1.2553471    2.9038185  -0.21511031   0.83698732   0.99812568   0.73671027   -1.2465374            1    1.6487269    2.2627668    2.2306793   0.45273469  0.002041325   0.10406123  0.039634317    1.4932441    1.5174463   0.69651432  0.066666667    1.2904439        1e-08 1.7412858e-09    5.7428826    2.4901474    30.403515 0.0068965022  -0.20072176 -0.0034828837   0.20398448   -1.1670657   0.80401737 
  930000    4.1624188    1.2723437    2.8900751   -0.2154711   0.84831963    1.0138796   0.74528896   -1.2465374            1    1.5594866     2.184951    2.1745153   0.31899341 -0.0038154143 -0.019640094 -0.0048779585    1.4021932    1.4261338   0.69673094  0.066666667     1.284251        1e-08 1.7418274e-09    5.7410971    2.4930641    30.403515 -0.0044696172  -0.20331619 -0.0010731238   0.19007766   0.97650763  0.082215663 
  931000    4.1862767    1.2999002    2.8863765  -0.21632887   0.86669259     1.024263   0.76864422   -1.2465374            1    1.5633948    2.1641412    2.1992267    0.3268165 -0.023342671 -0.079474393 -0.033385153    1.4011723    1.4286764    0.6931427  0.066666667    1.2842626        1e-08 1.7328567e-09    5.7708175    2.4875956    30.403515 -0.0076588004  -0.17062753 0.0021648659   0.17076863   0.76558969    1.1187381 
  932000    4.1820673    1.2756498    2.9064175  -0.20408414    0.8505239   0.98266467   0.76832059   -1.2465374            1    1.7190427    2.2917012    2.3072674   0.55815954 0.0086554618 -0.066768261 0.0080958585    1.5568885    1.5897956   0.69588699  0.066666667    1.2882049        1e-08 1.7397175e-09    5.7480597    2.4823918    30.403515  0.011443026  -0.17475648   0.01338063   0.21396797  -0.65952603    3.3480574 
  933000    4.1726638    1.2637596    2.9089042  -0.22345121   0.84259626   0.99230144   0.74944538   -1.2465374            1    1.4932757    2.1027397    2.1213484   0.25573902 0.0060540542   0.02768989  0.037156008    1.3351051    1.3627611   0.69860955  0.066666667    1.2939613        1e-08 1.7465239e-09    5.7256589    2.4847057    30.403515 0.0049793709  -0.22568429 -0.0057764532   0.20206651     1.634403  -0.31022039 
  934000    4.1853908     1.289988    2.8954029  -0.21739286   0.86008372     0.991825   0.77813102   -1.2465374            1    1.6713772    2.2648196    2.2605647   0.48874733 0.0062372632  0.075610553  0.031223347    1.5071525    1.5409253   0.70773064  0.066666667    1.2945804        1e-08 1.7693266e-09    5.6518678    2.5089445    30.403515  0.010821727  -0.18112991 -0.0086766279   0.17826987  0.053060681    1.4575156 
  935000    4.1973087    1.2739003    2.9234084  -0.21131554   0.84935743    1.0069618   0.75128495   -1.2465374            1    1.5402833    2.1571604    2.2047641   0.25892528 -0.0060978451  0.013951069  0.019445509    1.3817245    1.4078404   0.70528317  0.066666667    1.2894947        1e-08 1.7632079e-09    5.6714808    2.4937394    30.403515 0.0032162306  -0.18579787 -0.011954763   0.20209904  -0.61456927    1.3614793 
  936000    4.1892776    1.2692289    2.9200487  -0.20835394   0.84624285   0.97579852   0.76564984   -1.2465374            1    1.5858495    2.1968325    2.2164101   0.34430586 -0.014461535 -0.041883971 -0.085532042     1.424259    1.4575055   0.69754197  0.066666667    1.2813571        1e-08 1.7438549e-09     5.734422    2.4867991    30.403515 -0.0021161583  -0.18850757  0.013924614   0.16761668    1.3335942   -0.1392736 
  937000    4.1285323    1.2373924    2.8911399  -0.21812386   0.82501625   0.97934669   0.72897984   -1.2465374            1    1.6287849     2.238127    2.2402964    0.4079314  0.004918857  0.099955426 0.0020661201    1.4749336    1.4999742   0.69931508  0.066666667    1.2774141        1e-08 1.7482877e-09    5.7198824    2.4984128    30.403515 0.0024321364  -0.20707294  0.020312469   0.21181371   -2.6563869   0.55119864 
  938000     4.199795    1.2864467    2.9133483  -0.20820797   0.85772261    1.0349617   0.74741511   -1.2465374            1    1.5734595    2.2023869    2.2024874   0.31550408 0.0044895289  0.021812734  0.015567716    1.4157174    1.4373339   0.70302303  0.066666667    1.2717042        1e-08 1.7575576e-09     5.689714    2.5082839    30.403515 -0.0038038225  -0.16822984 0.0078521071   0.22902223   -2.0525018   -1.2250218 
  939000    4.1813306    1.2606579    2.9206727  -0.22285957   0.84052826   0.99986138   0.74137685   -1.2465374            1      1.67374    2.2349509    2.2761521   0.51011709 0.0022930956  0.087244486  0.022534559    1.5172723    1.5422311   0.70026336  0.066666667    1.2871937        1e-08 1.7506584e-09    5.7121367    2.4694356    30.403515 0.0060555521  -0.19601491 -0.0047900675   0.20526017   -1.1603645   0.24963455 
  940000    4.1622597    1.2652138    2.8970458   -0.2109209   0.84356585   0.99689645   0.74815576   -1.2465374            1    1.5903849    2.1827724    2.2340648   0.35431759 -0.0047202077   0.06233309 -0.033265836    1.4324865    1.4592659   0.70321402  0.066666667      1.29516        1e-08 1.7580351e-09    5.6881687    2.5065721    30.403515 -0.010387003  -0.22262684 -0.0020577049   0.20377128  -0.31641059    2.9981734 
  941000    4.1568761    1.2555816    2.9012945  -0.22089843    0.8371437   0.99459979   0.73916148   -1.2465374            1    1.5507453    2.1861613    2.1482215   0.31785301 -0.022247155 -0.012047875  0.010308582    1.3947451    1.4199283   0.70774937  0.066666667    1.2965839        1e-08 1.7693734e-09    5.6517182     2.482236    30.403515 0.00020614185  -0.20542924 -0.0043997339   0.23842337    1.0638863   -0.6495685 
  942000    4.1568556    1.2510773    2.9057784  -0.21680762   0.83414048   0.99126203   0.73636623   -1.2465374            1    1.6694901    2.2685778    2.2708812   0.46901129 -0.0081289909  0.069612091 -0.018619614    1.5140799    1.5391122   0.70384164  0.066666667      1.29168        1e-08 1.7596041e-09    5.6830965    2.4870283    30.403515 0.0020021172  -0.20436211 0.0035090546   0.20101995  -0.14507746   0.65342146 
  943000    4.1627527    1.2824713    2.8802814  -0.21147299   0.85507207    1.0209075   0.75187088   -1.2465374            1    1.5606415    2.2000512    2.2031315   0.27874171 -0.0019420992  0.014900466  0.010554106     1.401959    1.4263644   0.70274217  0.066666667    1.2833982        1e-08 1.7568554e-09     5.691988    2.5010562    30.403515   0.01157639  -0.20028689 0.0035306354   0.19617495   0.72697747 -0.038950667 
  944000    4.1647153    1.2716851    2.8930301  -0.21756942   0.84788052    1.0020968   0.75191924   -1.2465374            1    1.5989217    2.2036119    2.2279532   0.36519998     0.016972 -0.032246188   0.01647854     1.440229    1.4671187   0.70359244  0.066666667     1.284081        1e-08 1.7589811e-09    5.6851094    2.4999057    30.403515 0.0044745817  -0.17178605 -0.013242792   0.19661078    1.0318931    1.2366648 
  945000    4.1602276    1.2673475      2.89288  -0.21984655   0.84498849   0.99154886   0.75379787   -1.2465374            1    1.5771323     2.217396    2.1996078   0.31439297 0.0039253639   0.01777135  0.030816518    1.4180431    1.4467166   0.70219997  0.066666667    1.2811594        1e-08 1.7554999e-09    5.6963831     2.478685    30.403515 0.0044568665  -0.17989954 -0.0070575091   0.19844286   -1.0646763    1.3619009 
  946000    4.1722382    1.2700922    2.9021461  -0.21554537   0.84681843    1.0080107   0.74650947   -1.2465374            1    1.5721784    2.1948357    2.1809382   0.34076111 0.0027952755 -0.0023841494 -0.031509565    1.4146274    1.4395975   0.70605866  0.066666667    1.2840863        1e-08 1.7651466e-09    5.6652517    2.4917064    30.403515 0.0011620588  -0.16436721 -0.0062926292   0.19971255     1.461137    1.9582893 
  947000    4.1631325    1.2774183    2.8857142  -0.21598423   0.85170303    1.0180699    0.7481701   -1.2465374            1    1.5523306    2.1655304    2.1616933   0.32976804 -0.0058544715   0.13754962 -0.018121253    1.3944291    1.4184267   0.70117886  0.066666667    1.2862711        1e-08 1.7529471e-09    5.7046786    2.4656632    30.403515 0.0026925023  -0.17385541  0.027107843   0.16398057   -1.0471693    3.3644638 
  948000    4.1788154    1.2717581    2.9070573  -0.22699431   0.84792915   0.99902095   0.75391505   -1.2465374            1    1.5710071    2.1889383    2.1945775   0.32950548  0.015253406   0.10588919 -0.063600727    1.4118932    1.4396087   0.70069066  0.066666667    1.2840726        1e-08 1.7517267e-09    5.7086532    2.4848904    30.403515   -0.0139196  -0.16943542 -0.0047477429   0.16002181   -1.1567858    1.0493425 
  949000    4.1746551    1.2781028    2.8965523  -0.21616486   0.85215945    1.0024485   0.75864634   -1.2465374            1    1.6249022    2.1944127    2.2763686   0.40392538 0.0093994575 0.0019541066  0.029001383    1.4647898     1.493053   0.70430365  0.066666667    1.2954362        1e-08 1.7607591e-09    5.6793685    2.4873148    30.403515   0.01332059  -0.20046611 -0.0042011845   0.22883892    0.4987704    2.3669725 
  950000    4.1645138    1.2772834    2.8872305  -0.21226815   0.85161306     1.013063   0.75114435   -1.2465374            1    1.5670722    2.1763517    2.2190884   0.30577664  0.022038301  0.014488594  0.013176742    1.4085431    1.4338269   0.70057802  0.066666667    1.2898146        1e-08 1.751445e-09    5.7095711    2.4772065    30.403515 0.0027725059  -0.18646831 -0.0045675189   0.20214829   -1.2787958   0.42834387 
  951000    4.1872165    1.2822331    2.9049834   -0.2203333   0.85491322   0.99515056   0.76766486   -1.2465374            1     1.700317    2.2785833    2.2895055   0.53286222 -0.004865215 -0.042220181 0.0039365245    1.5383012    1.5694276   0.70464394  0.066666667    1.2851939        1e-08 1.7616098e-09    5.6766259    2.4884014    30.403515 -0.00075158491  -0.24034004 -0.0039365159   0.18648815   -0.1661998    2.0819628 
  952000    4.1892287    1.2616507     2.927578  -0.21290958   0.84119019    0.9838371   0.75243779   -1.2465374            1    1.5819363    2.1887977    2.2073082   0.34970303  0.014012604  0.018834344 -0.016135996    1.4231342     1.452535     0.702372  0.066666667    1.2874152        1e-08  1.75593e-09    5.6949878    2.4757574    30.403515 0.00013693325  -0.19381546 -0.0097574722   0.19598879  -0.61815594    1.4571661 
  953000    4.1831412    1.2667709    2.9163702  -0.21775775   0.84460405    0.9986733    0.7487338   -1.2465374            1    1.6358661    2.2552979    2.2153795   0.43692075 -0.0020980503  0.038504044  0.023643302    1.4778457    1.5045134   0.69888357  0.066666667     1.282898        1e-08 1.7472089e-09     5.723414    2.4754246    30.403515  0.012597308  -0.20674205  0.004472135    0.1842636  -0.98238041   0.33231635 
  954000    4.1698123    1.2918646    2.8779477  -0.21863269   0.86133493    1.0204672   0.76231232   -1.2465374            1     1.596346    2.2280275     2.229751    0.3312594 -0.0073466346  0.066725191  0.035493128    1.4354598    1.4621268   0.71097718  0.066666667    1.2860778        1e-08 1.7774429e-09    5.6260596    2.5106547    30.403515 -0.00094745405  -0.17239293 0.0027968528   0.17273386   -1.5609784    2.0931082 
  955000     4.147062     1.242007     2.905055  -0.21191341     0.828093   0.98087427   0.73302257   -1.2465374            1    1.6890045    2.2553948    2.2940322    0.5175865 0.0036115898  0.079650982 -0.010539655       1.5343    1.5599929   0.71514198  0.066666667    1.2845068        1e-08 1.7878549e-09    5.5932949    2.5022796    30.403515  0.010161211  -0.20067537 0.0013834647   0.18380532  -0.94692679    1.6652214 
  956000    4.1376314    1.2495408    2.8880906  -0.22612897   0.83311607   0.96962497   0.74818751   -1.2465374            1    1.5671012    2.1759421    2.1774681   0.34789354 -0.0079416696  0.064219123  0.016233276    1.4091962    1.4395692   0.71656929  0.066666667    1.2817982        1e-08 1.7914232e-09    5.5821538    2.4886432    30.403515 -0.00058949142  -0.20853707 -0.013384719   0.18844047  -0.26397907    1.1910954 
  957000    4.1534007    1.2727223    2.8806784  -0.23007035   0.84857204     1.018718   0.74268344   -1.2465374            1    1.5516639    2.1706253    2.1824511   0.30191524 0.0062184359 -0.019359346  0.022676379    1.3949204    1.4176748   0.72027638  0.066666667    1.2928319        1e-08 1.800691e-09    5.5534238    2.4950576    30.403515 -0.0046605664   -0.1812066 -0.0028867084    0.1664294   0.34455041   0.74888203 
  958000    4.1594398    1.2678884    2.8915515  -0.22618832   0.84534907    0.9928344   0.75358208   -1.2465374            1    1.5302036    2.1651014    2.1654026    0.2601068  0.014220989  0.006806585 -0.048786387      1.37116    1.3996189   0.71732803  0.066666667    1.2776641        1e-08 1.7933201e-09    5.5762494    2.5091985    30.403515  0.011295312  -0.19592377 -0.0024126595   0.21102806  -0.50383943   -1.2681594 
  959000    4.1920681    1.2896112     2.902457  -0.22065653   0.85983248    1.0128481   0.76462148   -1.2465374            1     1.690257    2.2681835    2.2892992   0.51328845 -0.0040818576  0.057312809  0.022521238    1.5288836      1.55704    0.7092093  0.066666667    1.2880859        1e-08 1.7730233e-09    5.6400839    2.4948402    30.403515 0.0072490305  -0.20808062 0.0023226994   0.18930109  -0.06063301    2.0876341 
  960000     4.159207    1.2843538    2.8748531  -0.22638452   0.85632723   0.99720904   0.76867747   -1.2465374            1     1.539239    2.1816392    2.1811067    0.2549712 0.0097645767  0.007407616  -0.04067363    1.3770095    1.4080789   0.70357376  0.066666667    1.2779656        1e-08 1.7589344e-09    5.6852603    2.4715274    30.403515 -0.017641203   -0.2028552 -0.010156174   0.16409029  -0.68065802    1.5643004 
  961000    4.1878033    1.2760818    2.9117215  -0.22586039   0.85081195    1.0001531   0.75788936   -1.2465374            1    1.6964756    2.2581496    2.2925891   0.53868804 0.0068396133  0.060944654 -0.051040989    1.5365229    1.5649282   0.70649574  0.066666667    1.2946559        1e-08 1.7662394e-09    5.6617468    2.4803529    30.403515 0.0061299107  -0.18757115 -0.020985866   0.20992365    -1.219014    3.4358545 
  962000    4.1483635    1.2641196    2.8842439  -0.22117097   0.84283631   0.99489817   0.74821678   -1.2465374            1    1.4852749    2.1207989    2.1268069    0.2082189 -0.00047018065  0.075897656 -0.0079637152    1.3273636    1.3544187   0.70658038  0.066666667    1.2972729        1e-08 1.7664509e-09    5.6610686    2.4929742    30.403515 0.0036126806  -0.20032189 -0.0028667449   0.16616455   0.83620723    1.4892581 
  963000    4.1701481    1.2824832    2.8876649  -0.21743529   0.85507997    1.0136615   0.75639949   -1.2465374            1    1.5645548    2.1800042     2.211476   0.30218404 0.0011535681    0.1093974  -0.04575113    1.4049165    1.4312307   0.70433426  0.066666667    1.2894461        1e-08 1.7608357e-09    5.6791217    2.4964578    30.403515 -0.0094257478  -0.18780537 0.0076516581   0.16113107  -0.51750751   0.30074285 
  964000    4.1556493    1.2635593      2.89209  -0.21904364   0.84246272   0.99621039   0.74679252   -1.2465374            1    1.6706665    2.2747073    2.2733274   0.46396471 -0.0071939848  0.069320964 0.0068298967    1.5130558    1.5396377   0.70305066  0.066666667    1.2815257        1e-08 1.7576266e-09    5.6894904    2.4752729    30.403515 0.0072556483  -0.18398133 -0.019328166   0.20438915   -1.3651758    3.4985315 
  965000    4.1734196    1.2795019    2.8939177  -0.20675959   0.85309227    1.0059437   0.75798244   -1.2465374            1     1.554708    2.1810896    2.1808643   0.30217014 -0.011498461 -0.049723155  0.011862575    1.3947357     1.422399   0.70851265  0.066666667    1.2873795        1e-08 1.7712816e-09    5.6456296    2.5002377    30.403515 0.0086681112  -0.20967628 0.0073071327    0.2046945  -0.16294948   -1.2015659 
  966000    4.1917713    1.2660899    2.9256814  -0.20849803   0.84414997   0.98400988   0.75713496   -1.2465374            1    1.7176675    2.2952741    2.2950586   0.56266984 -0.0083922736   0.13602782 0.0021779724    1.5578741    1.5882435   0.69987749  0.066666667    1.2858188        1e-08 1.7496937e-09     5.715286    2.4779433    30.403515 -0.0070125369  -0.18936411 0.0065223211   0.19322792   -1.9432367   -1.0340184 
  967000    4.2146088    1.2769353    2.9376735  -0.20584624   0.85138098   0.99616004   0.76130159   -1.2465374            1    1.4621606    2.0837098    2.1230524    0.1797195 -0.0068138274   0.10409947 -0.022971377    1.3014877    1.3311384   0.69634141  0.066666667     1.284486        1e-08 1.7408535e-09    5.7443086    2.4940769    30.403515 0.0052863219  -0.16292028 0.0032919938   0.18469667   -1.8917539   -1.5501712 
  968000    4.1773751    1.2712466    2.9061285  -0.21832377    0.8475881    1.0094717   0.74684845   -1.2465374            1     1.486752    2.1165937    2.1337691   0.20989327 -0.0059565878  0.010372983  -0.05089031    1.3291295     1.353979   0.70375756  0.066666667    1.2835196        1e-08 1.7593939e-09    5.6837755    2.4831115    30.403515 -0.0065703763  -0.18287879 -0.0048887384   0.17966146  -0.92725701   0.95059099 
  969000    4.1734375    1.2721877    2.9012498  -0.20918918    0.8482156   0.99553011   0.75655557   -1.2465374            1    1.6520103     2.266993      2.23953   0.44950796 0.0033769753 -0.087329999 -0.057241683    1.4923392     1.521071   0.70965665  0.066666667    1.2903464        1e-08 1.7741416e-09    5.6365286    2.4839947    30.403515 -0.0026644519  -0.20972047 -0.0036912802   0.17643472  -0.43716444   0.19771217 
  970000    4.1681362    1.2723087    2.8958275  -0.21632046   0.84829625    1.0082926   0.74873288   -1.2465374            1    1.4305054    2.0792796     2.101556    0.1106806 -0.010516666  -0.14634773  -0.06440428    1.2724852    1.2978875   0.70545756  0.066666667    1.2914186        1e-08 1.7636439e-09    5.6700789    2.4844593    30.403515 -0.0029461772  -0.21938004  0.013523545   0.18071494    1.1125016  -0.33971143 
  971000    4.1579247    1.2699007     2.888024  -0.22439912   0.84669079    1.0006599   0.75088331   -1.2465374            1    1.4705959    2.1184557    2.1077228   0.18560929 0.0044704356  -0.10497092 -0.0048578763    1.3121219    1.3389819   0.70112092  0.066666667    1.2937953        1e-08 1.7528023e-09      5.70515    2.4858335    30.403515   0.01846667  -0.17814549  0.010922267   0.19416867   0.55202888   0.40807236 
  972000    4.1690962    1.2752102     2.893886  -0.22982553   0.85023078   0.99528149   0.75998191   -1.2465374            1    1.6334935      2.24028     2.238621   0.42157939 -0.0025939338  0.044302372  0.028059653    1.4730992    1.5025869   0.70891112  0.066666667    1.2959238        1e-08 1.7722778e-09    5.6424563    2.4955129    30.403515 -0.00029151185  -0.18060883  0.014438774   0.19507648   0.65849924    0.9466565 
  973000    4.1431742    1.2425767    2.9005975  -0.21385387   0.82847283   0.98780072   0.72932259   -1.2465374            1     1.530775    2.1604623    2.1631339   0.26872898 -0.0019374731 -0.026142298 -0.016001697    1.3768514    1.4008524   0.70134494  0.066666667    1.3037822        1e-08 1.7533624e-09    5.7033276    2.4866735    30.403515 0.0057624917  -0.21360731  -0.02126259   0.18066748   0.20417378    3.4130936 
  974000    4.1713341    1.2638587    2.9074753  -0.21022364   0.84266236    1.0233963   0.73017427   -1.2465374            1    1.6733215    2.2756317    2.3004923   0.44384057 0.0033748618  0.012841508 0.0069738379    1.5192181    1.5387171   0.70376998  0.066666667    1.3001085        1e-08 1.7594249e-09    5.6836753    2.5006281    30.403515 -0.00030271896  -0.13788959  0.012574369   0.19680827   0.29284299    3.2474102 
  975000    4.1862627    1.2670747     2.919188   -0.2242704    0.8448066   0.98108883   0.76002133   -1.2465374            1    1.4694134    2.0912582    2.0981781   0.21880381 -0.013789809  0.053790467 -0.055398077    1.3090108    1.3403735   0.70027582  0.066666667    1.3027205        1e-08 1.7506895e-09     5.712035    2.4721312    30.403515 -0.009338402  -0.18090457 0.0030826078   0.18918886 -0.064827901    1.9818923 
  976000    4.1708644    1.2803075    2.8905569  -0.20831027   0.85362935    1.0194318    0.7504485   -1.2465374            1    1.6055161    2.2207872    2.2574415    0.3383197 0.0002264717   0.13079649  0.030906712    1.4471338    1.4714331   0.70688612  0.066666667    1.3074712        1e-08 1.7672153e-09    5.6586201    2.4946761    30.403515  0.016171065  -0.20329529  0.010643479   0.17356875   -1.3680509  -0.12668558 
  977000    4.1844035    1.2837892    2.9006143  -0.22308918   0.85595075    1.0245923     0.751001   -1.2465374            1    1.5780457    2.1931164    2.1891421   0.35187842 0.0048621821   0.03031074 -0.045229092    1.4195468    1.4432839   0.70604619  0.066666667     1.304775        1e-08 1.7651155e-09    5.6653518    2.4939323    30.403515 0.0043309243  -0.19041837 -0.0014262997   0.18231117  -0.71777118   0.86764055 
  978000    4.1437596    1.2506636     2.893096  -0.21553733   0.83386469     1.007871   0.72556772   -1.2465374            1    1.5987514    2.2313451    2.2184309   0.34647819 -0.012544604  0.057245519 -0.0077020257    1.4456202     1.466189   0.70664644  0.066666667    1.3009034        1e-08 1.7666161e-09    5.6605394    2.4814904    30.403515 -0.0074085999  -0.19080261 -0.0032438621   0.21371967  -0.89567758    2.2901063 
  979000    4.1739349    1.2770904    2.8968446  -0.22286383   0.85148439     1.020884   0.74606141   -1.2465374            1    1.5491314    2.1871196    2.1510411   0.30923343  0.015133419  0.040433567  0.064277398     1.391675    1.4148574   0.70243723  0.066666667    1.3136462        1e-08 1.7560931e-09     5.694459    2.4770507    30.403515 -0.0055984638  -0.20543999 -0.008685943   0.18879572   -1.1410273    1.5673322 
  980000    4.1691852     1.267908    2.9012772  -0.22330913   0.84536214    0.9943967   0.75262967   -1.2465374            1    1.5328006    2.1472021    2.1659093   0.28529026 -0.0034236288  0.047667522 -0.008025567     1.373958    1.4020104   0.70513803  0.066666667    1.3136163        1e-08 1.7628451e-09    5.6726482    2.4944382    30.403515 -0.0078168484  -0.18522238 -0.0033122494   0.20501207  -0.28333096    2.2277652 
  981000     4.143464     1.254074    2.8893901  -0.22253361   0.83613849   0.97969442   0.74681873   -1.2465374            1    1.5525512    2.1808078    2.1945526   0.28229308  0.007325241  0.013697541 -0.0054970054    1.3949349    1.4236947   0.71052464  0.066666667    1.3063793        1e-08 1.7763116e-09    5.6296429    2.5151841    30.403515 -0.0040422816  -0.16485781 0.0043441086   0.20053423   0.87222368    2.4551633 
  982000    4.1647768    1.2525532    2.9122236  -0.20913537   0.83512454   0.98971418   0.73892835   -1.2465374            1    1.6315855    2.2433604    2.2354686   0.41592739 0.0043180672 -0.055235862 -0.031120103    1.4756345    1.5014111   0.69805411  0.066666667    1.3048648        1e-08 1.7451353e-09    5.7302148    2.4817977    30.403515 -0.00029419482   -0.1922205 -0.0041527825   0.19875319    1.2295403    3.3551598 
  983000    4.1915892    1.2744969    2.9170923  -0.22543576   0.84975521   0.98724044   0.76422109   -1.2465374            1    1.4081862    2.0680952    2.0687697  0.087693841 0.0073837904 -0.067883888  -0.07711112    1.2468972    1.2783373   0.70262698  0.066666667    1.3151355        1e-08 1.7565675e-09    5.6929211     2.486937    30.403515 0.0068673828  -0.17784542 -0.0080585622   0.20852927    1.4430281   -1.5607045 
  984000    4.1831322    1.2730082    2.9101239  -0.21006729   0.84876269    1.0000596   0.75462092   -1.2465374            1    1.6368077    2.2467769    2.2596087   0.40403756 -0.0072869081 -0.069170577 -0.076373458    1.4775448    1.5052727   0.70212183  0.066666667     1.312737        1e-08 1.7553046e-09     5.697017    2.4992396    30.403515 -0.00096863819  -0.15624721  0.015106088   0.20778129    1.8796536    3.7052133 
  985000    4.1722005    1.2842558    2.8879447  -0.21235046   0.85626187   0.99776092   0.76822744   -1.2465374            1    1.6674642    2.2748607    2.2673362   0.46019585 0.0047962879 -0.040112956  0.010957998    1.5053297    1.5362315   0.70309135  0.066666667    1.3087979        1e-08 1.7577284e-09    5.6891611    2.4865828    30.403515 0.0055813828  -0.19229069 0.0051404629    0.2107401   0.45207476     3.304923 
  986000    4.1689458    1.2764227    2.8925232  -0.22229958   0.85103921   0.99844433    0.7593232   -1.2465374            1    1.5135106    2.1545193    2.1755334     0.210479  0.011188387 -0.076565545  0.043585885    1.3532553     1.382188   0.70495391  0.066666667    1.3064551        1e-08 1.7623848e-09    5.6741298    2.5264069    30.403515 0.0028513908   -0.2053079  0.021711532   0.21127664   0.49971841   -0.1706833 
  987000    4.1533514    1.2545712    2.8987802  -0.21608449   0.83647001   0.99883273   0.73542984   -1.2465374            1    1.5864577     2.192921    2.1978992   0.36855275 -0.0070896367  -0.16432311 0.0065560144    1.4312451     1.455084   0.70592646  0.066666667    1.3040592        1e-08 1.7648162e-09    5.6663126    2.5060701    30.403515 -0.00062615149  -0.19903378 0.0048036102   0.15533755 -0.0046081399    1.8247154 
  988000      4.16259     1.265834     2.896756  -0.22114963   0.84397934    1.0121213   0.73933884   -1.2465374            1    1.5106193    2.1629633    2.1447501   0.22414462 -0.0018314569  0.023480414  0.056263234    1.3545818    1.3774979   0.70149043  0.066666667    1.3114568        1e-08 1.7537261e-09    5.7021448    2.4896518    30.403515 0.0085523802  -0.20428704 -0.0044282945   0.16878076   -2.3897123    1.1728755 
  989000    4.2095197    1.2856094    2.9239103  -0.21360313   0.85716435   0.99975764   0.76844815   -1.2465374            1    1.5861872    2.2119702     2.185608    0.3609833  0.007455439  0.031892367 -0.016218731    1.4240061    1.4546918     0.711665  0.066666667     1.306053        1e-08 1.7791625e-09    5.6206221    2.4996589    30.403515  -0.01340568  -0.18371392 -0.0014207151   0.21054142  -0.13401255     1.844442 
  990000    4.1672328    1.2744968     2.892736  -0.22344833   0.84975515     1.008146   0.75119257   -1.2465374            1    1.6004843    2.2121486    2.2252937   0.36401051 0.0052744533  0.064214845 -0.049781332     1.441945    1.4678857   0.70250376  0.066666667    1.3159645        1e-08 1.7562594e-09    5.6939197    2.4827078    30.403515  0.012890575  -0.21057865 -0.0066584652   0.19426974 -0.027150611    1.2203655 
  991000    4.1602905    1.2735705    2.8867199  -0.21951753   0.84913758   0.99592942   0.75780344   -1.2465374            1    1.6596232     2.269732    2.2510394   0.45809823  0.024067875   0.13201949 -0.011630755    1.4996887    1.5286314   0.69781795  0.066666667    1.3253756        1e-08 1.7445449e-09     5.732154     2.476641    30.403515 0.0034802347  -0.19507184 0.0073683605   0.19009875    1.0016698  -0.03097295 
  992000    4.1726782    1.2888234    2.8838548  -0.21877791   0.85930725    1.0106325   0.76514962   -1.2465374            1     1.597231    2.2421621    2.2286306   0.32090027 -0.013094158  0.041925601 -0.006814712     1.435746    1.4643053   0.70349209  0.066666667    1.3299586        1e-08 1.7587302e-09    5.6859203    2.4979189    30.403515 -0.0044730047  -0.20348412 -0.0075244851   0.16519932    1.1266683   0.47982794 
  993000    4.1462197    1.2623772    2.8838425  -0.21641844   0.84167457      0.96865   0.76268879   -1.2465374            1    1.6701604    2.2526361    2.2851768   0.47266827 -0.016226843 -0.0097865568 -0.018553799    1.5091948    1.5427566   0.70388971  0.066666667     1.329672        1e-08 1.7597243e-09    5.6827085    2.4931004    30.403515 0.0017267902  -0.20683547 -0.001246131   0.23146066   0.68917765    2.3571867 
  994000    4.1568769    1.2593438    2.8975331    -0.211851   0.83965208   0.99498941   0.74299072   -1.2465374            1    1.5442679    2.1526381    2.1598218   0.32034381 -0.019242771 -0.091078827 -0.016617766    1.3874596    1.4133997   0.70624538  0.066666667    1.3243908        1e-08 1.7656135e-09    5.6637539    2.5079657    30.403515 -0.0052405906  -0.21778266 -0.002571811   0.21537426   0.93875493    2.2105026 
  995000     4.158013    1.2569012    2.9011118  -0.21572039   0.83802352   0.97361201   0.75366942   -1.2465374            1    1.5165498    2.1678221    2.1467299   0.23509743 0.0046266047 -0.053845876  0.060206238    1.3574877    1.3884933   0.69829224  0.066666667    1.3340051        1e-08 1.7457306e-09    5.7282607    2.4863438    30.403515 -0.0063360199  -0.16921058 0.0075792606   0.20912432   -2.1278341 -0.058139527 
  996000    4.1759977    1.2583411    2.9176567  -0.20871825   0.83898352    1.0052237   0.73552732   -1.2465374            1    1.5467492    2.1647315    2.1703806   0.30513551 -0.0053834548 -0.081131427 -0.046251235    1.3915161     1.414535   0.69748117  0.066666667    1.3348859        1e-08 1.7437029e-09    5.7349218    2.5022852    30.403515 -0.010049154  -0.20951654 0.0020416279   0.21357383  -0.95911876    3.3852747 
  997000    4.1561082    1.2736835    2.8824247  -0.20829375   0.84921288    1.0192914   0.74336639   -1.2465374            1    1.5828644    2.2259677    2.2029249   0.31970053  0.017136631 -0.087990266 -0.066902603    1.4259768    1.4487998   0.70561731  0.066666667    1.3319349        1e-08 1.7640433e-09    5.6687952    2.5041621    30.403515 0.0060186391  -0.19144551 -0.0026909698   0.19132663 -0.064819568   0.55292333 
  998000    4.1857888    1.2690512    2.9167376  -0.22119135   0.84612435    1.0053813   0.74702137   -1.2465374            1    1.5460335    2.1590628     2.190791   0.28824668 0.0030562931 -0.016921803  0.017704306    1.3883745    1.4137985   0.70257407  0.066666667    1.3265847        1e-08 1.7564352e-09    5.6933499    2.4871458    30.403515  0.012196457   -0.2124351 0.0061011557   0.16625444   -1.1661269   0.79890086 
  999000    4.2044854    1.2886247    2.9158608  -0.21195068   0.85917474    1.0208032   0.75859609   -1.2465374            1    1.4451001    2.1034067    2.1051871    0.1267065 -0.006394587 -0.035807922 -0.0022733303    1.2849983    1.3108367    0.7023337  0.066666667    1.3156612        1e-08 1.7558342e-09    5.6952984    2.4810866    30.403515 -0.010943375  -0.17912076  0.011108285   0.17671595   0.98230415    3.1405309 
 1000000    4.1733241    1.2663876    2.9069365  -0.22169135   0.84434842    0.9893685   0.75411762   -1.2465374            1    1.6466275    2.2451646    2.2323851   0.46233292 -0.0033690809  -0.13209112  0.024972314    1.4874709    1.5164987   0.69637012  0.066666667    1.3138446        1e-08 1.7409253e-09    5.7440718    2.4859088    30.403515 -0.0012327287  -0.20440325 -0.016339569   0.19626808     3.244802    4.7245115 
Loop time of 1029.02 on 1 procs for 700000 steps with 9376 atoms

Performance: 293871.091 tau/day, 680.257 timesteps/s
99.5% CPU use with 1 MPI tasks x 1 OpenMP threads

MPI task timing breakdown:
Section |  min time  |  avg time  |  max time  |%varavg| %total
---------------------------------------------------------------
Pair    | 105.9      | 105.9      | 105.9      |   0.0 | 10.29
Bond    | 233.33     | 233.33     | 233.33     |   0.0 | 22.68
Neigh   | 308.53     | 308.53     | 308.53     |   0.0 | 29.98
Comm    | 17.658     | 17.658     | 17.658     |   0.0 |  1.72
Output  | 1.2603     | 1.2603     | 1.2603     |   0.0 |  0.12
Modify  | 342.38     | 342.38     | 342.38     |   0.0 | 33.27
Other   |            | 19.96      |            |       |  1.94

Nlocal:    9376 ave 9376 max 9376 min
Histogram: 1 0 0 0 0 0 0 0 0 0
Nghost:    1676 ave 1676 max 1676 min
Histogram: 1 0 0 0 0 0 0 0 0 0
Neighs:    13316 ave 13316 max 13316 min
Histogram: 1 0 0 0 0 0 0 0 0 0

Total # of neighbors = 13316
Ave neighs/atom = 1.42022
Ave special neighs/atom = 6.92833
Neighbor list builds = 90883
Dangerous builds = 0
#undump      comp
undump      cpxyz

unfix abeads_cdz
unfix bbeads_cdz
unfix tbeads_cdz

###############
# Shearing    #
###############

#--- Keep only thermostat on walls ---#
unfix lang_melt

velocity    twout set $(v_Wall_v2/2) 0.0 0.0  units box
velocity    twout set 5.0000000000000001046e-09 0.0 0.0  units box
velocity    bwout set -$(v_Wall_v2/2) 0.0 0.0  units box
velocity    bwout set -5.0000000000000001046e-09 0.0 0.0  units box


#--- Number Density profiles ---#

compute         sabeads abeads chunk/atom bin/1d z lower ${binres} units reduced # Check bound keyword to maybe only bin melt area
compute         sabeads abeads chunk/atom bin/1d z lower 0.001 units reduced 
fix             abeads_sdz abeads  ave/chunk ${Neverys} ${Nrepeats} ${Nfreqs} sabeads density/number file abeads_sdz
fix             abeads_sdz abeads  ave/chunk 100 ${Nrepeats} ${Nfreqs} sabeads density/number file abeads_sdz
fix             abeads_sdz abeads  ave/chunk 100 1000 ${Nfreqs} sabeads density/number file abeads_sdz
fix             abeads_sdz abeads  ave/chunk 100 1000 100000 sabeads density/number file abeads_sdz
compute         sbbeads bbeads chunk/atom bin/1d z lower ${binres} units reduced # Check bound keyword to maybe only bin melt area
compute         sbbeads bbeads chunk/atom bin/1d z lower 0.001 units reduced 
fix             bbeads_sdz bbeads  ave/chunk ${Neverys} ${Nrepeats} ${Nfreqs} sbbeads density/number file bbeads_sdz
fix             bbeads_sdz bbeads  ave/chunk 100 ${Nrepeats} ${Nfreqs} sbbeads density/number file bbeads_sdz
fix             bbeads_sdz bbeads  ave/chunk 100 1000 ${Nfreqs} sbbeads density/number file bbeads_sdz
fix             bbeads_sdz bbeads  ave/chunk 100 1000 100000 sbbeads density/number file bbeads_sdz
compute         stbeads tbeads chunk/atom bin/1d z lower ${binres} units reduced # Check bound keyword to maybe only bin melt area
compute         stbeads tbeads chunk/atom bin/1d z lower 0.001 units reduced 
fix             tbeads_sdz tbeads  ave/chunk ${Neverys} ${Nrepeats} ${Nfreqs} stbeads density/number file tbeads_sdz
fix             tbeads_sdz tbeads  ave/chunk 100 ${Nrepeats} ${Nfreqs} stbeads density/number file tbeads_sdz
fix             tbeads_sdz tbeads  ave/chunk 100 1000 ${Nfreqs} stbeads density/number file tbeads_sdz
fix             tbeads_sdz tbeads  ave/chunk 100 1000 100000 stbeads density/number file tbeads_sdz

#--- Temperature and Velocity profiles ---#
compute        eall all chunk/atom bin/1d z lower ${binres} units reduced
compute        eall all chunk/atom bin/1d z lower 0.001 units reduced
#compute        biasT all temp/profile 1 1 1 xyz 100 100 100
fix            temp_prof   all ave/chunk ${Neverys} ${Nrepeats} ${Nfreqs} eall temp file temp_sz
fix            temp_prof   all ave/chunk 100 ${Nrepeats} ${Nfreqs} eall temp file temp_sz
fix            temp_prof   all ave/chunk 100 1000 ${Nfreqs} eall temp file temp_sz
fix            temp_prof   all ave/chunk 100 1000 100000 eall temp file temp_sz
#fix            temp_bias   all ave/chunk ${Neverys} ${Nrepeats} ${Nfreqs} eall temp bias biasT file tempb_sz
fix            vel_prof_x_s all ave/chunk ${Neverys} ${Nrepeats} ${Nfreqs} eall vx vy file velp_sz
fix            vel_prof_x_s all ave/chunk 100 ${Nrepeats} ${Nfreqs} eall vx vy file velp_sz
fix            vel_prof_x_s all ave/chunk 100 1000 ${Nfreqs} eall vx vy file velp_sz
fix            vel_prof_x_s all ave/chunk 100 1000 100000 eall vx vy file velp_sz
#--- Ave s_bot and p_bot ---#

fix             fc_ave all ave/time ${Neverys} ${Nrepeats} ${Nfreqs} v_sbot v_pbot file fc_ave.dump
fix             fc_ave all ave/time 100 ${Nrepeats} ${Nfreqs} v_sbot v_pbot file fc_ave.dump
fix             fc_ave all ave/time 100 1000 ${Nfreqs} v_sbot v_pbot file fc_ave.dump
fix             fc_ave all ave/time 100 1000 100000 v_sbot v_pbot file fc_ave.dump

#--- Dumps ---#
#dump           shear all image ${Ndump_s} stg3.*.jpg type type zoom 2 view 60 120 bond none none
dump            shxyz all xyz ${Nshear} sh.xyz
dump            shxyz all xyz 1000000 sh.xyz

#--- Run Shear ---#
timestep    ${Tstep}
timestep    0.005
run         ${Nshear}
run         1000000
WARNING: Inconsistent image flags (src/domain.cpp:784)
Per MPI rank memory allocation (min/avg/max) = 12.42 | 12.42 | 12.42 Mbytes
Step TotEng KinEng PotEng E_pair Temp c_melTemp c_wallTemp v_Fcatom v_Pcomp2 Press Pxx Pyy Pzz Pxy Pxz Pyz c_melPress c_wallPress v_melDens v_surfcov v_aveRg v_Wall_v2 v_srate v_D v_bwzmax Zhi c_fbwall[1] c_fbwall[3] c_ftwall[1] c_ftwall[3] v_sbot v_pbot 
 1000000    4.1733119    1.2663753    2.9069365  -0.22169135   0.84434028    0.9893685    0.7541044   -1.2465374            1    1.6466247    2.2451646    2.2323851   0.46232456 -0.0033690809  -0.13209112  0.024972314    1.4874709    1.5164959   0.69637012  0.066666667    1.3138446        1e-08 1.7409253e-09    5.7440718    2.4859088    30.403515 -0.0012327287  -0.20440325 -0.016339569   0.19626808     3.244802    4.7245115 
 1001000    4.1607385    1.2666512    2.8940873  -0.21590374   0.84452421    1.0170518   0.73715064   -1.2465374            1    1.5040079    2.1493016    2.1225896   0.24013254 -0.0024766801 -0.050175401 -0.036923979    1.3484322    1.3702379     0.706466  0.066666667    1.3025144        1e-08 1.766165e-09    5.6619852    2.4886116    30.403515  0.010562805  -0.19714075 -0.0024933912   0.17496968    2.4941615    1.7752972 
 1002000    4.1867918    1.2870342    2.8997577  -0.22182503   0.85811429    1.0252021    0.7541332   -1.2465374            1    1.5747463    2.1768281    2.1951246   0.35228612  0.012321427  0.027854891  0.039929819    1.4155863    1.4399043   0.70944118  0.066666667    1.3362132        1e-08 1.7736029e-09    5.6382405    2.4784048    30.403515 0.0051945527  -0.19720742 -0.0021374409     0.222488   0.69106547    2.4891147 
 1003000    4.1739782    1.2601984    2.9137798  -0.20385227   0.84022188   0.98771514   0.74844907   -1.2465374            1    1.5279026    2.1883781     2.151485   0.24384475 -0.00088556341  0.047650214 -0.0093888982    1.3699423    1.3979912   0.70454473  0.066666667    1.3355943        1e-08 1.7613618e-09    5.6774252    2.4835918    30.403515  0.016057085  -0.21371614 0.0013408474   0.16610514   0.39220021    1.2684782 
 1004000    4.1902356    1.2726103    2.9176253  -0.21768724   0.84849736   0.98456835   0.76384437   -1.2465374            1    1.4608436    2.1362021    2.0983724   0.14795639 0.0049648642   0.16636206 -0.050313667    1.2996341    1.3313461   0.70363426  0.066666667    1.3586788        1e-08 1.7590857e-09    5.6847715    2.4861178    30.403515   0.01045944  -0.20350804 -0.0089504021     0.171863  -0.73723142    1.4914881 
 1005000    4.1627746    1.2515424    2.9112322  -0.21315535   0.83445059   0.98743403   0.73925527   -1.2465374            1    1.5862608    2.1923557    2.2076807   0.35874587 -0.013327059   0.11051591 -0.0090843363    1.4302408    1.4563863   0.70836537  0.066666667     1.348028        1e-08 1.7709134e-09    5.6468034    2.4817632    30.403515  0.013076752  -0.17581582 -0.0039018903   0.16903044   -1.9365738  -0.11947945 
 1006000    4.1688378    1.2642682    2.9045696  -0.20846646   0.84293537   0.99714315   0.74697851   -1.2465374            1    1.5472266    2.1685257    2.1930952     0.280059 -0.0051869074 -0.060481012 0.0079582761    1.3895767    1.4160752   0.70769579  0.066666667    1.3346315        1e-08 1.7692395e-09    5.6521461    2.4905914    30.403515 0.0055884092  -0.16764555 0.00054296534   0.24687243   -1.6712204   0.45636631 
 1007000    4.1696316    1.2700787    2.8995529  -0.21332026   0.84680942   0.99265592   0.75606401   -1.2465374            1    1.5522647    2.1651511    2.1839792   0.30766383 0.0078322799  -0.20142558 -0.016317097    1.3926973    1.4217034   0.69797497  0.066666667    1.3646076        1e-08 1.7449374e-09    5.7308646    2.4779897    30.403515 -0.0010525682  -0.16788174 -0.014215865   0.20390988    1.3892154    1.0007557 
 1008000    4.1779293    1.2523037    2.9256256  -0.20694748   0.83495817   0.98772064   0.73990065   -1.2465374            1    1.6827947    2.2488246    2.2843751   0.51518452 -0.022065484  -0.17185483 -0.00053948957    1.5266386    1.5528826   0.70389019  0.066666667    1.3563695        1e-08 1.7597255e-09    5.6827046    2.4929399    30.403515 0.0013559499  -0.19976008  0.012666754   0.20189745   0.45986561   0.94493532 
 1009000    4.1713754    1.2753792    2.8959963  -0.22131999   0.85034349   0.99158326   0.76246962   -1.2465374            1    1.4383862    2.1151489    2.0856916   0.11431819 -0.013131845 -0.019008494 0.0012526651    1.2774669    1.3079661   0.71974349  0.066666667    1.3444813        1e-08 1.7993587e-09    5.5575355    2.5124981    30.403515 0.0029163549  -0.18960883  0.014917001   0.22737601  -0.88818508   -1.9744721 
 1010000    4.1533729    1.2519664    2.9014065  -0.21911015   0.83473329   0.97497613   0.74747801   -1.2465374            1    1.5446736    2.1852807    2.1520392   0.29670085 0.0093455388  0.061025152 -0.091786538    1.3869182    1.4164377   0.70617163  0.066666667    1.3227581        1e-08 1.7654291e-09    5.6643454    2.4930971    30.403515 0.0099079207  -0.19120931 -0.0013073166   0.20024687   0.31190619  -0.49192403 
 1011000    4.1502185    1.2649159    2.8853025  -0.21435816   0.84336725    1.0152877   0.73637188   -1.2465374            1    1.7098162    2.2869295    2.3231025   0.51941667  0.010380497  0.036605205  0.016365515    1.5544048    1.5762783   0.70016582  0.066666667    1.3346661        1e-08 1.7504146e-09    5.7129324     2.490446    30.403515 -0.0050291474  -0.16063722 0.0023459428   0.21581077   0.87505349    1.4534228 
 1012000    4.1576822    1.2756085    2.8820737  -0.21791395   0.85049639    1.0026144   0.75584321   -1.2465374            1    1.6308741    2.2428908    2.2365682    0.4131632  0.013535417  0.042709186 -0.021077473    1.4713532     1.499003   0.70867293  0.066666667    1.3453929        1e-08 1.7716823e-09    5.6443527    2.5275075    30.403515 -0.0035024645  -0.16380667 -0.00093036697   0.19277631    1.2641297    1.3619438 
 1013000    4.1627389    1.2745668    2.8881721  -0.21514958   0.84980186    1.0214072   0.74300397   -1.2465374            1    1.6052561    2.2154156    2.2212682   0.37908428 0.0060390109  0.038951823  0.021447401    1.4484449    1.4709132     0.708334  0.066666667    1.3414359        1e-08 1.770835e-09    5.6470535    2.4845784    30.403515 0.0030774058  -0.23065378 0.0089431924   0.23625882    1.3261086    0.4264983 
 1014000    4.2074172    1.3007475    2.9066698  -0.22261362   0.86725747    1.0239993    0.7697256   -1.2465374            1    1.5623379    2.2055632    2.1770378   0.30441276 -0.008531036  0.040159223  0.058779075    1.3998872    1.4276542   0.69996919  0.066666667     1.324645        1e-08 1.749923e-09    5.7145372    2.4922174    30.403515 -0.00040976298  -0.20650799 0.0057421952   0.21754126  -0.47975914    1.6119411 
 1015000    4.1730694    1.2858798    2.8871895  -0.21683621   0.85734466    1.0178118   0.75748946   -1.2465374            1    1.4800277    2.1210597    2.1173329   0.20169053 0.0055426406 -0.059274961  0.023725048    1.3201594    1.3461578    0.7022471  0.066666667    1.3446597        1e-08 1.7556178e-09    5.6960007    2.5061286    30.403515 0.0049995447   -0.1876146 0.0063814764   0.20413517  -0.35976855   -1.2267688 
 1016000    4.1730134    1.2776717    2.8953417  -0.21991012   0.85187201    1.0165394   0.74939823   -1.2465374            1    1.6160518     2.250415    2.2004678   0.39727267 -0.0065966064  -0.10633748 -0.010550579    1.4578912    1.4823493   0.71102073  0.066666667    1.3248187        1e-08 1.7775518e-09     5.625715     2.507793    30.403515  0.017455352  -0.19566835 0.00060974853   0.17212613   0.35216285    1.1172098 
 1017000    4.1746478    1.2902834    2.8843643  -0.21923266   0.86028071    1.0257062   0.75733597   -1.2465374            1    1.6925325     2.306436     2.307105   0.46405634 0.0068419057 -0.084295514 0.0025087683    1.5326966    1.5576242   0.71004441  0.066666667     1.315866        1e-08 1.775111e-09    5.6334504    2.4789812    30.403515 0.0032636776  -0.18749623 0.0061518476   0.17652756  -0.97529665    2.2428265 
 1018000    4.1641812    1.2501785    2.9140027   -0.2119261   0.83354124   0.99692109   0.73186669   -1.2465374            1    1.6041513    2.2220723    2.2172722   0.37310937 -0.014419552  0.078439924   0.01203743    1.4496907     1.473029   0.69875794  0.066666667    1.3308589        1e-08 1.7468949e-09     5.724443    2.4913774    30.403515 -0.00010551802  -0.21254702 -0.0085588326   0.16991884   -2.0221558    1.4682473 
 1019000    4.1754874    1.2638646    2.9116228  -0.21221616   0.84266627   0.99601745    0.7472432   -1.2465374            1    1.5964466    2.2321696    2.2150132   0.34215704 0.0033218507  0.041786128 -0.0051339854    1.4387408    1.4654432   0.68780293  0.066666667     1.365844        1e-08 1.7195073e-09    5.8156193    2.4892446    30.403515 0.0070468071  -0.20063714 0.0007671045   0.17399561   -1.3116043    3.2830205 
 1020000    4.1719484    1.2736635    2.8982849   -0.2233114   0.84919956   0.99355454   0.75938409   -1.2465374            1    1.6838884    2.2697223    2.2907925   0.49115039  0.014415719  0.091583442 -0.042611019    1.5236203     1.553209   0.69626322  0.066666667    1.3575047        1e-08 1.7406581e-09    5.7449538    2.4922821    30.403515 0.0077813253  -0.20961041 -0.0025009809   0.17406938   -1.0562423    5.2863788 
 1021000    4.1780463     1.267355    2.9106913  -0.21391265   0.84499346    1.0029028   0.74673015   -1.2465374            1    1.4774684     2.123814    2.1302143   0.17837688 -0.0019680772 -0.076908447  0.004676976    1.3198709    1.3455594   0.70997048  0.066666667    1.3377129        1e-08 1.7749262e-09     5.634037     2.495568    30.403515 -0.0058541843  -0.18483683  0.013710391   0.19432567  -0.36614816    1.6038432 
 1022000    4.1655548    1.2762389    2.8893158  -0.22932602   0.85091672    1.0263517   0.74173236   -1.2465374            1    1.5954505    2.1995461    2.2185437    0.3682616 -0.00037002119  -0.12364499 -0.014784921    1.4389077    1.4604573   0.70682533  0.066666667    1.3575008        1e-08 1.7670633e-09    5.6591068    2.5058754    30.403515 0.0072465164  -0.19992118 0.0047692589   0.17737918  -0.46284723   0.21997905 
 1023000     4.186537    1.2683563    2.9181807  -0.21949003   0.84566108    1.0032566   0.74759346   -1.2465374            1     1.535764    2.1674504    2.1575153    0.2823265  -0.01169625 0.0050191628 -0.0065286636    1.3779843    1.4038085   0.70063476  0.066666667    1.3550171        1e-08 1.7515869e-09    5.7091087    2.5235296    30.403515 -0.00067835612   -0.2263484 -0.0025026227   0.17609315  -0.85793545     0.903008 
 1024000    4.1921405    1.2835227    2.9086178  -0.21542791   0.85577307    1.0166739   0.75564728   -1.2465374            1    1.5773334     2.208289     2.210683   0.31302814 -0.0096210675 -0.091490721  0.014109915    1.4178539    1.4436131   0.69638304  0.066666667    1.3882535        1e-08 1.7409576e-09    5.7439653     2.490422    30.403515 -0.012933788  -0.20514244  -0.00163814   0.18270339   0.80878967    3.5616508 
 1025000     4.150643     1.287012     2.863631  -0.21352297   0.85809949    1.0140883   0.76103532   -1.2465374            1    1.6914139    2.3024712    2.2932856   0.47848502 -0.001922488 -0.065432648  0.041703551    1.5307973    1.5580337   0.70407406  0.066666667    1.3924057        1e-08 1.7601851e-09    5.6812205     2.480435    30.403515 0.0053618781  -0.20086907 -0.0038432402   0.22338515    1.9342767    1.7825968 
 1026000    4.1925056    1.2885589    2.9039467  -0.22116355   0.85913088    1.0299508   0.75282412   -1.2465374            1    1.5514889    2.1557213    2.1706924   0.32805319 -6.6570635e-05  -0.05185075  0.059626952    1.3926053    1.4160224     0.698567  0.066666667    1.3771634        1e-08 1.7464175e-09    5.7260077    2.4898095    30.403515 -0.0038519838  -0.16705746 0.0098824299   0.22762211    1.0457461    3.4739096 
 1027000    4.1576592    1.2713577    2.8863015  -0.21619621   0.84766222    1.0225676   0.73880737   -1.2465374            1    1.6056967    2.2104398    2.2204417   0.38620869  0.017625752  0.064828596  0.050535268    1.4497713    1.4712013    0.6950161  0.066666667    1.3683118        1e-08 1.7375403e-09    5.7552624    2.4824438    30.403515 0.0036651194  -0.18996536 -0.0031754674   0.18046137   -0.3405653   0.49492009 
 1028000    4.1838228    1.2684958     2.915327  -0.21114512    0.8457541    1.0024472   0.74824887   -1.2465374            1    1.4902951    2.0987771    2.1427039   0.22940423 -0.0023768158 -0.0098020773 -0.021154637     1.332377     1.358446   0.70427827  0.066666667    1.3610834        1e-08 1.7606957e-09    5.6795732     2.501997    30.403515 0.0023728499  -0.18417766  0.014284076    0.2175081  -0.40644308 -0.087706355 
 1029000    4.1519289     1.262845    2.8890839  -0.21870821   0.84198649    1.0140309   0.73491361   -1.2465374            1    1.6453135    2.2229519    2.2564157   0.45657288 0.0046278144 -0.083208932  -0.10686197    1.4902099    1.5119409   0.70941841  0.066666667    1.3381795        1e-08 1.773546e-09    5.6384214    2.4879572    30.403515 0.0078316143  -0.19833703 -0.0016496233   0.19410281   0.51912386     2.358184 
 1030000    4.1417485    1.2497134    2.8920352  -0.21752224   0.83323112    1.0104558   0.72292835   -1.2465374            1    1.5838145    2.2194681    2.1898865   0.34208888  0.010151625  -0.13258813 -0.023840054    1.4312404    1.4509121    0.7004694  0.066666667    1.3424137        1e-08 1.7511735e-09    5.7104565    2.4992416    30.403515 -0.0026302414  -0.18375605 -0.007109492   0.16565802    1.4981008   0.33620464 
 1031000    4.1601112    1.2658875    2.8942237  -0.20793127   0.84401501    1.0067491   0.74274469   -1.2465374            1    1.6663891    2.2504203    2.2868093   0.46193772 -0.029847152 -0.0076328408  0.033346747    1.5096327    1.5339742   0.69958196  0.066666667    1.3603437        1e-08 1.7489549e-09    5.7177003    2.5033695    30.403515 -0.0020442207  -0.23119926 -0.0079861602   0.21984369  -0.42100769    2.8872121 
 1032000     4.181535    1.2789586    2.9025763  -0.21683003   0.85273003      1.02264   0.74698919   -1.2465374            1    1.6358082    2.2426062    2.2409793   0.42383924  0.017135032 -0.047323521  0.033927728    1.4781561    1.5013033   0.70110253  0.066666667    1.3698812        1e-08 1.7527563e-09    5.7052996    2.4979146    30.403515 -0.0076709658  -0.17397697 0.0071203347   0.18870422    1.4973739    1.7391121 
 1033000    4.1850872     1.263276    2.9218112  -0.21273581   0.84227382   0.99834255   0.74515709   -1.2465374            1    1.4137797    2.0880252    2.0531453   0.10016858  -0.01389054  -0.06164859  0.011950223    1.2565142    1.2824705   0.70796151  0.066666667    1.3735724        1e-08 1.7699038e-09    5.6500247    2.4919579    30.403515 -0.0076106788  -0.21575115 -0.0010261819   0.19206479    1.6406422   0.24594382 
 1034000    4.1505748    1.2528521    2.8977227  -0.22220689   0.83532382   0.98901196   0.73968949   -1.2465374            1    1.5291465    2.1822501     2.138972   0.26621745 -0.010494977  0.077758458  0.038758794    1.3730349    1.3990645   0.70533267  0.066666667    1.3698643        1e-08 1.7633317e-09    5.6710829    2.5002008    30.403515 -0.0086600958  -0.23018664   0.00411657   0.18779604  -0.38238193   -2.9501474 
 1035000    4.1564495    1.2533367    2.9031128  -0.21703077   0.83564693    1.0060064   0.72962302   -1.2465374            1    1.5230734    2.1400962     2.168424   0.26070007 0.0039001028 0.0081776669 -0.032393576    1.3690864    1.3907562   0.70289381  0.066666667    1.3703498        1e-08 1.7572345e-09      5.69076    2.4915257    30.403515 0.0046245306  -0.19002101 -0.017348012    0.1765735   0.20233734    1.8244542 
 1036000    4.1780842    1.2825583    2.8955259  -0.22202238   0.85513005    1.0238372   0.75013921   -1.2465374            1    1.5867486    2.2164132    2.1784996   0.36533289 0.0060498197 -0.031815524  -0.02046737    1.4284316    1.4520862   0.70541135  0.066666667    1.4095556        1e-08 1.7635284e-09    5.6704503    2.4751027    30.403515 0.0073972545  -0.19512125 -0.0036577667   0.19413368   0.93287775    0.1234221 
 1037000    4.1783773    1.2800627    2.8983146  -0.21406625   0.85346617    1.0245394   0.74700055   -1.2465374            1     1.618779    2.2481621    2.2381154   0.37005964 -0.019556712 -0.048520356 -0.045576597    1.4611244    1.4840242   0.70417324  0.066666667      1.40947        1e-08 1.7604331e-09    5.6804204    2.4763359    30.403515 -0.011241842  -0.19555208 -0.0073937645   0.18436774   -1.0248262    2.7505644 
 1038000    4.1542625    1.2691673    2.8850952  -0.22463058   0.84620179    1.0007799   0.75001471   -1.2465374            1    1.5291261    2.1686589    2.1690729   0.24964644 0.0089288557   -0.1232493 -0.037199599    1.3708354    1.3974963   0.70609868  0.066666667    1.4014943        1e-08 1.7652467e-09    5.6649306     2.505687    30.403515 -0.019145348  -0.19574577 -0.013400524   0.19178849   0.66983323 -0.094215692 
 1039000    4.1448413    1.2688096    2.8760317  -0.22306516   0.84596326    1.0049273   0.74704284   -1.2465374            1     1.539398    2.1697458    2.1541141   0.29433423  0.012123533 -0.037749583  0.024822017    1.3817345    1.4072228   0.70119392  0.066666667    1.3985957        1e-08 1.7529848e-09     5.704556    2.4921932    30.403515  -0.01501638  -0.20848211 0.0069919904   0.17179587   0.57130218    2.5464738 
 1040000     4.157398    1.2627055    2.8946925   -0.2118009   0.84189344    1.0067409   0.73930571   -1.2465374            1    1.5982409    2.2095018    2.2099127   0.37530806  0.014491936  0.010079149  0.018238915    1.4422103    1.4658271   0.70408064  0.066666667    1.4255454        1e-08 1.7602016e-09    5.6811674     2.484322    30.403515 0.0070179257  -0.20042501  -0.02251811   0.20066247   0.63498792     1.191899 
 1041000    4.1718655    1.2667599    2.9051055  -0.21911434   0.84459671   0.99799572   0.74914417   -1.2465374            1    1.5859511    2.2082083    2.2189623   0.33068271 -0.0025530849  0.099034285  0.083239112    1.4278441    1.4546875   0.71152987  0.066666667    1.4074345        1e-08 1.7788247e-09    5.6216895    2.4952796    30.403515 -0.0012452183  -0.18577747  0.024753487   0.19219415    1.2988493    1.5686914 
 1042000    4.1681391    1.2651422    2.9029969  -0.20636316    0.8435181   0.99411352   0.74981258   -1.2465374            1    1.5536627    2.1792308    2.1846635   0.29709381  0.012688695    0.2023063  0.035720445    1.3954146    1.4229098    0.7004576  0.066666667    1.3937318        1e-08 1.751144e-09    5.7105527    2.5000886    30.403515 -0.0038937272  -0.18633923 -0.0022780299   0.18374661   -1.5131325    1.6999676 
 1043000    4.1611363    1.2650289    2.8961073  -0.21188559   0.84344257    1.0014958   0.74508928   -1.2465374            1    1.5734415    2.1894619    2.2015355   0.32932701 -0.011917653    0.1160745  0.036617166    1.4161903    1.4417175   0.70171493  0.066666667    1.3991508        1e-08 1.7542873e-09    5.7003205    2.4927223    30.403515 -0.028010256  -0.20867124 -0.0035617653   0.16368885   -0.6578703    2.5197239 
 1044000    4.1587781    1.2731643    2.8856138  -0.22200792   0.84886673    1.0023912   0.75333675   -1.2465374            1    1.6874805    2.2880613    2.2664038   0.50797657 -0.018105042 -0.034410467  0.014584147    1.5284887    1.5556388   0.70932414  0.066666667    1.4219325        1e-08 1.7733104e-09    5.6391708    2.4949104    30.403515 -0.0060000833  -0.19978015 0.0049084964   0.20981091  -0.31556115    6.2606351 
 1045000    4.1775498    1.2697164    2.9078334  -0.20724054   0.84656792    1.0131972   0.74287058   -1.2465374            1    1.5733451    2.1930782    2.2041262   0.32283098 -0.012581611   0.18734878 -0.047883116    1.4165622    1.4400821   0.70094983  0.066666667    1.4514383        1e-08 1.7523746e-09    5.7065425    2.4913499    30.403515 0.0025771923  -0.19458978 0.0099258126   0.19404277   -2.9362691    2.2889543 
 1046000    4.1667035    1.2491552    2.9175482  -0.20606686   0.83285899    1.0012804   0.72804241   -1.2465374            1    1.7357021    2.3355263    2.3034141   0.56816587 0.0086738064 -0.074944083 0.0022066001    1.5820486    1.6040065   0.70738933  0.066666667    1.4446074        1e-08 1.7684733e-09    5.6545948    2.4961939    30.403515 0.0016030317  -0.18031121 -0.00010213224   0.16834306   0.71783405    3.3434953 
 1047000    4.1438147    1.2703793    2.8734354  -0.21912506   0.84700988     1.013619   0.74332518   -1.2465374            1    1.7013093    2.2964164     2.296961   0.51055044 -0.002581304 -0.014777913 -0.012967088    1.5444304    1.5679908   0.71539525  0.066666667    1.4419406        1e-08 1.7884881e-09    5.5913147    2.4892405    30.403515 -0.0044718878  -0.18565888 -0.0064915078   0.20759106  -0.14876621    3.8822513 
 1048000    4.1351915    1.2587764    2.8764151  -0.22594381   0.83927375   0.98349234   0.74954156   -1.2465374            1    1.4074667    2.0644276    2.0659626  0.092009715 -0.0090338937 -0.042813533 -0.047965883    1.2492758    1.2781107   0.70733959  0.066666667    1.4109276        1e-08 1.768349e-09    5.6549924    2.5083084    30.403515 0.0058999026  -0.18750336  0.013341353   0.17718231  -0.67364964   -2.8019111 
 1049000    4.1618221    1.2694466    2.8923756  -0.21504392   0.84638799   0.98475406   0.76030434   -1.2465374            1    1.6206937    2.2377687    2.2422559   0.38205651 -0.013322521  -0.15679831  0.042521926    1.4602314    1.4911718   0.70106448  0.066666667    1.4247017        1e-08 1.7526612e-09    5.7056093    2.5096885    30.403515 -0.0054260378  -0.19775607  0.014533758   0.19877205   0.85084218    2.9220065 
 1050000    4.1483922    1.2743672    2.8740251  -0.22031384   0.84966874   0.99665666   0.75821249   -1.2465374            1    1.5581438    2.1593808    2.1994937   0.31555704 -0.00011545125 -0.065195105 -0.015589638     1.398123    1.4270564   0.69933232  0.066666667    1.4295128        1e-08 1.7483308e-09    5.7197414    2.4971578    30.403515  0.010842324  -0.18076944 0.0070313921   0.19300865   0.34561141  -0.29602981 
 1051000    4.1594295    1.2833133    2.8761162  -0.22727923   0.85563343     1.011957   0.75836019   -1.2465374            1    1.6104902    2.1933501    2.2179647   0.42015579 0.0047304068 -0.0010859535 -0.0029141392    1.4504382    1.4773903   0.71081235  0.066666667    1.4330028        1e-08 1.7770309e-09    5.6273642     2.489735    30.403515 0.0030099907  -0.17971249 -0.0016773462     0.203216    1.6114314    3.2255492 
 1052000    4.1884447    1.2844824    2.9039623  -0.22696035   0.85641294    1.0109246   0.76026906   -1.2465374            1    1.5878228    2.1763148    2.1988096   0.38834394  0.018929217 -0.056278445 -0.041825231    1.4273679    1.4548587   0.70890509  0.066666667    1.4288111        1e-08 1.7722627e-09    5.6425043    2.4940228    30.403515 0.0022646658  -0.20527646 -0.0046544873   0.19412274    1.6166425    2.5363385 
 1053000     4.189453    1.2690247    2.9204283   -0.2191356   0.84610671   0.99075798   0.75610605   -1.2465374            1    1.4738865     2.116622    2.1176325   0.18740514 0.0085187849  0.062149241  0.016764021    1.3143102    1.3435749   0.69877425  0.066666667    1.4320511        1e-08 1.7469356e-09    5.7243094    2.5138209    30.403515 0.0089916765  -0.15629705 0.0048931193   0.19657584 -0.060711682   -1.6960721 
 1054000    4.1690445    1.2540499    2.9149947   -0.2167079   0.83612241    1.0024636   0.73260276   -1.2465374            1    1.4343165    2.0985549    2.0812416   0.12315297 0.0055137788   0.11374161  0.064170726    1.2797005    1.3024652   0.69685284  0.066666667    1.4151118        1e-08 1.7421321e-09    5.7400929    2.5018916    30.403515 -0.0014190306    -0.158787  0.007793685   0.16714844   0.58236563    1.6999239 
 1055000    4.1841253     1.267283    2.9168423  -0.22078641   0.84494543    0.9922963   0.75326217   -1.2465374            1    1.6830253    2.2381425    2.2892916   0.52164172 0.0058073549    0.1006888 -0.051748715    1.5240492    1.5525113   0.70872935  0.066666667     1.423692        1e-08 1.7718234e-09    5.6439035    2.4968494    30.403515 -0.0066759711  -0.19999154 -0.010482089   0.21165752   0.21033977    4.9627088 
 1056000    4.1719986    1.2658076     2.906191  -0.21403281   0.84396178    1.0122011   0.73926059   -1.2465374            1    1.5463827     2.168312    2.1960897   0.27474639  0.015747519   0.14589105  0.018260817    1.3903616    1.4132507   0.71126486  0.066666667    1.4535918        1e-08 1.7781622e-09    5.6237841    2.4940827    30.403515 -0.003621554  -0.18755325 -0.0023563221   0.22779689     -0.25492   0.70763795 
 1057000    4.1639711    1.2638599    2.9001112  -0.21501386   0.84266311    1.0030444   0.74285887   -1.2465374            1    1.5890161    2.2052197    2.2097461   0.35208249 -0.013245766  0.087658595  0.049596202    1.4322356    1.4570885   0.69639574  0.066666667    1.4568139        1e-08 1.7409893e-09    5.7438605    2.4804133    30.403515 -0.011220281  -0.17784089 0.0007570606   0.18721569     0.214793 0.0044154302 
 1058000    4.1802692     1.267055    2.9132142  -0.21246065   0.84479345    1.0071517    0.7437575   -1.2465374            1    1.5336249    2.1767497    2.1321489   0.29197603 -0.0036553589  0.022169934   -0.0230707    1.3766548    1.4011571   0.70178593  0.066666667    1.4467531        1e-08 1.7544648e-09    5.6997438    2.4997161    30.403515 -0.00041652366  -0.21298637  0.014739989   0.20261819   -1.2270707  -0.29118202 
 1059000    4.1509755    1.2708042    2.8801713   -0.2179623   0.84729317    1.0189826   0.74044244   -1.2465374            1    1.7450967    2.3250702    2.3355229   0.57469707 -0.0063433739  0.063281248 -0.037183903    1.5888262    1.6110728   0.70772388  0.066666667    1.4741148        1e-08 1.7693097e-09    5.6519217    2.4824675    30.403515 0.0018505907  -0.21785649 0.0077853967   0.18629287    -2.045213    3.2742652 
 1060000     4.159525    1.2538911    2.9056339  -0.21922157    0.8360166    1.0105069   0.72741839   -1.2465374            1    1.5238912    2.1634523    2.1638357    0.2443856 -0.0042090004  0.048723402 -0.0047356857    1.3703695    1.3909821   0.70447824  0.066666667    1.4774623        1e-08 1.7611956e-09     5.677961    2.5046828    30.403515 -0.0050421761  -0.23294729   0.01472718   0.18101698   -1.1856341    0.6025221 
 1061000    4.1545845    1.2715869    2.8829975  -0.21781033   0.84781505    1.0089977    0.7475123   -1.2465374            1     1.769326    2.3195041    2.3543601   0.63411375 0.0053844197 -0.010237591  0.071872435    1.6115634    1.6366153   0.70423744  0.066666667    1.4651321        1e-08 1.7605936e-09    5.6799025    2.5193243    30.403515 0.0058802017  -0.24622208 0.0037683952   0.19399423  -0.76741249    1.8747491 
 1062000    4.1677164    1.2725254     2.895191  -0.21463254   0.84844077    1.0021829   0.75277508   -1.2465374            1    1.4393625    2.1271907    2.1022044   0.08869227  0.029574252  0.010063245 0.0040941749    1.2804892    1.3075482    0.7066519  0.066666667    1.4688297        1e-08 1.7666298e-09    5.6604956    2.4939005    30.403515 -0.0014119106  -0.16952844  0.012258966   0.21801596   0.26909628  -0.91070981 
 1063000    4.1665653    1.2789501    2.8876152  -0.21555498   0.85272433    1.0079587   0.75612939   -1.2465374            1    1.7054718    2.2892051    2.3099081   0.51730208 -0.00012514758   0.14113155  0.065081581    1.5458905    1.5728978    0.7046311  0.066666667    1.4544771        1e-08 1.7615777e-09    5.6767293    2.4683272    30.403515 0.00043675511  -0.18002451 -0.0035351472    0.2008571     1.163184   0.78197482 
 1064000    4.1749839    1.2612443    2.9137396  -0.21297076   0.84091919    1.0073812   0.73732512   -1.2465374            1    1.6598808     2.270602    2.2298222   0.47921805 -0.0013103197  0.074061194 -0.0061397854    1.5042682    1.5273827   0.70904577  0.066666667    1.4802065        1e-08 1.7726144e-09    5.6413847     2.485987    30.403515 0.0059420676  -0.23244171 -0.014007585   0.24364171   0.92765077  -0.81983163 
 1065000    4.1856873    1.2795005    2.9061868  -0.22441141    0.8530913    1.0041167   0.75911943   -1.2465374            1    1.3295769    2.0059965    1.9868455 -0.0041111236 -0.0069059605  0.050811625 -0.015675756    1.1693647    1.1975083   0.69853605  0.066666667     1.458722        1e-08 1.7463401e-09    5.7262614    2.4914216    30.403515  0.016242554  -0.19172906 0.0026728032   0.20546858    1.8997197   0.53563661 
 1066000    4.1670364    1.2693988    2.8976375  -0.21469607   0.84635616   0.99551273   0.75354783   -1.2465374            1    1.7678329    2.3176862    2.3419005   0.64391204 -0.0063881885 -0.012133054 0.0084719798    1.6087965    1.6368959   0.70282279  0.066666667    1.4296749        1e-08 1.757057e-09     5.691335    2.4923223    30.403515 -0.010613414  -0.23045413 0.00061216764   0.20303269    2.0644394    4.2676409 
 1067000    4.1584546    1.2663244    2.8921302  -0.22367112   0.84430629   0.99531575   0.75034287   -1.2465374            1    1.7190077    2.2830954    2.3251711   0.54875646   0.01656114  0.017413031 -0.0046863941    1.5606477    1.5880966   0.71216205  0.066666667    1.4310552        1e-08 1.7804051e-09    5.6166992     2.484866    30.403515 0.00074099274  -0.19679799 0.0016232344   0.19967234     -1.21688    1.8068587 
 1068000    4.1416109    1.2851723    2.8564386   -0.2246389   0.85687293    1.0081687   0.76273324   -1.2465374            1     1.638783    2.2567493    2.2474175   0.41218216 -0.0038866198 -0.028707473 -0.048796871     1.477808    1.5061814   0.71372229  0.066666667    1.4122931        1e-08 1.7843057e-09    5.6044207    2.4774988    30.403515 0.00075267396  -0.18838272 0.0066096462   0.20043846  -0.60489872    1.4642168 
 1069000    4.1710433    1.2766349    2.8944085  -0.20675658   0.85118069   0.99813837   0.75974354   -1.2465374            1    1.5857318    2.1997363    2.2150281   0.34243106 -0.002410995  -0.11671467  0.045822446    1.4253878    1.4544495   0.70557081  0.066666667    1.4371281        1e-08 1.763927e-09    5.6691688    2.4921121    30.403515 0.0036805541  -0.19489707 0.0053986154   0.18171024   0.90026663   -1.6694433 
 1070000    4.1881669    1.2737929     2.914374  -0.21208202   0.84928582   0.98426394   0.76531405   -1.2465374            1    1.5632517    2.1646137    2.1894361   0.33570516 -0.010253979  -0.16665975 0.0079796986     1.401732    1.4337942   0.70363815  0.066666667    1.4190348        1e-08 1.7590954e-09    5.6847401    2.4972396    30.403515 0.00021925408  -0.23615797 0.0032720245   0.19125268  -0.30343576  -0.22363223 
 1071000    4.1625915     1.269504    2.8930874  -0.22116551   0.84642629   0.99267829   0.75542811   -1.2465374            1    1.5963556    2.2069873    2.2195353   0.36254413 -0.013558532 -0.030899911  0.014932533    1.4369224    1.4657914   0.70737154  0.066666667    1.4301591        1e-08 1.7684289e-09    5.6547369    2.5027063    30.403515  0.010206253  -0.17251321 -0.017120226   0.17726383  -0.94447972    1.9669652 
 1072000    4.1609895    1.2587966    2.9021929  -0.20503678   0.83928725   0.99073677   0.74504871   -1.2465374            1     1.557671    2.1774518    2.2099347   0.28562655  0.015608858 -0.096959745  0.042582452    1.4004284    1.4273622   0.70355387  0.066666667    1.4070618        1e-08 1.7588847e-09    5.6854211    2.5079147    30.403515 0.00039900292   -0.1784079 0.0042076094   0.21991019 -0.073871862   -0.2972057 
 1073000    4.1738138    1.2719057    2.9019081  -0.22076806   0.84802756   0.99249679   0.75814068   -1.2465374            1    1.5132028    2.1615527    2.1242056   0.25385016  0.013369333 -0.057402846 -0.039498802    1.3531971    1.3826625    0.6994796  0.066666667    1.4036372        1e-08 1.748699e-09     5.718537    2.4929907    30.403515 -0.012159941  -0.22387827 -0.0040721633   0.16665248   0.89305368     1.160943 
 1074000    4.1858805    1.2898771    2.8960033  -0.21835236   0.86000981    0.9976276   0.77439485   -1.2465374            1    1.5998737    2.2031773    2.2212864   0.37515757 -0.021200713  0.046502622  0.051682068    1.4364376    1.4686586   0.70599214  0.066666667    1.4091386        1e-08 1.7649803e-09    5.6657855     2.485708    30.403515  0.011950438  -0.16079376 -0.0035331599   0.17804449   -0.2111173    2.7741521 
 1075000    4.1592734    1.2654278    2.8938456  -0.20760156   0.84370851   0.97737773   0.76055149   -1.2465374            1    1.6311521    2.2426319    2.2361333   0.41469115  0.009334369 -0.025387376  0.057219611    1.4706376    1.5026004   0.70673227  0.066666667    1.4155506        1e-08 1.7668307e-09     5.659852    2.4789818    30.403515  0.013325799  -0.18849825  0.012444603   0.20683703   0.95767836    3.1295845 
 1076000    4.1647957     1.267974    2.8968218  -0.20668233   0.84540613   0.99081909   0.75493067   -1.2465374            1    1.5668309    2.1975883    2.1794879   0.32341656 -0.00091040508   0.02386096 0.0083322989    1.4075027    1.4365113    0.6997553  0.066666667    1.4181565        1e-08 1.7493883e-09    5.7162839    2.4926337    30.403515 -0.010076894  -0.18852331  0.025079904   0.21557766   0.90620009    2.4278028 
 1077000    4.1880004    1.2884885     2.899512  -0.21912631   0.85908393    1.0215944   0.75795561   -1.2465374            1    1.5820779     2.196852    2.1964311    0.3529507 -0.014778309   0.02551306 -0.048369458    1.4221113    1.4477105   0.70801416  0.066666667    1.4139715        1e-08 1.7700354e-09    5.6496045    2.4984164    30.403515  0.017355101  -0.17569474 0.0047786636   0.20951019   0.15100937 -0.082998835 
 1078000    4.1740499    1.2690755    2.9049744  -0.21601936    0.8461406   0.99574231   0.75305481   -1.2465374            1    1.6194007    2.2310394    2.2373709   0.38979174 0.0055650573 -0.060901232 -0.00071809744    1.4604683    1.4884335   0.70191411  0.066666667    1.4003975        1e-08 1.7547853e-09    5.6987029    2.4954706    30.403515 0.0044165347  -0.17985009  0.018629443   0.18216951   0.97671985    2.2162767 
 1079000    4.1802734    1.2809705    2.8993029  -0.22435289   0.85407141    1.0048134   0.76027639   -1.2465374            1    1.4923502    2.1119769    2.1458824   0.21919113  0.005772653 -0.043201443  0.051228556    1.3318937    1.3601899   0.69696379  0.066666667    1.4195328        1e-08 1.7424095e-09    5.7391791    2.4840867    30.403515 0.0095400738  -0.19271521 0.00023648369   0.18884075   0.65621418  -0.12914805 
 1080000    4.1616206    1.2515436     2.910077  -0.21244135   0.83445138   0.98426796   0.74122967   -1.2465374            1    1.5924333    2.2100346    2.1973114   0.36995393 -0.010309648  -0.03656298  0.028224843    1.4359967    1.4629753   0.70106394  0.066666667    1.4120994        1e-08 1.7526598e-09    5.7056137    2.4947023    30.403515 0.0025273307  -0.19376373  0.012190996   0.17831807   0.65228062   -1.0839929 
 1081000    4.1633093     1.259077    2.9042323  -0.21093789   0.83947418   0.99312304   0.74386504   -1.2465374            1    1.5449927    2.1654108    2.1900918   0.27947557 0.0035101679 -0.048998022 -0.051253812    1.3879999      1.41437   0.70912281  0.066666667    1.4396549        1e-08 1.772807e-09    5.6407719    2.4960844    30.403515 0.0051567432  -0.18412983 -0.0061633239   0.20264193     1.402486   0.61225308 
 1082000    4.1694217    1.2695117      2.89991  -0.22021547   0.84643141    1.0041669   0.74827666   -1.2465374            1    1.7368276    2.3219591    2.3280651   0.56045863    0.0171542 0.0022231594   0.02274866    1.5789037    1.6047524   0.70700652  0.066666667    1.4508642        1e-08 1.7675163e-09    5.6576564    2.4993322    30.403515 -0.0031600278   -0.1892145 0.0054260881   0.17754148  -0.86744142     2.826874 
 1083000    4.1723884    1.2434345    2.9289538  -0.20845511   0.82904477   0.97844198   0.73608347   -1.2465374            1    1.4853753    2.0853287    2.1312102   0.23958708 0.0035167704  -0.09374342  0.073742313    1.3300248    1.3566836   0.70346126  0.066666667    1.4433076        1e-08 1.7586531e-09    5.6861696    2.4874766    30.403515  0.013080425  -0.20458744 0.0046744446    0.1641173    1.2451551  -0.37723747 
 1084000    4.1958778    1.3008953    2.8949826  -0.21527113   0.86735601     1.005393   0.78148107   -1.2465374            1    1.6985795    2.2760978    2.2908112    0.5288296  -0.01072973  0.064926414 -0.0065800444    1.5336478     1.566343    0.7117923  0.066666667    1.4446974        1e-08 1.7794808e-09    5.6196168    2.4988443    30.403515 -0.0027569953  -0.16986935 -0.013271964   0.22230384   0.24951262    1.6332878 
 1085000    4.1796421    1.2697965    2.9098456  -0.21484303   0.84662129    1.0016259    0.7501685   -1.2465374            1    1.5713711    2.1985718    2.1913288   0.32421275 -0.013920282   0.10053959 0.0053411799     1.413048    1.4396301   0.70614576  0.066666667    1.4414412        1e-08 1.7653644e-09    5.6645529    2.4784776    30.403515 0.0080426415  -0.17604607  0.013145927   0.20863232   -1.3841912   -2.6833654 
 1086000    4.1855831    1.2775112    2.9080719  -0.21203885   0.85176496    1.0052269   0.75627445   -1.2465374            1    1.5663553    2.1884393    2.1931755   0.31745114 -0.018757299  0.042815393 -0.049444968    1.4067435    1.4341406   0.70192754  0.066666667    1.4474709        1e-08 1.7548189e-09    5.6985939    2.5019958    30.403515 -0.010561562  -0.17236924 -0.0077978091   0.17321273   0.38167444   -0.4939932 
 1087000    4.1529306    1.2687912    2.8841393  -0.21540957   0.84595105    1.0143184    0.7411704   -1.2465374            1    1.6292904    2.2416468    2.2299148   0.41630957  0.014254804 -0.026416296  0.043582707    1.4728662    1.4958799   0.70658532  0.066666667    1.4622462        1e-08 1.7664633e-09     5.661029    2.5087061    30.403515 -0.00061593873  -0.16883825 -0.0026209097   0.20745708  0.031838941    2.5914651 
 1088000    4.1835789    1.2840289    2.8995501  -0.21110101   0.85611056    1.0193958   0.75449891   -1.2465374            1    1.6458077    2.2577091    2.2366948   0.44301907  -0.02557505  0.041410735 -0.0060294863    1.4865706    1.5117294   0.71114739  0.066666667    1.4905204        1e-08 1.7778685e-09     5.624713    2.5155489    30.403515 -0.0038871414  -0.17135307 0.0056486405   0.17044075  -0.19277456    1.5326393 
 1089000    4.1730027    1.2633974    2.9096053  -0.21165268   0.84235477    1.0136238   0.73576518   -1.2465374            1    1.5684085    2.1851409    2.1805204   0.33956433 -0.012407582  0.047891363  -0.01582405    1.4131252    1.4350895   0.69811571  0.066666667    1.5083695        1e-08 1.7452893e-09    5.7297092    2.4734155    30.403515 -0.015320832  -0.16483741 -0.019610502   0.18201516  -0.54308937     2.307451 
 1090000    4.1737614    1.2689214      2.90484  -0.21077865   0.84603782     1.013362   0.74190734   -1.2465374            1      1.60843    2.2139071    2.2280516   0.38333131 -0.011313759 0.0020102224  0.011472978    1.4518503    1.4751453   0.70330184  0.066666667    1.4839733        1e-08 1.7582546e-09    5.6874584    2.5225366    30.403515 0.0039032986   -0.1760105 -0.013144596   0.18922564    -1.192542     1.099928 
 1091000    4.1341995    1.2539816    2.8802178  -0.21887046   0.83607693    1.0023857   0.73257749   -1.2465374            1    1.5066933    2.1214035    2.1556685   0.24300792  0.006518256  0.031506801 -0.055249358    1.3520827    1.3748523   0.70274654  0.066666667    1.4809437        1e-08 1.7568664e-09    5.6919526    2.4756451    30.403515 0.0030453171  -0.17847676  0.020967663   0.23611771   0.92339741    1.0194902 
 1092000    4.1958981    1.2998392    2.8960589  -0.21915821   0.86665191    1.0429567   0.75692823   -1.2465374            1    1.6637775    2.2589824    2.2406947   0.49165555 -0.014162431 -0.025449978 -0.020849108    1.5040277    1.5266004   0.71465701  0.066666667    1.4802826        1e-08 1.7866425e-09    5.5970906    2.5009773    30.403515 -0.016287679  -0.20657812 -0.012512421   0.17892813    1.2866703    4.2741277 
 1093000    4.1753648    1.2707807    2.9045841  -0.21354128   0.84727752    1.0400463   0.72729005   -1.2465374            1    1.4721009    2.1328871    2.1209266   0.16248901  -0.01145401 -0.082157053 -0.043558759    1.3186062    1.3353065   0.70070108  0.066666667    1.4690019        1e-08 1.7517527e-09    5.7085684    2.5036952    30.403515 -0.0079383665  -0.17127736 -0.024407363   0.18328223    1.0381126    1.9966032 
 1094000    4.1621885    1.2586553    2.9035332  -0.21074108   0.83919301    1.0119514   0.73167467   -1.2465374            1     1.534153    2.1764042    2.1643191   0.26173569  0.017242794  -0.15134732  0.035461668    1.3797329    1.4010539   0.69255165  0.066666667    1.4715789        1e-08 1.7313791e-09    5.7757425    2.4980879    30.403515  -0.01004418  -0.18718714  0.011847947   0.17636612    1.0509725    3.6915104 
 1095000    4.2134724    1.2739333    2.9395391  -0.21349875   0.84937948    1.0098572   0.74951627   -1.2465374            1    1.5577761     2.168111    2.1934831   0.31173415 -0.0045342436  -0.20769595 -0.032926184    1.3995905    1.4249524   0.69757175  0.066666667    1.4618634        1e-08 1.7439294e-09    5.7341772    2.4934871    30.403515 0.0083664205  -0.18846651 -0.0075312308    0.1878404    0.3811797   0.81540783 
 1096000    4.1889893    1.2868078    2.9021815  -0.22957439   0.85796337    1.0173751   0.75876596   -1.2465374            1    1.4989323    2.1161708     2.119103   0.26152306 -0.019006163  0.033381563  0.038529928    1.3387946    1.3651198   0.71438506  0.066666667    1.4627871        1e-08 1.7859626e-09    5.5992213    2.5260993    30.403515 -0.0069517925  -0.20872126 -0.0056751264   0.20307585 -0.050365728   0.15048317 
 1097000    4.1977426    1.2749734    2.9227692  -0.19971547   0.85007292    1.0028892   0.75498447   -1.2465374            1    1.6807666      2.29218    2.2979552   0.45216477 -0.00087585623 0.0072130208 -0.0085889301     1.521427    1.5488594   0.70824825  0.066666667    1.4562069        1e-08 1.7706206e-09    5.6477372     2.519464    30.403515 -0.0047740084  -0.22052728 -0.0067818365   0.18578527    1.0417882    3.1667196 
 1098000    4.1890171    1.2912594    2.8977578  -0.20938986   0.86093141    1.0162159   0.76430665   -1.2465374            1    1.6107989    2.2240946    2.2266895   0.38161258 -0.018988352 -0.018720312 -0.011888724    1.4494918    1.4771388   0.70012535  0.066666667     1.479422        1e-08 1.7503134e-09    5.7132626    2.5113282    30.403515 -0.0062057244  -0.18958073 -0.0031127496    0.1730978  -0.62808983    1.2088558 
 1099000    4.1695954    1.2610545    2.9085409  -0.20470081   0.84079266    1.0167261   0.73129593   -1.2465374            1    1.5637516    2.1992812    2.1822783    0.3096953 0.0049176992 -0.021045378  0.013093398    1.4094115    1.4300245   0.70286492  0.066666667    1.4516569        1e-08 1.7571623e-09     5.690994    2.4869721    30.403515 0.0066261963  -0.16476475  0.015301383    0.2023607   0.36225559    1.9241705 
 1100000    4.1838858     1.279361    2.9045249  -0.21855092   0.85299828    1.0257755   0.74547063   -1.2465374            1    1.6277256    2.2271406    2.2596943    0.3963418 -0.012867105  0.011192113 -0.047104683    1.4703939    1.4928082   0.70219006  0.066666667    1.4303098        1e-08 1.7554751e-09    5.6964634    2.4808967    30.403515 -0.0029617387  -0.16394033 -0.010505579   0.16597548   -1.7039959    1.2569616 
 1101000    4.2214046    1.3209281    2.9004766   -0.2166753   0.88071266    1.0479072   0.77666896   -1.2465374            1    1.6378294    2.2261614     2.242171   0.44515559 -0.015536505 -0.040115537  0.012160218    1.4739132    1.5000011   0.70195531  0.066666667    1.4294384        1e-08 1.7548883e-09    5.6983685    2.5007651    30.403515 0.0057856408  -0.18536623 -0.0018958561   0.20332747  -0.23705027    3.2289818 
 1102000    4.2126413    1.2960321    2.9166092  -0.21550125   0.86411356    1.0359658   0.75716431   -1.2465374            1     1.522135    2.1452195    2.1621951   0.25899048  0.015241343  0.020231581 0.0019810368    1.3623353    1.3858773   0.69869569  0.066666667    1.4173433        1e-08 1.7467392e-09     5.724953    2.4760496    30.403515 -0.0022784682  -0.17216381  0.014893929    0.1952214    2.5395171    2.5941339 
 1103000    4.2045248    1.2721742    2.9323506  -0.20531435   0.84820661    1.0251411   0.73808733   -1.2465374            1    1.4470718    2.0935591    2.0847642   0.16289194 0.0055384118 0.0029047284 -0.0032822091    1.2912983    1.3122378   0.70167024  0.066666667    1.4280798        1e-08 1.7541756e-09    5.7006836    2.5067721    30.403515 9.0527839e-06   -0.2215786  -0.02795593   0.20994005  -0.52781613  -0.16582753 
 1104000    4.2345063    1.3094665    2.9250398  -0.21476191    0.8730708    1.0247242   0.77871107   -1.2465374            1    1.6221865    2.2450198    2.1867618   0.43477802  0.028789822  0.052734866  0.030462838    1.4578394    1.4874074   0.70880653  0.066666667    1.4389758        1e-08 1.7720163e-09    5.6432889    2.4976599    30.403515 0.0034716252  -0.19639148  -0.00285997   0.20801805   0.84894478     4.161346 
 1105000    4.1850664     1.282659    2.9024074  -0.22607861   0.85519722    1.0155647   0.75540375   -1.2465374            1    1.6156048    2.2268239    2.2141976   0.40579274 -0.00041001217 -0.049893509  -0.05588252    1.4561767    1.4820304   0.70369575  0.066666667    1.4225194        1e-08 1.7592394e-09    5.6842748    2.4949518    30.403515 0.0085633328   -0.1737614 -0.0011470481   0.17182456    1.4097914    1.3991691 
 1106000    4.1826486    1.2867361    2.8959125  -0.21574238   0.85791558    1.0381261   0.74575633   -1.2465374            1    1.6449139    2.2462525    2.2471452   0.44134401 -0.0030390839 -0.019841338  0.012484297    1.4875219    1.5083721   0.69759203  0.066666667    1.4167452        1e-08 1.7439801e-09    5.7340105    2.5052783    30.403515 0.00068539709  -0.16181762 0.0037572062   0.16388885  -0.68306161    2.7467846 
 1107000    4.1906777    1.2814289    2.9092489  -0.21639477   0.85437704    1.0169772   0.75319201   -1.2465374            1    1.6575806    2.2664864    2.2784578   0.42779756 -0.00092876704  -0.10418629  0.036231967    1.4986193    1.5238205   0.70040615  0.066666667     1.418986        1e-08 1.7510154e-09    5.7109721    2.4917156    30.403515 -0.0013158329  -0.20881721 0.0050676031   0.20015061    1.8019004    2.4692282 
 1108000    4.1755851    1.2790085    2.8965766  -0.22283804   0.85276326    1.0143199   0.75222828   -1.2465374            1    1.4933591    2.1318639    2.1443035   0.20390993 -0.0067576619  0.024782711  0.007635652    1.3346012    1.3599485   0.69803192  0.066666667    1.4214435        1e-08 1.7450798e-09     5.730397    2.4951144    30.403515 -0.0071646494  -0.17843584 0.0040591609   0.21355184   0.64896429  -0.15376088 
 1109000    4.1677422    1.2771738    2.8905683  -0.21443461   0.85154004     1.037992   0.73548997   -1.2465374            1    1.5717437    2.1826674    2.2022635   0.33030011  0.020827038   0.05712585 -0.0028898466    1.4165184    1.4352195   0.70536172  0.066666667    1.4603993        1e-08 1.7634043e-09    5.6708493    2.4846126    30.403515 0.00036736344  -0.20933543 -0.0089995891   0.20556446   0.84684322  -0.66155947 
 1110000    4.1834968    1.2812437    2.9022531    -0.215738   0.85425356    1.0241132   0.74854439   -1.2465374            1    1.4326537    2.0769682    2.0934581   0.12753496 -0.0029237188 -0.037709599 -0.022032127    1.2746733     1.297955   0.70285152  0.066666667    1.4140409        1e-08 1.7571288e-09    5.6911024    2.4896934    30.403515 -0.019913577   -0.1905295 0.0030310998   0.19072721    2.0542927   0.10133018 
 1111000    4.2014046    1.2615602    2.9398444  -0.20318372   0.84112985   0.99051488   0.74817823   -1.2465374            1    1.6447374    2.2548862    2.2338032    0.4455228 0.0064309725  0.052040719  -0.04436322    1.4868343    1.5144578   0.70317489  0.066666667    1.4194432        1e-08 1.7579372e-09    5.6884853    2.4847281    30.403515  0.013875335  -0.19928313 0.0044343567   0.18961295  -0.65708256    2.6058777 
 1112000    4.1573894    1.2583284     2.899061  -0.21759632   0.83897507     1.008305   0.73359333   -1.2465374            1    1.5046104    2.1147875    2.1492067   0.24983692 0.0016986713  0.017765004  0.037226352    1.3497854    1.3719908   0.70158938  0.066666667    1.4197404        1e-08 1.7539734e-09    5.7013406    2.4935502    30.403515 0.0013981288  -0.22073813 -0.0012990195   0.19649086  -0.45387953   -1.1274163 
 1113000    4.1958564    1.2667224     2.929134  -0.20658858   0.84457165    1.0036619   0.74557229   -1.2465374            1    1.6006767    2.2102651    2.2089227   0.38284223 -0.0020767369  -0.17338667  0.036044687    1.4433235    1.4686679   0.70434402  0.066666667    1.4286104        1e-08  1.76086e-09     5.679043    2.5249834    30.403515 -0.0076658773   -0.1684561 -0.0089376556    0.1660963    1.1628399   -1.4034917 
 1114000    4.1908024    1.2795585    2.9112439  -0.21332613   0.85312998    1.0102982   0.75532996   -1.2465374            1    1.6163984    2.2210712    2.2258571   0.40226692 -0.019511664 -0.094689291  0.028649594    1.4569859    1.4835167   0.70222228  0.066666667    1.4157806        1e-08 1.7555557e-09    5.6962021    2.5126853    30.403515 -0.0014488795  -0.20183759  0.014800477   0.17659505   0.52506865  0.068342119 
 1115000    4.1759699    1.2828562    2.8931137  -0.22870129   0.85532871    1.0354261    0.7432395   -1.2465374            1    1.5171236    2.1213096    2.1711607   0.25890047 -0.0023322258  -0.11925567  0.070082644    1.3602628    1.3809369   0.70780814  0.066666667    1.4390834        1e-08 1.7695203e-09     5.651249    2.5012323    30.403515 -0.0019298492  -0.19891352 -0.0056214796   0.23280219     1.602398    -2.063969 
 1116000    4.1649456    1.2564049    2.9085406  -0.22024704   0.83769262    1.0140085   0.72795704   -1.2465374            1    1.7602048     2.319337    2.3374836   0.62379371 -0.0062185821 -0.050201841 -0.027140304    1.6065693    1.6268351    0.7061184  0.066666667    1.4159672        1e-08 1.765296e-09    5.6647724    2.4870762    30.403515 0.0049031768  -0.17302267 0.0049973127   0.18819082    0.2911231   0.46077589 
 1117000    4.1594879    1.2815231    2.8779649  -0.21531532   0.85443983    1.0135796   0.75541134   -1.2465374            1    1.5499169    2.1703862    2.1874909   0.29187363 -0.011970894 -0.056655761 -0.036325916    1.3904872    1.4166036   0.69707923  0.066666667    1.4037421        1e-08 1.7426981e-09    5.7382286    2.4834812    30.403515 0.0024021955  -0.20573285 6.1521291e-05   0.20832253    1.1453667  0.085124747 
 1118000    4.1670246    1.2720919    2.8949327  -0.22198096   0.84815171    1.0192102   0.74169431   -1.2465374            1    1.6648826    2.2725051    2.2697735   0.45236924 0.0028868517 -0.069382714  -0.06523503    1.5083479    1.5308287   0.70032247  0.066666667     1.406901        1e-08 1.7508062e-09    5.7116546    2.4794117    30.403515 0.0071112801  -0.19725214 -0.011527101   0.17316412   0.58248408   0.68264334 
 1119000    4.1754134    1.2718232    2.9035901  -0.20973583    0.8479726    1.0003519    0.7531561   -1.2465374            1    1.7059222    2.3031701    2.2797926   0.53480399 -0.016236144 0.00060929989  0.031232394    1.5469685    1.5743487   0.71645604  0.066666667    1.4189713        1e-08 1.7911401e-09    5.5830362    2.4888312    30.403515 0.0087087495  -0.21155288 -0.0020824364   0.21334315    1.7039219    2.7117799 
 1120000    4.1487612    1.2671288    2.8816324  -0.21482249   0.84484263    0.9986179   0.74915565   -1.2465374            1    1.5373012    2.1728882    2.1700227   0.26899283  0.014116126 -0.0050389149  0.078938106    1.3791918    1.4059558    0.7074156  0.066666667    1.4307913        1e-08 1.768539e-09    5.6543848    2.4794078    30.403515 -0.0072622578  -0.18760986 -0.0085363692   0.19545224     1.366159   -2.1891982 
 1121000    4.1436335    1.2520526    2.8915809  -0.21534573   0.83479076   0.98666636    0.7402859   -1.2465374            1    1.6464443      2.25681    2.2447529   0.43776998 -0.013305693 -0.00067206983  0.015759661    1.4902068    1.5166708   0.69487216  0.066666667    1.4489936        1e-08 1.7371804e-09    5.7564546    2.4733166    30.403515 -0.0032071607  -0.14665245 0.0025909641   0.23056697    1.0075864   0.28587752 
 1122000    4.1783493    1.2734905    2.9048588  -0.20897618   0.84908422    1.0007964   0.75468367   -1.2465374            1    1.6507717    2.2532484    2.2449992   0.45406737 -0.0093166613 -0.024279165  0.014652641    1.4914955    1.5191397   0.70205072  0.066666667    1.4493646        1e-08 1.7551268e-09    5.6975941    2.5178143    30.403515 0.0060783626  -0.19979596 -0.0018797431    0.1905932   0.11461079     1.237398 
 1123000    4.1855374    1.2868083     2.898729  -0.21226676   0.85796372    1.0082822   0.76443332   -1.2465374            1    1.6338717    2.2544515    2.2253957   0.42176782   -0.0106948  0.055103164 -0.015488743    1.4725379    1.5012552   0.71834977  0.066666667    1.4495308        1e-08 1.7958744e-09    5.5683181    2.4800447    30.403515 0.0037986288  -0.18912849  0.014479304   0.23104517   -1.5266911    1.1091233 
 1124000    4.1807172    1.2780977    2.9026195  -0.21422614   0.85215605    1.0015157   0.75922219   -1.2465374            1    1.6257207    2.2333731    2.2683863   0.37540266 0.0022158123  0.056893225 -0.011186864    1.4654867    1.4939942   0.71438907  0.066666667    1.4543567        1e-08 1.7859727e-09    5.5991898     2.487478    30.403515 0.0070600236  -0.17133776  0.008479819   0.20204555   -2.2933656    1.1166211 
 1125000    4.1537131    1.2751085    2.8786046  -0.21543271   0.85016298    1.0243501    0.7417562   -1.2465374            1     1.596793    2.2151386    2.2269214   0.34831898 0.0055359189 -0.015652878 -0.0013415833    1.4402452    1.4620631   0.69781344  0.066666667     1.461074        1e-08 1.7445336e-09    5.7321911    2.4810178    30.403515 0.0045898091  -0.19690847  0.010528443   0.20494859   -2.0074568   -1.0639601 
 1126000    4.1565472    1.2730421    2.8835051  -0.21857898   0.84878524    1.0182103   0.74334593   -1.2465374            1    1.4872259    2.1564442    2.0958099   0.20942347 -0.023549509 -0.050780301 -0.033036617    1.3303426    1.3533035   0.70390718  0.066666667    1.4608481        1e-08 1.7597679e-09    5.6825674    2.4782995    30.403515   0.01991277   -0.2028901  0.015637418    0.1926939   -1.1065105    1.4336237 
 1127000    4.1950621    1.2852709    2.9097912  -0.22281765   0.85693868     1.014838   0.75868363   -1.2465374            1    1.5745562    2.2028543    2.2041769   0.31663746 0.00043652349 0.0024041361 -0.069095236    1.4144359    1.4410774     0.713647  0.066666667     1.432871        1e-08 1.7841175e-09     5.605012    2.4958334    30.403515 -0.017007189  -0.20085727  0.014655081   0.17115255  -0.24102313    1.7218359 
 1128000    4.1776735    1.2741962    2.9034773  -0.21999859   0.84955472    1.0099497    0.7497431   -1.2465374            1     1.632163    2.2246967     2.236529   0.43526314 -0.013022727  0.043113945 -0.042704593    1.4739296    1.4993271   0.70207429  0.066666667    1.4458443        1e-08 1.7551857e-09    5.6974028    2.4768274    30.403515 -0.0063331737  -0.19484535 -0.0067697813   0.20875321    1.7464731    2.6370593 
 1129000    4.1759939    1.2826515    2.8933425  -0.21272207   0.85519218    1.0191231   0.75317797   -1.2465374            1    1.4062834    2.0747345    2.0769237  0.067191968 -0.011334995 -0.023141589 -0.019818088    1.2473251     1.272241   0.70263978  0.066666667    1.4273436        1e-08 1.7565994e-09    5.6928175    2.4806263    30.403515   0.01086831  -0.18344058 -0.0036482921   0.21389356   0.86271121   -2.2807145 
 1130000    4.1831341    1.2773989    2.9057352  -0.21667207   0.85169009     1.008157   0.75432687   -1.2465374            1    1.6543129    2.2372339    2.2877056   0.43799903 -0.0069499761  -0.17631191 -0.049769349     1.495112    1.5217128   0.70345525  0.066666667    1.4201289        1e-08 1.7586381e-09    5.6862181    2.4907176    30.403515  0.015954605  -0.18909508 0.0056740289   0.18071501     2.787722    2.1104363 
 1131000    4.1533736    1.2620138    2.8913598  -0.21595087   0.84143227    1.0041958   0.74014317   -1.2465374            1    1.6221903    2.2536587    2.2189447    0.3939675 0.0037630268   -0.1641937  0.061683441     1.465983    1.4901112    0.6992116  0.066666667    1.4291551        1e-08 1.748029e-09    5.7207289    2.4740576    30.403515 0.0067159224   -0.2049421 -0.0019908604   0.17969571    1.5488919    3.3235977 
 1132000    4.1509375    1.2573527    2.8935847  -0.21770998   0.83832455   0.99561055   0.74044853   -1.2465374            1    1.4697629    2.1302451    2.1206721   0.15837144  0.021828565  -0.18534282 -0.029760889    1.3134911     1.338813   0.70772776  0.066666667    1.4151667        1e-08 1.7693194e-09    5.6518908    2.5140987    30.403515 -0.012918092  -0.22993986 -0.0014837926   0.17096344   0.91986535  -0.65928103 
 1133000    4.1807505     1.275071    2.9056795  -0.22049683     0.850138   0.99671364   0.75893877   -1.2465374            1    1.6184244    2.2009273     2.250115   0.40423085   -0.0113435 0.0062386995  0.029241649    1.4582502    1.4873294   0.69672721  0.066666667    1.4278182        1e-08 1.741818e-09    5.7411279    2.4784925    30.403515 -0.0083282659  -0.19802624 -0.0080543563   0.15835889    1.8014063     1.970129 
 1134000    4.1843492    1.2880085    2.8963407  -0.20951604    0.8587639    1.0111415   0.76395033   -1.2465374            1    1.6286481     2.222696    2.2562912   0.40695717 0.0031813602  0.042386104  0.019369594    1.4674163    1.4956555   0.70248319  0.066666667    1.4337578        1e-08 1.756208e-09    5.6940864    2.5084516    30.403515 0.0076443511  -0.19451818 -0.014482282   0.18546289   0.31623379    3.4573114 
 1135000    4.1502331    1.2658846    2.8843485  -0.21334201   0.84401306   0.99420774   0.75055737   -1.2465374            1     1.652251    2.2516365    2.2721854   0.43293098 -0.0049068581  0.050141559   0.02260035    1.4938457    1.5214856   0.70244621  0.066666667     1.433598        1e-08 1.7561155e-09    5.6943862    2.5009418    30.403515 -0.00044446927  -0.19913834  0.012285962   0.18014216  -0.56970557     2.499017 
 1136000    4.1575265     1.279868    2.8776585  -0.21706136   0.85333634    1.0120402   0.75457932   -1.2465374            1    1.5088259     2.126923     2.167093   0.23246176 -0.007618794   0.13813802  -0.02884514    1.3495718    1.3757151   0.70623283  0.066666667    1.4406289        1e-08 1.7655821e-09    5.6638545    2.4715265    30.403515 -0.0023309819  -0.20508325 0.00041166432   0.20886984   -1.9422744    2.0071945 
 1137000    4.1500319     1.269061    2.8809709  -0.21890843    0.8461309    1.0093366   0.74456707   -1.2465374            1    1.5566566     2.175923    2.1768264   0.31722042 -0.00099739236  0.016035746  0.006362233    1.3995156    1.4239014   0.70867003  0.066666667    1.4506256        1e-08 1.7716751e-09    5.6443758    2.4884295    30.403515 0.0048529328  -0.18617613  0.013649927   0.17612619   0.48815425  -0.90549886 
 1138000    4.1680125    1.2822358    2.8857767  -0.21198356   0.85491503    1.0117585   0.75731769   -1.2465374            1     1.622841    2.2445054    2.2248967   0.39912102 0.0072115793  0.050160345 -0.0075528749     1.463009    1.4897673   0.70739681  0.066666667    1.4578916        1e-08 1.768492e-09     5.654535    2.4962271    30.403515  0.010352985  -0.20028738 -0.0095291663   0.19831869  -0.57541937      1.48784 
 1139000    4.1878143    1.2766002    2.9112141  -0.21475585   0.85115757    1.0062607   0.75464416   -1.2465374            1    1.5740477    2.1607738    2.2185177   0.34285164 0.0013448914   0.18817241 -0.0082348645    1.4147799     1.441697   0.69713913  0.066666667    1.4632293        1e-08 1.7428478e-09    5.7377356    2.4906727    30.403515 -0.010515485  -0.17315997 0.0012285139   0.17715083   -1.0990781    4.4261667 
 1140000    4.1791306    1.2734207    2.9057099  -0.21038663    0.8490377    1.0232105   0.74063961   -1.2465374            1    1.5806425    2.1863236    2.2177685   0.33783521 -0.024537047 -0.035242269  0.024408104    1.4243303    1.4460625   0.70392402  0.066666667    1.4652577        1e-08 1.7598101e-09    5.6824315    2.4819433    30.403515  0.015073201  -0.19521327 0.0025247657   0.20608305  -0.28992227    2.8160515 
 1141000    4.1734912    1.2748533    2.8986378  -0.21840555   0.84999289    1.0193798   0.74457757   -1.2465374            1    1.5767217      2.19379    2.1981451   0.33822998 0.0037721139  -0.11628791 -0.00040021471    1.4195785    1.4426455   0.70486447  0.066666667    1.4496331        1e-08 1.7621612e-09    5.6748498    2.4849367    30.403515 -0.0048789775   -0.2059321  0.012411403   0.20204675   -0.1853261    1.9395332 
 1142000    4.1707935    1.2774152    2.8933783  -0.21553155   0.85170098    1.0028044   0.75768029   -1.2465374            1    1.5789508    2.2059931      2.19736   0.33349943 0.0072799797  0.031655786 -0.068251104    1.4190423    1.4470548   0.69578877  0.066666667    1.4334607        1e-08 1.7394719e-09    5.7488711    2.4819382    30.403515  0.010603676  -0.17165663 -0.013893121   0.22067316  -0.66441342    1.0492106 
 1143000    4.1811446    1.2790574    2.9020872  -0.21881752   0.85279591    1.0163746   0.75100078   -1.2465374            1     1.666776    2.2752686    2.2505891   0.47447016 -0.010268942  0.045359911  0.027697841    1.5082771    1.5330951   0.69760379  0.066666667      1.45451        1e-08 1.7440095e-09    5.7339138    2.4784115    30.403515 -0.0081050812  -0.20259997 0.0010723168   0.18050524  -0.63892568   0.45115475 
 1144000    4.1885395     1.274163    2.9143765  -0.21441585   0.84953258    1.0026727   0.75424226   -1.2465374            1    1.6477431    2.2466839    2.2650509   0.43149462 0.0023375078 -0.099290979  0.033751461    1.4885602    1.5158644   0.70484025  0.066666667    1.4578753        1e-08 1.7621006e-09    5.6750448      2.48669    30.403515 0.0065015702  -0.15388007 -0.011609412   0.20061674    0.7332149   0.47079023 
 1145000    4.2041628    1.3035589    2.9006039  -0.22118101   0.86913195    1.0306123   0.76864733   -1.2465374            1    1.5643973    2.2050173    2.1718717   0.31630287  0.021976375 -0.039681397 -0.029596959    1.4021741    1.4288437   0.71103813  0.066666667    1.4406095        1e-08 1.7775953e-09    5.6255774    2.5016988    30.403515 -0.00045270908  -0.18985277 -0.0067733746     0.189299   0.89442709   -1.8402652 
 1146000    4.1443708    1.2641125    2.8802583    -0.217713   0.84283159    1.0090483    0.7393907   -1.2465374            1    1.5998789    2.2264761    2.2184297   0.35473097 0.0085609363  -0.12607623  0.052308405    1.4438304    1.4671617   0.70688404  0.066666667    1.4247503        1e-08 1.7672101e-09    5.6586368    2.5125572    30.403515  0.010182108  -0.19022513 -0.011694783   0.23672491    2.5347037  -0.34350647 
 1147000     4.199251    1.2874097    2.9118414  -0.21566527   0.85836467    1.0156271   0.76050681   -1.2465374            1    1.6186471    2.2170988    2.2270156   0.41182699 -0.0087258586 0.0097781303 -0.0025059995     1.458142    1.4850645   0.69282067  0.066666667    1.4308681        1e-08 1.7320517e-09    5.7734998    2.4972028    30.403515 -0.0066658902  -0.17655451 -0.009139775   0.19493595   0.86809116    2.2200298 
 1148000    4.1473138    1.2538724    2.8934414  -0.21574654   0.83600409   0.99768732    0.7353873   -1.2465374            1    1.5474623    2.1764794    2.1710467   0.29486094 0.0046141973  0.018982646 -0.025776615    1.3922587    1.4162393   0.69763722  0.066666667    1.4274287        1e-08 1.7440931e-09     5.733639    2.4801211    30.403515 0.0038037337  -0.19498012 -0.0051709446   0.20091173   0.94469239   0.34094286 
 1149000    4.1822571    1.2774126    2.9048445  -0.20993658   0.85169925   0.99966687    0.7596328   -1.2465374            1    1.6670444    2.2787767    2.2694886   0.45286809 -0.0088689285  0.029613144 -0.0070256794    1.5067238    1.5355611   0.71430438  0.066666667    1.4335034        1e-08 1.7857609e-09    5.5998537    2.5021915    30.403515   0.00786868   -0.1804279 -0.013741062   0.19921281    1.0211065    1.4286573 
 1150000    4.1616246     1.271085    2.8905397  -0.22199837   0.84748037     1.012625   0.74470843   -1.2465374            1    1.4776528     2.101228    2.1196726   0.21205784 0.0032080531  0.068208411 -0.011667182     1.320482    1.3444651   0.70894194  0.066666667    1.4382937        1e-08 1.7723548e-09     5.642211    2.5132796    30.403515 -0.010950282  -0.17230403 -0.0069408386   0.20618094  -0.81823814    1.2702887 
 1151000    4.1581804    1.2579006    2.9002798  -0.21055468   0.83868985    1.0051836   0.73507561   -1.2465374            1    1.6278383     2.238072    2.2420515   0.40339136 -0.010084812  0.073104754 -0.0062817416    1.4727005    1.4956293   0.69886806  0.066666667    1.4335795        1e-08 1.7471701e-09     5.723541    2.4977893    30.403515 0.0028033494  -0.17720822 0.0061151876   0.17503453 -0.038875147     2.972192 
 1152000    4.1803348    1.2733996    2.9069352   -0.2124729   0.84902359    1.0110811   0.74817584   -1.2465374            1    1.6027172    2.2245413    2.2222463   0.36136391 0.0054341448  0.058643485 -0.0079300338    1.4448145    1.4697325   0.70460517  0.066666667     1.439583        1e-08 1.7615129e-09    5.6769382    2.5032278    30.403515 -0.0058826362  -0.20006081  0.014782665   0.21135882  -0.63407909    1.5520606 
 1153000    4.1752396    1.2695374    2.9057022  -0.22161137   0.84644853    1.0109785   0.74405946   -1.2465374            1    1.6062939    2.2118491    2.2304435   0.37658892 -0.0024638951 -0.044386236 -0.0057950816      1.44926    1.4733227   0.71445237  0.066666667    1.4221543        1e-08 1.7861309e-09    5.5986937    2.4809632    30.403515 -0.0030899218  -0.21257068 -0.001039856   0.16773692   0.22531755    1.3789697 
 1154000    4.1633062    1.2558924    2.9074139  -0.20893749    0.8373509    1.0082004    0.7310219   -1.2465374            1    1.5994059    2.2285223    2.2289368   0.34075873 -0.00072795398 -0.080583358 -0.011164854    1.4451236    1.4668002   0.71092199  0.066666667    1.3997975        1e-08 1.777305e-09    5.6264964     2.506154    30.403515 0.0004254114   -0.1711773 -0.0043015255   0.16365668 -0.060117096    1.3139932 
 1155000    4.1672581    1.2831509    2.8841073  -0.21910787   0.85552515    1.0198618    0.7532581   -1.2465374            1    1.6280532    2.2246259     2.240466   0.41906778 -0.0023958284  0.024350099 -0.039031868     1.469078    1.4939137   0.70281061  0.066666667    1.4228212        1e-08 1.7570265e-09    5.6914337    2.4859708    30.403515 0.0038165038  -0.19125116  0.005274809   0.15715096   -1.0225375   0.59297336 
 1156000    4.1782306    1.2627758    2.9154548  -0.20620599   0.84194033    1.0016706   0.74254167   -1.2465374            1    1.6737365    2.2802586    2.2525525   0.48839824 0.0022186042  0.023865505  0.037368659    1.5170229    1.5419895   0.70257149  0.066666667    1.4039253        1e-08 1.7564287e-09    5.6933708    2.4785268    30.403515 -0.00085478334   -0.2104233 -0.0017949334   0.20651042   0.74417794    2.1951323 
 1157000    4.1928009    1.2792717    2.9135292  -0.21853365   0.85293877    1.0169164   0.75089505   -1.2465374            1    1.4968358    2.1478951    2.1482466   0.19436571 0.0075615802 0.0022157727 -0.0064921398    1.3383593    1.3630836   0.70145182  0.066666667    1.4096604        1e-08 1.7536296e-09    5.7024587    2.4782489    30.403515 0.0064142806   -0.1969432 0.0096175958   0.17436715    1.2298431    2.5136178 
 1158000    4.1857619    1.2643272    2.9214347  -0.21647339   0.84297471     1.008187   0.74015982   -1.2465374            1    1.5164133     2.137798    2.1617168   0.24972531  -0.01211485   0.15910692  -0.02141112    1.3602025    1.3838093   0.70363304  0.066666667    1.3783234        1e-08 1.7590826e-09    5.6847813    2.4931411    30.403515 -0.018238215  -0.21997429 0.0035138874   0.20853871  -0.60924286  -0.89557162 
 1159000    4.1499246    1.2572775    2.8926471  -0.22250662   0.83827441    1.0050638   0.73447583   -1.2465374            1    1.5773031    2.2128781    2.1916253   0.32740586  0.014015741   0.10964305  0.017782309    1.4222918    1.4451098   0.69824507  0.066666667    1.3824245        1e-08 1.7456127e-09    5.7286477    2.4938169    30.403515 0.0069964715   -0.1734394 -0.0042168234   0.19916484  -0.28195329    6.5697741 
 1160000    4.1748905    1.2823622    2.8925283  -0.21701261   0.85499936     1.014787   0.75556719   -1.2465374            1    1.5963253    2.2000817    2.2191583   0.36973588 0.0079348096  0.063591497  0.059282908    1.4368627    1.4628532    0.7015905  0.066666667    1.3967616        1e-08 1.7539763e-09    5.7013315    2.5035433    30.403515 -0.0038728079  -0.17641365  0.003337591   0.19212805  -0.40168319     2.410006 
 1161000    4.1984359    1.3017753    2.8966606  -0.22070313   0.86794276    1.0237674   0.77098257   -1.2465374            1    1.5231003    2.1405082    2.1618371   0.26695547  0.012299691  0.029599843 -0.077675414    1.3603843     1.388447   0.70457571  0.066666667    1.4241957        1e-08 1.7614393e-09    5.6771756    2.4929147    30.403515 -0.0041327221  -0.21386419 0.0012244175   0.18510583   -2.0036195   0.66759255 
 1162000    4.1812364    1.2782641    2.9029724   -0.2089763   0.85226695    1.0010082   0.75971849   -1.2465374            1    1.5768615     2.205405    2.1892622   0.33591723 0.0014891845 -0.012400036 -0.038769007    1.4165228    1.4452017    0.7017175  0.066666667    1.4089435        1e-08 1.7542937e-09    5.7002996    2.4929598    30.403515 -0.021657738  -0.20772059 0.00088727845   0.17170482  -0.52594989    2.9434715 
 1163000    4.1422139    1.2603136    2.8819003  -0.22157489   0.84029872    1.0075828   0.73619219   -1.2465374            1    1.4886618    2.1378903    2.1339214   0.19417371  0.020511396  0.042355017 -0.028410327    1.3332883    1.3561373   0.70502391  0.066666667    1.3977163        1e-08 1.7625598e-09    5.6735664    2.5048483    30.403515 0.00023179012  -0.19790415 0.0040049345   0.16977483   -2.2365491   -0.6601866 
 1164000    4.1666012    1.2792675    2.8873337  -0.22885046   0.85293598    1.0174363   0.75056652   -1.2465374            1    1.5582547    2.1865105    2.1792901   0.30896344   0.01879199  0.015469138 -0.045122577    1.3998475    1.4244342   0.71414712  0.066666667    1.4194963        1e-08 1.7853678e-09    5.6010868     2.505671    30.403515 -0.00039664415  -0.19653528 -0.016926969   0.19856181    0.2892603    1.7981587 
 1165000    4.1604698    1.2780294    2.8824405  -0.21461232   0.85211045    1.0099103   0.75391656   -1.2465374            1    1.5401788    2.1750828    2.1585178   0.28693567 -0.013226961 -0.066568152  -0.02647669    1.3810646    1.4073481   0.70279877  0.066666667     1.409025        1e-08 1.7569969e-09    5.6915296    2.4778056    30.403515  -0.01182103   -0.1959711 -0.00064580881   0.18442976    1.0817392    2.7322765 
 1166000    4.1553071     1.251667    2.9036401  -0.21941306   0.83453366   0.99454146   0.73496075   -1.2465374            1     1.622467    2.2280255    2.2255633   0.41381231 -0.0066096688  -0.19589915 -0.00010753994    1.4673534    1.4916578   0.69914451  0.066666667    1.4196051        1e-08 1.7478613e-09    5.7212778    2.4731698    30.403515 -0.00089493301   -0.1869946 0.0060232398   0.18111467    1.1784372    3.7139959 
 1167000    4.1234582    1.2444423     2.879016  -0.21693419   0.82971666   0.99239477   0.72847877   -1.2465374            1    1.5600803    2.1886949    2.1994845   0.29206145  0.022464904 0.0090111478 -0.0077188824    1.4063347    1.4295534   0.70211248  0.066666667    1.4152773        1e-08 1.7552812e-09    5.6970929    2.4815778    30.403515 0.0019725012  -0.18969213  0.002020798   0.17567386  0.062274471    1.9942525 
 1168000    4.1607382    1.2707506    2.8899876  -0.21977802   0.84725744    1.0093128   0.74641069   -1.2465374            1    1.5889222    2.2215209    2.1956736   0.34957214 0.0047433589  0.051820122  0.082260431    1.4313921    1.4561701   0.70960493  0.066666667    1.4250114        1e-08 1.7740123e-09    5.6369394    2.5215492    30.403515 0.0063949053  -0.19246039 0.0012466376   0.18675701  -0.71413107    2.9493501 
 1169000    4.1546717    1.2491008     2.905571  -0.21574294   0.83282266   0.98721343   0.73675001   -1.2465374            1    1.4697309    2.1194033    2.1138566   0.17593282 -0.014776327  0.066202612 -0.016895658    1.3142397    1.3398855   0.70414337  0.066666667    1.4287962        1e-08 1.7603584e-09    5.6806613    2.4815328    30.403515  0.011854022  -0.18736821  0.005206297   0.18673889   -1.7641249   0.70027891 
 1170000    4.1723355    1.2741878    2.8981477  -0.21836997   0.84954911    1.0104371    0.7494303   -1.2465374            1    1.6475811    2.2675008    2.2521116   0.42313089 0.0070436847   0.06069267  0.015623174    1.4894137    1.5146812   0.70732731  0.066666667    1.4374271        1e-08 1.7683183e-09    5.6550906    2.4816787    30.403515  0.003573623  -0.22178143  0.011661367   0.19768214   -2.4063917    2.6283385 
 1171000    4.1814879    1.2824476    2.8990403  -0.22400262   0.85505628    1.0111599   0.75792005   -1.2465374            1    1.5582688    2.1687165    2.1762624   0.32982732 -0.0013475712 -0.072578303 -0.0028071161    1.3983096    1.4252737   0.70527209  0.066666667    1.4534179        1e-08 1.7631802e-09      5.67157    2.4910377    30.403515 -0.011858775   -0.1754913 0.0027288613   0.23909136    1.8806776    3.0260783 
 1172000    4.1602153    1.2765081    2.8837071  -0.22041966    0.8510962     1.006316   0.75451005   -1.2465374            1    1.6085091    2.2220141    2.2300295   0.37348374  0.006235929  0.098392458  -0.02667386    1.4492696    1.4761512   0.70291563  0.066666667    1.4455111        1e-08 1.7572891e-09    5.6905834    2.5080719    30.403515 0.00027258425  -0.15905911 6.2712165e-05   0.18146172    0.8962542    1.1181281 
 1173000    4.1425179    1.2665234    2.8759944  -0.21642516   0.84443903    1.0007381   0.74717911   -1.2465374            1    1.5376351    2.1853275     2.167078   0.26049978 -0.0099827034 -0.007603241   0.10408045    1.3799428    1.4060108   0.70469563  0.066666667    1.4384321        1e-08 1.7617391e-09    5.6762094    2.4925575    30.403515 -0.0037305163  -0.22379634 -0.006534612   0.15612936    1.3348495   0.36797549 
 1174000    4.1789653    1.2719345    2.9070307  -0.22358943   0.84804681   0.99906506   0.75407856   -1.2465374            1    1.5949022    2.2190579    2.1753239   0.39032476  0.014501555   0.10972592 -0.014395695    1.4357538    1.4634979   0.71225058  0.066666667    1.4113228        1e-08 1.7806264e-09    5.6160011     2.490262    30.403515   -0.0204394  -0.22745878 0.0071999833   0.17266207    1.7285822    1.2183646 
 1175000    4.1832407    1.2878552    2.8953855  -0.21423537   0.85866173    1.0073444   0.76615085   -1.2465374            1    1.5858217    2.1819979    2.2020353    0.3734318  0.013137934   0.11407194  0.039363076    1.4241254    1.4533285   0.70624382  0.066666667     1.419081        1e-08 1.7656096e-09    5.6637663    2.4832703    30.403515 -0.0037024196  -0.17360683 -0.0025066436   0.18674165   -1.6606837  -0.59123861 
 1176000    4.1735842    1.2735996    2.8999846  -0.22120647   0.84915694    1.0036472   0.75302513   -1.2465374            1    1.5099086    2.1491192     2.159392   0.22121446 0.0063217406  0.081523698   0.03644561    1.3509825    1.3779017   0.70688802  0.066666667    1.4348109        1e-08 1.7672201e-09    5.6586049    2.5067702    30.403515 0.0063808108  -0.15043031 0.0025537021   0.19069487   -2.6037439  -0.39249941 
 1177000    4.1827977    1.2836186    2.8991791  -0.21772005     0.855837    1.0108029   0.75940989   -1.2465374            1    1.6677063    2.2888426    2.2555543    0.4587219 -0.00031520512 -0.017190624 0.00070379016    1.5074327    1.5347582   0.70803774  0.066666667    1.4430007        1e-08 1.7700944e-09    5.6494164    2.4950442    30.403515 0.0065576083  -0.22753942   0.01349376   0.19011527   -1.3423772  -0.14432846 
 1178000    4.1979749    1.2735378    2.9244371  -0.20531657   0.84911577     1.002665   0.75357039   -1.2465374            1    1.5782439    2.2107124    2.1967202    0.3272991 0.0013536701 -0.040336364 0.0065094693    1.4192027    1.4463662   0.70022706  0.066666667     1.453459        1e-08 1.7505677e-09    5.7124328    2.4947095    30.403515 -0.009889224  -0.19537046  0.003293406   0.23090642   -1.4933221    2.9268069 
 1179000    4.1776327    1.2867012    2.8909315   -0.2181403   0.85789233    1.0265995   0.75290198   -1.2465374            1    1.5225251    2.1494722    2.1796481    0.2384549 -0.008241566 -0.050647877 -0.0048887095     1.363625    1.3874993   0.70347936  0.066666667    1.4278701        1e-08 1.7586984e-09    5.6860233    2.4831173    30.403515 0.0022496829  -0.16903579 -0.0028837984   0.17461845  -0.23326777   -1.8097324 
 1180000    4.1780591    1.2670325    2.9110266  -0.22168251   0.84477843   0.99227124   0.75300667   -1.2465374            1    1.6449405    2.2398873    2.2336034   0.46133069 0.0044583804 0.00064643487    0.0146004    1.4860183    1.5144298   0.71164955  0.066666667    1.4311487        1e-08 1.7791239e-09    5.6207441    2.5025955    30.403515 0.0061365748  -0.20448669 0.0085482714   0.19695459    1.0719778    1.6849081 
 1181000    4.1390235    1.2658567    2.8731668  -0.21595828   0.84399449    1.0063804   0.74294119   -1.2465374            1    1.3907774    2.0733433      2.07166   0.02732888 -0.0074311674  0.043725614  0.047236433    1.2339795     1.258411   0.69881917  0.066666667    1.4289932        1e-08 1.7470479e-09    5.7239414    2.4988497    30.403515 -0.019905627  -0.20621156 -0.0014463868   0.18681785  -0.36765119    1.1606237 
 1182000    4.1727278    1.2674875    2.9052404  -0.21751709   0.84508178    1.0016178   0.74767432   -1.2465374            1    1.6326898     2.221916    2.2370184   0.43913509 -0.0015774527 -0.064594047 -0.0071080773    1.4748931    1.5009499   0.69482378  0.066666667    1.4224213        1e-08 1.7370594e-09    5.7568554    2.4908119    30.403515 0.0090216249  -0.19923127  -0.01127242   0.16750939     1.679486    3.1834466 
 1183000    4.1841322    1.2987981    2.8853341  -0.21648372   0.86595773    1.0357287   0.76030582   -1.2465374            1    1.6220953    2.2417213    2.2200514   0.40451329 -0.0053454925  0.044095602  0.010520966    1.4616326    1.4858688    0.7066056  0.066666667    1.4135388        1e-08 1.766514e-09    5.6608666    2.4923717    30.403515 -0.016089232  -0.18465082 0.0027432383    0.2145676    1.6217042    1.3604744 
 1184000    4.2164735    1.2822267    2.9342468  -0.20718553   0.85490897    1.0157958    0.7547918   -1.2465374            1    1.5566708    2.1965125    2.1833952   0.29010475 -0.0062010976  -0.11977034 -0.064158067    1.3973719    1.4230661   0.70770659  0.066666667    1.4003707        1e-08 1.7692665e-09    5.6520599    2.4930312    30.403515 0.0025132869  -0.20989911 0.0034582989   0.17422408   0.55893744    2.7607471 
 1185000    4.1739624    1.2850519    2.8889104  -0.21618702   0.85679268    1.0148822   0.75841913   -1.2465374            1    1.5783417    2.1972146    2.2110307   0.32677969 -0.013388721  0.015221543 -0.027434252    1.4182772    1.4448571   0.69692975  0.066666667    1.3903224        1e-08 1.7423244e-09    5.7394594    2.4936625    30.403515 -0.011169314  -0.17746163 0.0064412769    0.1510421   0.63449436   -1.1874364 
 1186000    4.1754352    1.2649964    2.9104388  -0.21799834   0.84342088    1.0075962   0.74125231   -1.2465374            1    1.6184177    2.2245596    2.2239527   0.40674088 0.0040012974  -0.01210228  0.081957637    1.4619763    1.4858914   0.69865767  0.066666667    1.3954626        1e-08 1.7466442e-09    5.7252646    2.4867849    30.403515 0.0023701678  -0.18314592 -0.017723215   0.17955187   0.33284658    0.5803627 
 1187000    4.1627925    1.2776783    2.8851142  -0.22716912   0.85187641    1.0339339   0.73856504   -1.2465374            1    1.5658215    2.2003746    2.1838764   0.31321366 -0.015195865  -0.11241488  0.059859824    1.4099473    1.4298311   0.70530756  0.066666667    1.4010297        1e-08 1.7632689e-09    5.6712847    2.4780309    30.403515 -0.0075676683  -0.20278437 -0.0013149189   0.20266283   0.77631703   -1.0765796 
 1188000    4.1903921    1.2772467    2.9131454  -0.21352969   0.85158862    1.0149239   0.74994496   -1.2465374            1     1.557759    2.1924967    2.1710614   0.30971882 -0.0060458382 -0.023545884 -0.026818112     1.399483    1.4242689   0.70659454  0.066666667     1.405407        1e-08 1.7664864e-09    5.6609551    2.4958646    30.403515 -0.0074155289  -0.15055255 -0.00010885016   0.16970683   0.37517921   -2.9931861 
 1189000    4.1909179    1.2763299     2.914588   -0.2097954   0.85097737    1.0163011   0.74809439   -1.2465374            1    1.6867313     2.273074     2.281253   0.50586703 -0.0099624854 -0.0060912623   0.01244227    1.5288459    1.5530601   0.70569503  0.066666667    1.4309454        1e-08 1.7642376e-09    5.6681709    2.5096555    30.403515 0.0010284573  -0.18472919  0.013849364   0.18432544    2.0691751   0.53076181 
 1190000    4.1832641    1.2790731    2.9041909  -0.22860894   0.85280637     1.001062   0.76056062   -1.2465374            1    1.4497473    2.0825193    2.1041961   0.16252657  0.020139965 0.00047475519  0.065245863    1.2892309    1.3180804    0.7035807  0.066666667    1.4378961        1e-08 1.7589518e-09    5.6852043    2.4883608    30.403515 -0.0097885675  -0.20006801 0.0044998482   0.17673526   0.26591053   -1.2146073 
 1191000    4.1619726    1.2649265    2.8970461  -0.22903912   0.84337428    1.0075466   0.74120757   -1.2465374            1    1.6580364    2.2681251    2.2546796   0.45130458 -0.00010220391 -0.032516673 -0.0020239663    1.5016044    1.5255166   0.70813489  0.066666667    1.4563799        1e-08 1.7703372e-09    5.6486413    2.5001946    30.403515 0.0015803149  -0.16639164 -0.0040920311   0.21820848     1.580574      0.47428 
 1192000    4.1485598    1.2761444    2.8724154  -0.22734467    0.8508537    1.0009156   0.75748195   -1.2465374            1    1.5269853    2.1899386    2.1503117   0.24070564 -0.0024986613 -0.045087425 -0.056081535    1.3671186    1.3953377   0.71189094  0.066666667    1.4361159        1e-08 1.7797274e-09    5.6188382    2.4936338    30.403515 -0.0018849882  -0.17353111 -0.0045642632   0.15714441    2.1179134    2.3726781 
 1193000    4.1646898    1.2715463    2.8931435  -0.21457598   0.84778793   0.99905236   0.75366622   -1.2465374            1    1.5632077    2.1782747     2.171361   0.33998748   0.01383913  -0.06883208 -0.037514985    1.4041463    1.4318052   0.70811634  0.066666667    1.4331685        1e-08 1.7702909e-09    5.6487893    2.5062931    30.403515 -0.014078576  -0.22080397 0.0073523041    0.1909125    1.3926742   0.72818541 
 1194000    4.1835378    1.2769509     2.906587  -0.22053232    0.8513914    1.0085272   0.75361127   -1.2465374            1    1.5082956    2.1461635    2.1364391   0.24228404 0.0033172874  -0.09676771  0.061788117    1.3492458    1.3756468   0.70969031  0.066666667     1.439572        1e-08 1.7742258e-09    5.6362613    2.5055063    30.403515  0.010081143  -0.21580268 -0.0024960786   0.20146177   0.89433059   -1.3912294 
 1195000    4.1646448    1.2658586    2.8987862   -0.2179296   0.84399577    1.0111922   0.73994454   -1.2465374            1    1.6149004    2.2178892    2.2348249   0.39198719 -0.0096513921 -0.066397762  0.062353117     1.458735    1.4819012   0.70522187  0.066666667    1.4419154        1e-08 1.7630547e-09    5.6719739    2.4945773    30.403515 -0.004746205  -0.17522918 0.0007271177   0.18475898  -0.25521823    3.1729142 
 1196000    4.1949945    1.2729513    2.9220432  -0.21297966   0.84872474    1.0080385   0.74958683   -1.2465374            1    1.6119556    2.2468619    2.2006701   0.38833481 0.0089384985 -0.058799857 -0.0025571323    1.4537552    1.4793711   0.70114518  0.066666667    1.4325495        1e-08 1.7528629e-09    5.7049526    2.4795947    30.403515  0.011127152  -0.19125398 -0.0041221497   0.20016766   0.99007116    1.4386629 
 1197000    4.1801081     1.284208    2.8959001   -0.2113094   0.85622999    1.0112891   0.75974485   -1.2465374            1    1.6460429    2.2511294    2.2510915   0.43590788  0.014346656  0.087031313   0.02829495    1.4856987    1.5130309   0.70265913  0.066666667    1.4378454        1e-08 1.7566478e-09    5.6926607    2.4933885    30.403515 0.00015352881  -0.17925892 0.00053781997   0.18139519   -1.9785307    2.9638601 
 1198000    4.1622184    1.2724223    2.8897961   -0.2157262   0.84837205    1.0217291   0.74048224   -1.2465374            1    1.5193717    2.1430541    2.1664704   0.24859068 0.0059639209 -0.008387415  0.019030139    1.3630928    1.3849866   0.69965907  0.066666667    1.4409722        1e-08 1.7491477e-09    5.7170702    2.4822454    30.403515 -0.020283615  -0.20939246 -0.0058866969   0.20619024    1.4202143    3.7584981 
 1199000    4.1765888      1.28364    2.8929488  -0.21352648   0.85585128    1.0133831   0.75782509   -1.2465374            1    1.6930766    2.2900962    2.2817945   0.50733906 0.0064548431 -0.059760891 -0.002647755    1.5331375    1.5597891   0.69803825  0.066666667    1.4545869        1e-08 1.7450956e-09     5.730345    2.4839005    30.403515 -0.014194416  -0.19328672 -4.3021629e-05   0.19509002 -0.095227457    2.7578126 
 1200000    4.1761754    1.2515379    2.9246375  -0.21326239    0.8344476     0.989472   0.73798035   -1.2465374            1    1.4782226    2.1085262     2.130884   0.19525742 -0.0061401166 -0.072068667 -0.084246535    1.3224717    1.3480801   0.70322886  0.066666667     1.454751        1e-08 1.7580722e-09    5.6880487    2.4768879    30.403515 -0.010955559  -0.22090694  -0.01778459   0.20086165    1.2462713   -1.4291332 
 1201000    4.1652446    1.2606022    2.9046424  -0.21591225   0.84049114    1.0232572   0.72673625   -1.2465374            1    1.6831589    2.2817505    2.2721612    0.4955651  0.018083222  -0.10675475 -0.0078887655    1.5297811    1.5485728   0.71261145  0.066666667    1.4324385        1e-08 1.7815286e-09    5.6131571    2.4932125    30.403515 -0.0077384667   -0.1981102 -0.0085851452   0.20331529    1.1125336    2.2445799 
 1202000    4.1354953    1.2525065    2.8829888  -0.21422611   0.83509337     1.008009   0.72747638   -1.2465374            1    1.7797409    2.3648408    2.3642895   0.61009256  0.011309114 -0.044306085 0.0020400641    1.6262069    1.6471603    0.7079852  0.066666667    1.4333274        1e-08 1.769963e-09    5.6498356    2.4800151    30.403515 -0.0025390451  -0.17568868 -0.0027340209   0.22612427   -0.7121094  -0.43522817 
 1203000    4.1647418    1.2632454    2.9014963  -0.21155064   0.84225346   0.97754333   0.75808619   -1.2465374            1     1.529714     2.156792    2.1475656   0.28478458 -0.0080750146 -0.071927429  0.055248862    1.3697198    1.4011405   0.69748123  0.066666667     1.441007        1e-08 1.7437031e-09    5.7349213    2.4970181    30.403515 0.0094505014   -0.1564135 -0.011688605   0.20746667   0.44978079  -0.41783582 
 1204000     4.148613    1.2390696    2.9095434  -0.21006755   0.82613454    1.0056474   0.71440458   -1.2465374            1    1.4724747    2.1298815    2.1045138   0.18302874 -0.0044847726  0.047193122   0.01459937    1.3216995    1.3402047   0.70316693  0.066666667    1.4161127        1e-08 1.7579173e-09    5.6885497    2.4764195    30.403515   0.00437808  -0.18802819 -0.015946833   0.22540592  -0.46127796   -1.2660102 
 1205000    4.1705795    1.2778368    2.8927427  -0.20485501    0.8519821    1.0002354   0.75973765   -1.2465374            1    1.6625309    2.2514152    2.2890847   0.44709276 -0.0064026193  0.070232586  0.017484207    1.5021882    1.5309728   0.70765805  0.066666667    1.4293048        1e-08 1.7691451e-09    5.6524475    2.4900886    30.403515 -0.0053299758  -0.22128772 -0.0079269453   0.15854739     -1.68785   0.13450523 
 1206000    4.1578595    1.2546201    2.9032394  -0.22314614   0.83650259   0.99482828   0.73797832   -1.2465374            1    1.6027458    2.2306998    2.1901743   0.38736327  0.011772317  0.027382619 -0.032806311    1.4469954    1.4718988   0.69937674  0.066666667     1.448506        1e-08 1.7484418e-09    5.7193781    2.4917873    30.403515 -0.0075142133  -0.23419658 0.0059898248   0.20884326    1.7591262   0.34762465 
 1207000    4.1502413    1.2541439    2.8960973  -0.20655652   0.83618514   0.98710902   0.74227365   -1.2465374            1    1.6752425    2.2921841    2.2600028   0.47354075 0.0078214926  0.083204963  0.015799528    1.5185856    1.5454109   0.70083372  0.066666667    1.4308958        1e-08 1.7520843e-09    5.7074879    2.5039298    30.403515 -0.0054205286  -0.23146175 0.0089678244   0.19935574 -0.022928274    2.4650177 
 1208000    4.1360063    1.2577776    2.8782288  -0.21649984   0.83860783   0.99671545   0.74021982   -1.2465374            1    1.6008331    2.2271952    2.2166144   0.35868963 0.0058791791 -0.0084097441  0.010243608    1.4446096    1.4697379   0.71757248  0.066666667    1.4314486        1e-08 1.7939312e-09    5.5743498    2.5189574    30.403515 0.0079879308  -0.22317414  0.020088017    0.1649398   0.28979597    1.9854385 
 1209000    4.1371247    1.2665141    2.8706106  -0.22407016   0.84443282    0.9935965   0.75161971   -1.2465374            1    1.6153243    2.2503298    2.2098056   0.38583742 -0.0041655402  -0.10564501  0.026989006    1.4566948    1.4846393   0.71594682  0.066666667    1.4436316        1e-08 1.7898671e-09    5.5870071     2.530704    30.403515 0.0029387586  -0.16876361 0.0021695214   0.17883562   0.69935059  -0.35500648 
 1210000    4.1369371     1.282576    2.8543611  -0.22255297   0.85514186    1.0231636    0.7505782   -1.2465374            1    1.6748938    2.2761159    2.2793457   0.46921979 0.0014648405 -0.027291058   0.02036236    1.5164841      1.54032   0.70713033  0.066666667    1.4322853        1e-08 1.7678258e-09    5.6566658    2.4920577    30.403515 -0.00082955787  -0.15695597 -0.0034246673   0.19953224     1.714186    1.7613646 
 1211000    4.1170295    1.2565686    2.8604609  -0.23021993   0.83780176   0.98455901   0.74648721   -1.2465374            1    1.4652171    2.1412124    2.1125698   0.14186906 -0.019750745  0.019377566   0.05284657    1.3076708    1.3357208   0.71815351  0.066666667    1.4304944        1e-08 1.7953838e-09    5.5698398    2.5179137    30.403515 -0.0051523339  -0.19733108 -0.013079304   0.19815868    0.6927074   -1.3495532 
 1212000    4.1320904    1.2667476    2.8653429  -0.22179807   0.84458846    1.0067039   0.74370381   -1.2465374            1    1.6319613    2.2484051    2.2450343    0.4024444 -0.0010284128 -0.014347185 -0.036165251    1.4750025    1.4995523   0.71813842  0.066666667    1.4487808        1e-08 1.795346e-09    5.5699568    2.5092447    30.403515 0.0026146412  -0.19626609  -0.01611584   0.20404837   -1.5723868    1.0891689 
 1213000    4.1575205    1.2765292    2.8809912  -0.21756075   0.85111026    1.0021127   0.75715242   -1.2465374            1    1.5935431    2.2217484    2.2281563   0.33072467  0.016978577  -0.10369945 -0.023530908     1.433746    1.4617381   0.70894532  0.066666667    1.4260033        1e-08 1.7723633e-09    5.6421841    2.4832673    30.403515 0.0012628495  -0.20493011 0.0024510495   0.16053117   0.14957999   -3.1742033 
 1214000    4.1234423    1.2487489    2.8746934  -0.21524811   0.83258808   0.99984327   0.72849824   -1.2465374            1     1.494699    2.1428383    2.1556232   0.18563544 -0.0010756204 -0.056447915 -0.0036274154    1.3409493    1.3631924    0.7129515  0.066666667     1.406209        1e-08 1.7823788e-09    5.6104798    2.5091369    30.403515 0.0028338312  -0.16769258 -0.0040651324   0.19472205   0.35116389    2.0285748 
 1215000     4.159867    1.2637425    2.8961245  -0.22186731   0.84258487    1.0003729   0.74439673   -1.2465374            1     1.576984    2.1969397    2.1920932   0.34191917 -0.00058672414 -0.038782884  0.021638798     1.419879    1.4454078    0.7089326  0.066666667    1.3935827        1e-08 1.7723315e-09    5.6422853    2.4912824    30.403515 -0.0060846441  -0.19492692   0.01418489   0.21975096  -0.70040411    1.7340617 
 1216000     4.138973    1.2450544    2.8939186  -0.21390619    0.8301248    0.9835066   0.73468047   -1.2465374            1    1.6487368    2.2490212    2.2749867   0.42220255  0.024068057  0.097286133 -0.045944022    1.4936824     1.519379   0.71492126  0.066666667    1.4030519        1e-08 1.7873031e-09    5.5950218    2.5000625    30.403515 0.0048768619  -0.18835727 0.0057742554   0.20989866  -0.79539468   0.89599037 
 1217000    4.1233915    1.2515731    2.8718184  -0.21713039   0.83447108   0.99385338   0.73528797   -1.2465374            1    1.6418089    2.2324082    2.2592162   0.43380228 -0.0090902498   0.14142157  0.048993065    1.4866263    1.5110902   0.70337033  0.066666667    1.3982581        1e-08 1.7584258e-09    5.6869046    2.4833132    30.403515 -0.021209945  -0.19963492  0.010693245   0.17822317    1.0068017   0.59914192 
 1218000    4.1606753    1.2781721    2.8825032  -0.22223392   0.85220562    1.0000364    0.7602245   -1.2465374            1    1.4709224    2.1251289    2.1296469   0.15799148 -0.0013119672  0.058795481 -0.0087532839    1.3104769    1.3393904   0.70789705  0.066666667    1.4170959        1e-08 1.7697426e-09    5.6505392    2.4834224    30.403515  0.012173308  -0.16958929 0.0038135763    0.1778732    1.0055985  -0.13167165 
 1219000    4.1549849    1.2616878    2.8932972  -0.21429159   0.84121489   0.98747226   0.75021245   -1.2465374            1    1.6214488    2.2135033    2.2277275   0.42311555 0.0019387661 -0.047469663 -0.013190544    1.4631163    1.4915694   0.71551572  0.066666667    1.3956878        1e-08 1.7887893e-09    5.5903733    2.4818546    30.403515  0.016179091  -0.22924445 -0.0050968078   0.19470418    1.3272186    2.0919567 
 1220000    4.1399652    1.2563115    2.8836537  -0.22835692   0.83763035   0.98230491    0.7476137   -1.2465374            1    1.5878092    2.1943163    2.1871001   0.38201122 0.0031275125  0.046009248 -0.040176132    1.4300252    1.4586094   0.70727221  0.066666667    1.4044838        1e-08 1.7681805e-09    5.6555311    2.4947268    30.403515 -0.0090856484  -0.21291013 -0.0014998272   0.17060113   -1.2720069    1.8718096 
 1221000    4.1687579    1.2736676    2.8950903  -0.21046461   0.84920233   0.99582676   0.75797253   -1.2465374            1    1.6223868    2.2368081    2.2120452   0.41830704 -0.0035088229   0.13274932  0.021056067    1.4624166    1.4914085   0.70070039  0.066666667    1.4183255        1e-08 1.751751e-09     5.708574    2.4771162    30.403515 -0.010092044  -0.17622378 0.0044766623   0.20804414   -2.5551778    2.3120055 
 1222000    4.1358515    1.2566062    2.8792453  -0.22566408   0.83782682    1.0025386   0.73532294   -1.2465374            1    1.5827786    2.2208732    2.2005742   0.32688835 -0.011955729  0.051018654  0.017338428    1.4275886    1.4509175   0.71254959  0.066666667    1.3936629        1e-08 1.781374e-09    5.6136444    2.4916925    30.403515 -0.00051377265  -0.16785797 0.0062274729   0.17754419    -1.811397   0.10399228 
 1223000     4.145215    1.2511321    2.8940829    -0.215632   0.83417702   0.99593809   0.73351141   -1.2465374            1    1.6389881    2.2247498     2.245533   0.44668153 -0.013487781 -0.028562946  0.030036467    1.4841804    1.5079952   0.69942165  0.066666667    1.3910789        1e-08 1.7485541e-09    5.7190108     2.483991    30.403515 0.0078913065  -0.17916211 0.0049414561   0.15524544  -0.47314149     3.583024 
 1224000    4.1700434    1.2712894     2.898754  -0.21371948   0.84761665   0.99137437   0.75817311   -1.2465374            1    1.5571303    2.1557647    2.2022941    0.3133321 -0.031088607 -0.016977989  0.056714217    1.3971177    1.4267376   0.69900841  0.066666667    1.4049494        1e-08 1.747521e-09    5.7223918    2.4978522    30.403515 -0.016699099  -0.18122912 -0.0003962239   0.24980861  -0.72581337   0.21865813 
 1225000    4.1758505    1.2775318    2.8983187  -0.21582786    0.8517787    1.0079464   0.75460192   -1.2465374            1    1.5129107    2.1180816    2.1752759   0.24537461 0.0017925344  0.067752194 -0.013238671    1.3536518    1.3803383   0.70036696  0.066666667    1.4263064        1e-08 1.7509174e-09    5.7112917    2.4820324    30.403515 -0.00054309097  -0.18703024 0.0020490019    0.1501968   -1.2218114   0.70275452 
 1226000    4.1446051    1.2669329    2.8776722  -0.20913939   0.84471203    1.0190295   0.73622307   -1.2465374            1    1.6219173    2.2541539    2.2303129   0.38128507 -0.010290224  0.042000517 -0.012576475    1.4665373    1.4878872   0.71237497  0.066666667    1.4215602        1e-08 1.7809374e-09    5.6150204    2.5003826    30.403515 -0.009552986  -0.18347035  0.002891649   0.21372642 -0.035361422   0.29722815 
 1227000     4.141827     1.266598     2.875229  -0.20885125   0.84448872    1.0063716   0.74374896   -1.2465374            1    1.7612831    2.3490415    2.3411283   0.59367965 -0.005493478 -0.033117115 -0.041796555    1.6043148    1.6289179   0.70573234  0.066666667    1.4064448        1e-08 1.7643309e-09    5.6678712    2.4983407    30.403515 0.0018431002  -0.19706008 0.0087521242   0.22642848   0.42735931     2.419921 
 1228000    4.1776259    1.2880917    2.8895342  -0.21925415    0.8588194    1.0167684   0.76053376   -1.2465374            1    1.5082475    2.1276622    2.1370577   0.26002244  0.015749476  0.020337576  0.030979295    1.3477367    1.3745148   0.70025906  0.066666667    1.4192472        1e-08 1.7506476e-09    5.7121717    2.4702917    30.403515 0.0063332348  -0.18079626 -0.0054040505   0.19490976   -1.1390799   0.75948033 
 1229000    4.1583598    1.2753221    2.8830377  -0.21352092   0.85030545   0.98776201   0.76478929   -1.2465374            1    1.5633037     2.180444    2.2110782    0.2983887  0.013591067  0.029042259  0.033612328    1.4018948    1.4333861   0.70723412  0.066666667    1.3925121        1e-08 1.7680853e-09    5.6558357    2.4867551    30.403515 -0.0096200488  -0.22362116 -0.016201767   0.20420631  -0.61162146     1.379567 
 1230000    4.1612615    1.2575815    2.9036801  -0.21164905   0.83847707    1.0029588   0.73611667   -1.2465374            1    1.5635821    2.1541438    2.1940139   0.34258864  0.019802606   0.04965029  0.053603063    1.4082246    1.4316657   0.71053148  0.066666667     1.368868        1e-08 1.7763287e-09    5.6295887    2.4787202    30.403515 -0.00086157239  -0.17553241 -0.0053349034   0.22878578   0.38527928    3.0679708 
 1231000    4.1955489     1.273029    2.9225199  -0.21624545   0.84877649    1.0212713   0.74142408   -1.2465374            1    1.6962765     2.276351    2.2745664   0.53791226 -0.00078397505 0.0049532311 -0.033506288    1.5397989    1.5619516   0.71250904  0.066666667    1.3782478        1e-08 1.7812726e-09    5.6139639    2.4920805    30.403515 -0.0022030013  -0.18546614   0.01449352   0.20428471     0.614145    5.9443537 
 1232000    4.1722844    1.2870458    2.8852386  -0.21490991   0.85812206    1.0156125   0.76012205   -1.2465374            1    1.5854279    2.2130532    2.2300556   0.31317503  0.013930153 -0.076518582 -0.025606415     1.425004    1.4518473   0.69803535  0.066666667    1.3732305        1e-08 1.7450884e-09    5.7303688    2.4764988    30.403515  0.011259988  -0.16324917 -0.0060689708   0.19209344   0.46252774    4.1387178 
 1233000    4.1578358    1.2713852    2.8864505  -0.21492043   0.84768055   0.99532754   0.75581322   -1.2465374            1    1.5982528    2.2236348    2.2368108    0.3343127 -0.010623164  0.021726674 -0.046447539    1.4387383    1.4673401    0.7020598  0.066666667    1.3747057        1e-08 1.7551495e-09    5.6975203    2.4916747    30.403515 -0.013599968  -0.21257551 -0.0095526724   0.19286702   0.44135295   -0.3748489 
 1234000    4.1585732    1.2818929    2.8766803  -0.21991569   0.85468644    1.0321845   0.74421704   -1.2465374            1    1.5409386    2.1830277    2.1505597   0.28922826 0.00049275298  0.015298685 -0.035782097    1.3838714    1.4051782   0.70105348  0.066666667    1.3641062        1e-08 1.7526337e-09    5.7056988    2.4803837    30.403515 0.0027009858  -0.18268255 -0.0083076523   0.18096617 -0.040391074     4.039576 
 1235000    4.1266284    1.2437411    2.8828873   -0.2196121   0.82924919    1.0156436   0.71323116   -1.2465374            1    1.6317125    2.2355523    2.2264057   0.43317943  -0.02130506  0.042126218 -0.036110378    1.4811849    1.4981277   0.70915229  0.066666667    1.3737891        1e-08 1.7728807e-09    5.6405374     2.494608    30.403515 0.0042421093  -0.23788701 0.0026514939   0.22319264  -0.84932113    2.3569057 
 1236000     4.156511    1.2629969    2.8935141  -0.21183818   0.84208776    1.0043366   0.74111952   -1.2465374            1    1.5946483     2.226772    2.2088358   0.34833716 0.0067887277  0.024749673  0.017898633    1.4382349    1.4625508   0.70233107  0.066666667    1.3977402        1e-08 1.7558277e-09    5.6953198    2.4787899    30.403515 -0.0094826164  -0.17293489 0.0090238098   0.19047713   0.41893313    3.9046451 
 1237000     4.185717     1.287022     2.898695  -0.21542192   0.85810619    1.0261298   0.75354185   -1.2465374            1    1.5487196    2.1786543    2.1670178   0.30048687 -0.0075718516 -0.049991943 -0.036875929    1.3896845    1.4137557   0.70522289  0.066666667    1.4085311        1e-08 1.7630572e-09    5.6719657    2.5123877    30.403515 -0.0050577434  -0.17359646  0.023346066   0.20541979  0.074530062    1.4441575 
 1238000    4.1634065    1.2670546    2.8963519  -0.22083565   0.84479318     1.017172   0.73751239   -1.2465374            1    1.5279777    2.1689426    2.1576482   0.25734237 -0.019177134 -0.0004392223  0.020002485    1.3723256     1.394192   0.70424072  0.066666667    1.3892743        1e-08 1.7606018e-09    5.6798761    2.4966984    30.403515 0.0014319019  -0.16380761 -0.0010450129   0.22083329  -0.94761791    1.5400659 
 1239000    4.1607358    1.2580682    2.9026676  -0.22258098   0.83880157    1.0242532   0.72337272   -1.2465374            1    1.6105016    2.2220211    2.2109258   0.39855793  -0.01129492  0.051437363  0.066890631    1.4578337    1.4757845   0.71514437  0.066666667    1.3947555        1e-08 1.7878609e-09    5.5932762    2.4996791    30.403515 -0.017069703  -0.19565774  0.010858724   0.22610293  0.023402256    2.8823448 
 1240000    4.1336391    1.2625059    2.8711332  -0.21220649   0.84176037    1.0129099   0.73524513   -1.2465374            1    1.4895906    2.1499947    2.1152313   0.20354594 -0.018082949  0.069768625  0.025373931     1.334417    1.3563654   0.70666412  0.066666667    1.3906734        1e-08 1.7666603e-09    5.6603978    2.4936467    30.403515 -0.0052975881  -0.19423135 -0.001590454   0.16874166  -0.97145888   0.50637736 
 1241000    4.1712605    1.2707833    2.9004771   -0.2177206   0.84727925    1.0006368   0.75185303   -1.2465374            1    1.5420693    2.1542714    2.1812072   0.29072928 -0.013012505  0.059491181 0.0011040837    1.3833906    1.4104584   0.70298802  0.066666667     1.371377        1e-08 1.7574701e-09    5.6899974    2.5134468    30.403515  0.010696713   -0.1830713 -0.00026714706   0.18730187   0.22451934  -0.70136069 
 1242000    4.1793849      1.27965    2.8997348  -0.21912276   0.85319103    1.0058643   0.75819227   -1.2465374            1    1.5680776    2.2148305    2.1796328   0.30976968  0.014635179   0.17084607  0.050649472     1.408061    1.4357791   0.70453339  0.066666667    1.3671712        1e-08 1.7613335e-09    5.6775165    2.4833081    30.403515 -0.0077086387  -0.20924123 -0.013844098   0.17476206  -0.67302584     2.837532 
 1243000    4.1836648    1.2780745    2.9055903   -0.2109581   0.85214058    1.0193826   0.74806235   -1.2465374            1    1.6982738    2.3148133    2.2783883   0.50161981 -0.0036036446   0.15520629  0.020491052    1.5403951    1.5641973   0.70651653  0.066666667    1.4034382        1e-08 1.7662913e-09    5.6615802    2.4910211    30.403515  -0.01085565  -0.18590747 -0.00092360753   0.21036238   0.43636616   0.45312083 
 1244000    4.1783804    1.2861895    2.8921909  -0.21802787   0.85755113    1.0049587   0.76583472   -1.2465374            1     1.422183    2.1107025    2.0605706  0.095275825  0.016380663  0.051594771  0.075129939    1.2605535    1.2900036   0.70774851  0.066666667    1.4011954        1e-08 1.7693713e-09     5.651725    2.5046027    30.403515 0.0043348818  -0.17218158 -0.0039003145   0.21122815    1.1015234  -0.72647557 
 1245000    4.1518022    1.2862164    2.8655857  -0.21855468   0.85756908    1.0375101   0.74557772   -1.2465374            1    1.6643066    2.2609608    2.2563654   0.47559356 0.0018297177 -0.030601905 -0.066950975    1.5069523    1.5278458   0.70574924  0.066666667    1.3942904        1e-08 1.7643731e-09    5.6677355    2.4712009    30.403515 0.0020232797  -0.19865369 0.0011671669   0.18296331   -1.0956465    2.6080466 
 1246000     4.164483    1.2670818    2.8974012  -0.22292011   0.84481131   0.99613852   0.75064995   -1.2465374            1    1.5797421    2.1892967    2.1940662   0.35586346 -0.016327781 -0.010753529  0.035191688    1.4213173    1.4487228   0.71043661  0.066666667    1.4110103        1e-08 1.7760915e-09    5.6303405    2.4848283    30.403515 0.0012553236   -0.1838045 -0.0035493419   0.21896419   -1.4791055  -0.52624777 
 1247000    4.1601687    1.2603763    2.8997924   -0.2246917   0.84034046   0.99363062   0.74495502   -1.2465374            1    1.5465673    2.1569079    2.1881722   0.29462165  0.016813072 -0.084064308 -0.018466975    1.3893444    1.4158778   0.70610067  0.066666667    1.3880677        1e-08 1.7652517e-09    5.6649146    2.5122087    30.403515 -0.0010718342  -0.17596348 0.0052209467   0.18902065   0.95727857    1.2053127 
 1248000    4.1646416      1.27944    2.8852016   -0.2121499   0.85305097    1.0140048   0.75289172   -1.2465374            1    1.6955582    2.2823986    2.3094703   0.49480567 -0.0043808733 -0.051149061 -0.064816991    1.5366603     1.562189   0.70512972  0.066666667    1.3945803        1e-08 1.7628243e-09    5.6727151    2.4981062    30.403515 -0.011856856  -0.22409654 -0.013952947   0.16646363 -0.077444574    1.0997385 
 1249000    4.1646755    1.2560861    2.9085894  -0.21536346   0.83748005   0.99752433   0.73788492   -1.2465374            1    1.6733865    2.2697217    2.2703901   0.48004771 -0.015388253  -0.17414558  0.010944686    1.5176558    1.5421849   0.70056509  0.066666667    1.3926057        1e-08 1.7514127e-09    5.7096765     2.485192    30.403515  0.005736741  -0.19780438 -0.00015276231   0.19225847    1.9241138    1.2819444 
 1250000    4.1929736    1.2821201    2.9108535  -0.21182576   0.85483787    1.0149722   0.75518963   -1.2465374            1    1.6618746    2.2710192    2.2555192   0.45908559 -0.005917121 -0.082249269   0.04567203    1.5024918    1.5283782   0.70211065  0.066666667    1.4117714        1e-08 1.7552766e-09    5.6971077    2.4967201    30.403515 8.7773645e-05  -0.20383064 0.0048526579   0.19777583    1.4649738    2.6917656 
 1251000    4.1672088    1.2881067     2.879102  -0.22373712   0.85882942    1.0151797   0.76154007   -1.2465374            1    1.6752313    2.2900355    2.2522538   0.48340455  0.010412912 -0.074913487  0.058009739    1.5145081    1.5417075   0.70637421  0.066666667    1.3943078        1e-08 1.7659355e-09    5.6627209    2.4799667    30.403515 0.0025123891  -0.25114628 0.0040176933   0.21449203   0.49753217    2.6549354 
 1252000    4.1666913    1.2614372    2.9052541  -0.21746294   0.84104787    1.0024578   0.74060227   -1.2465374            1    1.6532405    2.2832741     2.246517   0.42993028 0.0018637808  0.026852361 -0.0007872658    1.4969362      1.52139   0.71204934  0.066666667    1.3646949        1e-08 1.7801233e-09    5.6175883    2.5219138    30.403515 0.00038884851  -0.19529643  0.011368384   0.18874121   -1.2059152    2.2991822 
 1253000    4.1653779    1.2808427    2.8845353  -0.20623038   0.85398619    1.0091152   0.75745715   -1.2465374            1    1.6224802    2.2562252    2.2247589   0.38645644 -0.0043228988    0.1461189 -0.022011642    1.4626187    1.4897541   0.70385795  0.066666667    1.3674032        1e-08 1.7596449e-09    5.6829649    2.5194072    30.403515 -0.0051547946    -0.204985 0.0022236991   0.18457942   -1.6759479      2.46575 
 1254000    4.1769826    1.2598005    2.9171821  -0.20683265   0.83995661   0.99472218   0.74365162   -1.2465374            1    1.7171011    2.2957595    2.2803807   0.57516297  0.014369194  0.053783503  0.081783071    1.5601533     1.586268   0.69534308  0.066666667    1.3619696        1e-08 1.7383577e-09     5.752556    2.4803046    30.403515 -0.014397532  -0.21386018 0.0089870706   0.22820016  -0.87466118  -0.47238072 
 1255000    4.1765083    1.2709876    2.9055207  -0.20593673   0.84741547    1.0090354   0.74684012   -1.2465374            1     1.569122    2.2060815     2.207926   0.29335856 0.0091839098  0.035050042 -0.013123827    1.4115013    1.4364064   0.70216761  0.066666667    1.3826233        1e-08 1.755419e-09    5.6966456     2.490946    30.403515 -0.0056170523  -0.17107524 0.0011335748   0.16498765  -0.64858191  -0.40506049 
 1256000    4.1772874    1.2557841    2.9215034  -0.20496762   0.83727867    1.0037697   0.73366587   -1.2465374            1     1.545916    2.1782764    2.1844764   0.27499535  0.013641179  0.079368666 0.0099958088    1.3910757     1.413893   0.70319574  0.066666667    1.3856729        1e-08 1.7579893e-09    5.6883166    2.5014948    30.403515 -0.0076062707  -0.15705116 -0.0023898298   0.22212947  -0.72948067   0.60384437 
 1257000    4.1397562    1.2653988    2.8743574  -0.21957374   0.84368921    1.0137963   0.73782394   -1.2465374            1    1.7455574    2.3442039    2.3247484   0.56771982 0.0032952475 -0.039166002 -0.053841795    1.5898395    1.6122156   0.70296718  0.066666667    1.4006416        1e-08 1.7574179e-09    5.6901661    2.4887071    30.403515 -0.0022405431  -0.19281307 0.0023482776   0.19107147  -0.97147579    1.1822497 
 1258000    4.1806909    1.2785932    2.9020978  -0.21365189   0.85248637    0.9987018   0.76151201   -1.2465374            1    1.4927716     2.131772    2.1351806   0.21136206 0.00071049479  0.074338162   0.02289311    1.3320543    1.3614151   0.70314081  0.066666667    1.4070782        1e-08 1.757852e-09     5.688761    2.4953895    30.403515 -0.0042290733  -0.19367241 -0.0037996271   0.20294935   -1.3933446   -2.5583776 
 1259000    4.1688968     1.265458    2.9034387  -0.21291658   0.84372868    1.0007781   0.74600106   -1.2465374            1    1.5791901    2.1924341    2.2183304   0.32680572 0.0024271444   0.13643967 -0.024180749    1.4217464    1.4475605   0.70029722  0.066666667    1.4045076        1e-08 1.750743e-09    5.7118605    2.4851345    30.403515 0.0078764827  -0.16919931  0.011532021   0.20472105   -1.0997228  -0.13258469 
 1260000    4.1898608    1.2857517    2.9041091  -0.22074822   0.85725924    1.0053001   0.76514813   -1.2465374            1    1.6173413    2.2121406    2.2374396   0.40244365 0.0079049645  0.067763314  0.045365705    1.4558566     1.485117   0.71084788  0.066666667    1.3859265        1e-08 1.7771197e-09     5.627083    2.5392454    30.403515 0.0057415141  -0.18725716 -0.0015248716   0.19321563  -0.41159447   0.47981932 
 1261000    4.1559122    1.2641227    2.8917896  -0.21669463   0.84283833    1.0088221   0.73954261   -1.2465374            1    1.6092393    2.2073305    2.2148332   0.40555425 0.0093210032 -0.040406412   0.04918976    1.4531587    1.4765518   0.71078858  0.066666667    1.3987225        1e-08 1.7769714e-09    5.6275524    2.4966492    30.403515 0.0046483386  -0.19749719 0.0058305552   0.21108649   0.56161449    1.8803297 
 1262000     4.171456    1.2804945    2.8909616  -0.21865079   0.85375403    1.0094909   0.75684614   -1.2465374            1    1.4735907    2.1349687    2.1305747   0.15522879 -0.013922625   -0.0558417  -0.07097115    1.3138582    1.3408152   0.69797932  0.066666667    1.4072723        1e-08 1.7449483e-09    5.7308288    2.4846635    30.403515 0.0071601493  -0.17331206 -0.0086560979   0.20811249   0.26924192   0.83858235 
 1263000    4.1731064    1.2726922    2.9004142  -0.21523649   0.84855199    1.0129596   0.74623955   -1.2465374            1    1.5427033    2.1923712    2.1596989   0.27603968  0.020574787 -0.094513181 -0.038812098    1.3852093    1.4094715    0.7035268  0.066666667    1.4263211        1e-08 1.758817e-09    5.6856398    2.5084085    30.403515 0.00057652521  -0.18230817 -0.006455055   0.16774645    1.1446386    1.9428108 
 1264000    4.1389933     1.260679    2.8783143  -0.21657344   0.84054232    1.0103951   0.73483502   -1.2465374            1    1.6282809    2.2415003    2.2482462   0.39509638 -0.0012496509 -0.0030448132  0.059227077    1.4731939    1.4953865   0.70436732  0.066666667    1.4266949        1e-08 1.7609183e-09    5.6788552    2.4881626    30.403515  0.016792396   -0.2180933  0.015108794   0.25399174  -0.36107354     2.577323 
 1265000    4.1739138    1.2762037    2.8977101  -0.21846397   0.85089321      1.01043   0.75161669   -1.2465374            1    1.5529888     2.143708    2.1806185   0.33463981  0.015330164 -0.0065980509 0.0085918733      1.39436    1.4200898   0.70165128  0.066666667    1.4251654        1e-08 1.7541282e-09    5.7008376     2.497582    30.403515 -0.0017618358  -0.19721479  0.020181471   0.20663603   0.73568869 -0.096287046 
 1266000    4.1916963     1.271257    2.9204392  -0.22221863   0.84759509    1.0000408   0.75273718   -1.2465374            1    1.5151533    2.1372475     2.159148   0.24906424 -0.0030904996  -0.14177332 -0.0031757753     1.356288    1.3836207   0.70047262  0.066666667    1.4625774        1e-08 1.7511816e-09    5.7104302    2.4889451    30.403515 -0.011049477  -0.17982728 -0.0044563702   0.17135931  -0.43247649   0.97517966 
 1267000    4.1612407    1.2551821    2.9060586   -0.2230717    0.8368773   0.98153463   0.74687126   -1.2465374            1    1.7872427     2.360598    2.3445843   0.65654579 0.0080029963 -0.057626981 -0.017198446    1.6296154    1.6581442   0.71122596  0.066666667    1.4644579        1e-08 1.7780649e-09    5.6240917    2.4816624    30.403515 -0.0049017531  -0.21721031 -0.0017520039   0.21666883   -1.4382726    1.8381139 
 1268000    4.1601987    1.2649767     2.895222  -0.20994166   0.84340776    1.0007667   0.74548716   -1.2465374            1    1.7507365    2.3247601    2.3198523   0.60759699 0.0011610132  -0.10258338  0.025013267    1.5934013    1.6191084   0.70400119  0.066666667    1.4720048        1e-08 1.760003e-09    5.6818085    2.4902998    30.403515 -4.4260972e-05  -0.21269197 -0.0066998744   0.19862589  -0.27645775    2.4045706 
 1269000    4.1629052     1.263332    2.8995732  -0.20777613    0.8423112   0.98168892   0.75559637   -1.2465374            1    1.5777169    2.1724224    2.2044045   0.35632377 -0.0015147223  0.051173703 -0.015300878    1.4182481    1.4485981   0.69573845  0.066666667    1.4780379        1e-08 1.7393461e-09    5.7492869    2.5043081    30.403515 0.00070146267  -0.18792744 0.0024474167   0.22173735  -0.37328466    1.6930541 
 1270000    4.1797927    1.2853358    2.8944569  -0.22334344   0.85698194    1.0019924   0.76675933   -1.2465374            1    1.5751587    2.1978509    2.1807944   0.34683086   0.01101923  0.018733145 0.0039652796     1.413334    1.4433695   0.70054399  0.066666667    1.4729613        1e-08  1.75136e-09    5.7098484    2.4885131    30.403515  0.011630847  -0.21060557 -0.0044446177   0.17766237   -1.2409301    2.3740522 
 1271000    4.1727053    1.2802858    2.8924195  -0.21643065   0.85361493   0.98776166   0.77016203   -1.2465374            1     1.552177     2.179544     2.182631   0.29435612 0.0029882692 -0.091778086   0.11702591    1.3896342    1.4222595   0.71199279  0.066666667    1.4819387        1e-08 1.779982e-09    5.6180344     2.505472    30.403515 0.0093208818  -0.19068222 0.0061095792    0.1981875   0.75479974     2.451822 
 1272000    4.1814127    1.2721615    2.9092512  -0.21522346   0.84819815    0.9915304   0.75901987   -1.2465374            1    1.5110006    2.1464491     2.132454    0.2540987 -0.0054868294 -0.035026543 -0.032882437    1.3508093    1.3805874   0.71001147  0.066666667    1.4862623        1e-08 1.7750287e-09    5.6337118    2.5091178    30.403515  0.015480061  -0.18732398 -0.00017621943   0.18709765  -0.31012347  0.013662009 
 1273000    4.1533612    1.2547807    2.8985805  -0.21928894   0.83660966   0.99732602   0.73659554   -1.2465374            1    1.5384314    2.1507471    2.1563964   0.30815063 -0.0097694943 -0.095055886 -0.0014369301    1.3829728    1.4072559   0.70953799  0.066666667    1.5063403        1e-08 1.773845e-09    5.6374713    2.5038098    30.403515 -0.0021704901  -0.16337612 0.00045622499   0.18836386 -0.067623075   0.15906641 
 1274000    4.1521395    1.2584116    2.8937279  -0.22610403   0.83903054   0.99859463   0.73973493   -1.2465374            1     1.526656    2.1529462    2.1656187   0.26140329 0.00014430519 -0.016094569 0.0073757548    1.3705349    1.3953137   0.70859356  0.066666667    1.4920729        1e-08 1.7714839e-09     5.644985    2.5174621    30.403515 -0.0003652748  -0.20009981 -0.0041048538   0.21593679  -0.53626448    3.2341292 
 1275000    4.1725297    1.2787802    2.8937495  -0.22853993   0.85261108    1.0061376   0.75708047   -1.2465374            1    1.5097732    2.1406822    2.1441305   0.24450705 -0.013779193 -0.020315205  0.069910864    1.3499913    1.3774388   0.71050849  0.066666667     1.491175        1e-08 1.7762712e-09    5.6297709    2.4875273    30.403515 -0.0038431416  -0.19275518 -0.016618196   0.16524253   0.53913074    1.5572232 
 1276000    4.1521783     1.267142    2.8850363  -0.20619996   0.84485143    1.0015578    0.7473378   -1.2465374            1    1.7021845    2.3017338    2.2940417    0.5107781 0.00061571957 -0.037998593  0.015853696    1.5444588    1.5704525   0.70907927  0.066666667    1.4689291        1e-08 1.7726982e-09    5.6411182    2.5039343    30.403515 -0.00010838324  -0.18148529 -0.010574836   0.21785915    0.8301269    6.2848907 
 1277000    4.1534659    1.2598705    2.8935954  -0.21778863   0.84000325    1.0036177   0.73818364   -1.2465374            1    1.5725267     2.192469    2.1991444   0.32596669 -0.005719428  -0.01686216  0.019367987    1.4167329    1.4405237   0.70538206  0.066666667    1.4624332        1e-08 1.7634551e-09    5.6706858    2.4960642    30.403515 -0.009097068  -0.19507378  0.001952098   0.18961751   -0.1564833    1.4963964 
 1278000    4.1671314    1.2700914      2.89704  -0.21574881   0.84681792   0.98572442   0.76039755   -1.2465374            1    1.5240639     2.182619    2.1260299   0.26354284 0.0036182017 -0.089899293 -0.040289289    1.3635819    1.3944143   0.69856045  0.066666667    1.4711578        1e-08 1.7464011e-09    5.7260614    2.4936427    30.403515 0.0039388668  -0.17742621 -0.0048592663   0.20239731   0.24246365  -0.83380406 
 1279000    4.1525917    1.2767609    2.8758308  -0.22132033   0.85126473    1.0042819   0.75605131   -1.2465374            1    1.5828029    2.1983779    2.2088968   0.34113401 -0.0030389378  -0.10855517 -0.00014500112    1.4232381    1.4507125    0.7101661  0.066666667    1.4850222        1e-08 1.7754153e-09    5.6324851     2.497041    30.403515 -0.0024706199  -0.16370831 -0.0039873635   0.17663146   0.28560574  -0.86633498 
 1280000    4.1612882    1.2774036    2.8838847  -0.22070595   0.85169322   0.99780033   0.76078624   -1.2465374            1     1.714333    2.2760995    2.3169492   0.54995038 0.0056036517 -0.077088086   0.02250236     1.553769    1.5830952   0.70810629  0.066666667    1.4753159        1e-08 1.7702657e-09    5.6488694    2.4674736    30.403515 -0.00076214533   -0.1949042  0.010546981    0.1831387   0.16810303    1.3719624 
 1281000    4.1852053    1.2768518    2.9083535  -0.21666871   0.85132534    1.0114446   0.75168587   -1.2465374            1    1.4963484    2.1414048    2.1408636   0.20677676 -0.013570356 -0.011465194  0.063323654     1.337705    1.3633159   0.70559895  0.066666667     1.487712        1e-08 1.7639974e-09    5.6689427     2.496263    30.403515 -0.0074683973  -0.18891023  0.008493122   0.18683609  0.086731967    1.1291594 
 1282000    4.1979259    1.2659332    2.9319927   -0.2141022   0.84404552    1.0028202   0.74524274   -1.2465374            1     1.515838    2.1522229    2.1340039   0.26128711 -0.0047342603 -0.073869748  0.037893099    1.3585544    1.3839399   0.71023509  0.066666667    1.4687438        1e-08 1.7755877e-09     5.631938    2.5132593    30.403515  0.014594094  -0.19347053 -0.0065461417   0.16791311    1.8543243   0.84534653 
 1283000    4.1754372    1.2724754    2.9029618  -0.22275957   0.84840745    1.0028484   0.75230623   -1.2465374            1    1.5916611    2.2209383     2.203497   0.35054797   0.01360743  0.061617578 -0.012352098    1.4328867    1.4597592   0.70864307  0.066666667    1.4515995        1e-08 1.7716077e-09    5.6445906    2.5048238    30.403515 0.00064777667  -0.18562374  0.011717917   0.17430921 -0.097150162     3.137579 
 1284000    4.1835035    1.2897945     2.893709    -0.213554   0.85995472    1.0188776   0.76106235   -1.2465374            1    1.5114411    2.1630284    2.1421149   0.22918016 -0.00072597868  0.042959713  0.040159924    1.3508188     1.377431   0.70911609  0.066666667    1.4582594        1e-08 1.7727902e-09    5.6408254    2.5003961    30.403515 0.0028315293  -0.18638842  0.012636385   0.21242929   0.20754152      0.75598 
 1285000     4.181266    1.2899309    2.8913351  -0.21160752   0.86004564    1.0183819   0.76151884   -1.2465374            1    1.6999894    2.2978465    2.2710685   0.53105319  0.009982091 -0.057573662  0.066256794    1.5392707    1.5660445   0.71274914  0.066666667    1.4397165        1e-08 1.7818729e-09    5.6120727    2.4955474    30.403515 -0.0033830314  -0.18636073 -0.00085205572   0.18680315   0.27101828    3.1396475 
 1286000    4.1773853    1.2657199    2.9116654  -0.22442676   0.84390324    1.0247454   0.73134791   -1.2465374            1    1.5026303    2.1298952    2.1307505   0.24724516 -0.0018962304  0.086997254 -0.014804395    1.3482792    1.3678484   0.71135412  0.066666667    1.4612249        1e-08 1.7783853e-09    5.6230784    2.5043599    30.403515 -0.0087243855  -0.17189373 -0.0018784952   0.21094183   -2.3142213  -0.33374514 
 1287000    4.1875587    1.2767987    2.9107599  -0.21110428   0.85128996    1.0064114   0.75476513   -1.2465374            1    1.6025979    2.2354615    2.2078005   0.36453178 -0.017584208  0.029680669 -0.041648997    1.4433046    1.4702275   0.70237342  0.066666667    1.4471881        1e-08 1.7559335e-09    5.6949764    2.4939147    30.403515 0.0059455607   -0.1741065 -0.00082889527   0.17318134  -0.88990683  -0.78773289 
 1288000    4.1516432      1.25303    2.8986132  -0.21313125   0.83544244   0.99104032   0.73861797   -1.2465374            1    1.6389095    2.2443783    2.2482729   0.42407734  0.005939186  -0.10138117 -0.016961584    1.4830241    1.5085608   0.70221429  0.066666667    1.4650797        1e-08 1.7555357e-09    5.6962669    2.4936071    30.403515 -0.0027216675  -0.18008074 -0.0044623084   0.19379327  -0.22529998   -0.3708248 
 1289000    4.1819311    1.2905353    2.8913958  -0.21411357   0.86044864    1.0068813   0.76934032   -1.2465374            1    1.6693201    2.2606188    2.2790143   0.46832713 0.0027396934 -0.033508499 0.0036906515    1.5069507    1.5368878   0.70841704  0.066666667    1.4531257        1e-08 1.7710426e-09    5.6463916    2.4770857    30.403515 0.0017671879  -0.17719058 0.0035414181   0.20465716  -0.11951187   0.91039815 
 1290000    4.2132109    1.2721071    2.9411038  -0.21213408   0.84816187     0.983342   0.76406401   -1.2465374            1    1.5497694    2.1776069    2.1706779   0.30102336 -0.001519392 -0.028608558 0.0095628945    1.3885136    1.4204332   0.70514617  0.066666667    1.4198362        1e-08 1.7628654e-09    5.6725827    2.5055651    30.403515 -0.014408921  -0.17109225 -0.0089365012   0.18593135    1.0047499    1.0117303 
 1291000    4.1562734    1.2766259    2.8796475  -0.22122877    0.8511747    1.0022625   0.75716368   -1.2465374            1     1.568566    2.1918137    2.1880379   0.32584641 0.00076614021 -0.0095428046 -0.029949353    1.4087665    1.4367412   0.69935822  0.066666667    1.4201904        1e-08 1.7483956e-09    5.7195295     2.492483    30.403515  0.011992777  -0.21830911  0.003986586   0.20119328   0.18863485    1.5271281 
 1292000     4.182995    1.2880279    2.8949671  -0.22211044   0.85877683    1.0096506   0.76490047   -1.2465374            1    1.7137332    2.3101791    2.2857931    0.5452275  0.018656907  -0.01549823  0.040440654    1.5523009    1.5809367   0.71122979  0.066666667    1.4187208        1e-08 1.7780745e-09    5.6240614    2.4940949    30.403515 0.0022346677  -0.19398031 -0.0012917572   0.22317923    1.1399693    4.2141268 
 1293000    4.1683772     1.282827    2.8855501  -0.21909534   0.85530924    1.0056363   0.76177301   -1.2465374            1    1.4340229    2.1121779    2.1123069  0.077583813  0.010521364  0.041167299   0.01981575    1.2732506    1.3017544   0.70312921  0.066666667    1.4418083        1e-08 1.757823e-09    5.6888548    2.4739367    30.403515 -0.006257667  -0.21102114 -0.001259133   0.16889432  -0.44546537   -0.4989649 
 1294000    4.1926106    1.2837454    2.9088652  -0.22238427   0.85592155    1.0035848   0.76404549   -1.2465374            1    1.5071492    2.1338387    2.1418897   0.24571924 -0.014938486 -0.0023933293  0.018416111    1.3458973    1.3751505    0.7043973  0.066666667    1.4335069        1e-08 1.7609932e-09    5.6786135    2.5065528    30.403515  0.011440765   -0.1908258 -0.0025935414   0.19704451   0.40541566   -1.0585572 
 1295000    4.1922671    1.2810108    2.9112564  -0.21076176   0.85409828    1.0303463   0.74440781   -1.2465374            1    1.7091083    2.3045438    2.2875061   0.53527507  0.007275514  0.048372862  0.021517168     1.552001    1.5735898   0.70419278  0.066666667    1.4278424        1e-08 1.7604819e-09    5.6802627    2.4817381    30.403515 -0.0036960318  -0.19552136 0.00024411484   0.18653618   -0.1637549    2.4495659 
 1296000    4.1768658    1.2736774    2.9031884  -0.21956554   0.84920882    1.0136698    0.7468632   -1.2465374            1    1.5644372    2.1869467    2.1960379   0.31032703 -0.021218901 -0.070271137 0.0059240406    1.4068116    1.4311121   0.70315769  0.066666667    1.4406972        1e-08 1.7578942e-09    5.6886244    2.4963574    30.403515 -0.0057128203  -0.19724441 0.00063425849   0.16585611   0.68920964  -0.29869604 
 1297000    4.1806443     1.277111    2.9035333  -0.21809827   0.85149815    1.0104167   0.75260698   -1.2465374            1    1.6098586     2.200974    2.2116787   0.41692307 -0.012483096  -0.06497031  0.042552458    1.4510208    1.4769613   0.70714709  0.066666667    1.4625605        1e-08 1.7678677e-09    5.6565318    2.5045159    30.403515  0.010424474  -0.19439328  0.002251197   0.21538603  -0.28198462  -0.66427668 
 1298000    4.1710413    1.2610061    2.9100352  -0.21399979   0.84076041    1.0134374   0.73329308   -1.2465374            1    1.5036581    2.1212333    2.1547793   0.23496156 -0.0011086758 -0.016420524  0.029505132    1.3488964    1.3703635   0.70982004  0.066666667    1.4599316        1e-08 1.7745501e-09    5.6352312    2.5120644    30.403515 0.0099563724  -0.21169201 0.0019255094   0.16821898   -1.6160331   -1.7556865 
 1299000     4.169498    1.2677736    2.9017244  -0.22103755   0.84527253    1.0171611   0.73829736   -1.2465374            1    1.5801154    2.1996427    2.2011301   0.33957326 -0.0015922824  -0.09156656 -0.052807187    1.4242976     1.446331   0.70381007  0.066666667    1.4520713        1e-08 1.7595252e-09    5.6833515    2.5004481    30.403515 0.0021360532  -0.20198893 -0.0081052728   0.20041298  -0.55478963    2.7268515 
 1300000    4.1695239    1.2712839      2.89824  -0.21448606     0.847613    1.0104754   0.74626334   -1.2465374            1    1.6287147    2.2225476    2.2191605   0.44443605 -0.0083267545 -0.032855548 0.00029361795    1.4712157    1.4958097   0.69993284  0.066666667    1.4610638        1e-08 1.7498321e-09    5.7148341    2.5100365    30.403515 -0.0046776004  -0.20685312 0.0043244499   0.19782326   0.25055507    1.9714686 
 1301000    4.1790256    1.2738751    2.9051505  -0.21378711   0.84934063    1.0037619   0.75325182   -1.2465374            1    1.5833228    2.1931477    2.2045682   0.35225236 0.0037816621 -0.0057733374 0.0040735658    1.4243488    1.4513008   0.70689214  0.066666667    1.4692893        1e-08 1.7672304e-09    5.6585719     2.494689    30.403515 0.0073281192  -0.19664899 -0.00098559657    0.2250235  -0.56105031    4.0572492 
 1302000    4.1717069    1.2728394    2.8988674  -0.22050615   0.84865014     1.017355   0.74365965   -1.2465374            1    1.6320847    2.2502342    2.2451188    0.4009009 -0.007614491  0.044267396 -0.023092056    1.4751352    1.4982748   0.70622894  0.066666667    1.4588821        1e-08 1.7655724e-09    5.6638857     2.482283    30.403515 0.0037257231  -0.19136487 0.0041287429    0.1767389  -0.46620144    2.3033153 
 1303000    4.1607991    1.2579312    2.9028679  -0.21837287   0.83871028   0.99896019   0.73898722   -1.2465374            1    1.5601323    2.2020447    2.1553057   0.32304636 0.0079364832 -0.017878264 -0.055515304    1.4041689    1.4287418   0.69924596  0.066666667    1.4529592        1e-08 1.7481149e-09    5.7204478    2.4753249    30.403515 0.0092973982  -0.18304288 0.0076075826   0.20642546   0.75757805    2.1383297 
 1304000    4.1770221    1.2668163    2.9102058    -0.212942   0.84463427   0.98829458   0.75525093   -1.2465374            1    1.5063283    2.1291559    2.1596193   0.23020959  0.024559911 0.00010509251  -0.06925713    1.3469325    1.3763407   0.69981742  0.066666667    1.4585898        1e-08 1.7495436e-09    5.7157765    2.5301815    30.403515  0.008562558  -0.19032575 -0.0026379432   0.18068242  -0.51425968  -0.80786699 
 1305000    4.1894718    1.2601006    2.9293712  -0.20082916   0.84015668   0.97290082   0.75757555   -1.2465374            1     1.442333    2.1092509     2.086902   0.13084598  0.013045272 -0.068203883 -0.036786096    1.2824465    1.3143701   0.70382987  0.066666667    1.4765585        1e-08 1.7595747e-09    5.6831916    2.4780564    30.403515 -0.005095139  -0.21342595 -0.0043562868   0.17643253   0.49516077    0.6378678 
 1306000    4.1507761    1.2600078    2.8907683  -0.22318748   0.84009481     1.006046   0.73681895   -1.2465374            1    1.6071441    2.2476207    2.2022235   0.37158812 0.0072826073 -0.0064117708 -0.051007675    1.4516384    1.4748217   0.71635413  0.066666667    1.4853485        1e-08 1.7908853e-09    5.5838305    2.4815392    30.403515 -9.4724969e-05  -0.19255985 -0.0096559611   0.18280153  -0.56469602    1.6013632 
 1307000    4.1475439    1.2492317    2.8983122  -0.21856058   0.83290999   0.96834993   0.74864757   -1.2465374            1    1.6949115    2.2616395    2.2902524   0.53284257 0.00053110475  0.029962845 -0.0019195372    1.5369093    1.5675471   0.70171573  0.066666667    1.4955216        1e-08 1.7542893e-09     5.700314    2.4953207    30.403515 -0.0043267866  -0.18732753 0.0027303364   0.16967231   0.92974071    2.4566731 
 1308000    4.1346042     1.249619    2.8849851  -0.21427685   0.83316822   0.97678975   0.74380706   -1.2465374            1    1.3861547    2.0432774    2.0826531  0.032533645 0.0078182092  0.087509815 0.0020659267    1.2291741    1.2576803   0.69647963  0.066666667    1.5258745        1e-08 1.7411991e-09    5.7431687    2.4841948    30.403515 0.0089458728  -0.17514426 -0.0018434629   0.16938504    1.8477414   -2.6558003 
 1309000    4.1341722    1.2727027    2.8614695   -0.2202048   0.84855898    1.0109028   0.74753267   -1.2465374            1    1.6514043     2.243401    2.2856388   0.42517299  -0.01237059  0.066031443  0.041814277    1.4936374     1.518443   0.70910338  0.066666667    1.5344107        1e-08 1.7727584e-09    5.6409264     2.482463    30.403515 -0.0090752483  -0.18977094 -0.0010029259   0.17554002    1.5845308    2.3525503 
 1310000    4.1568575    1.2710692    2.8857884  -0.21485098   0.84746984   0.99959854   0.75280946   -1.2465374            1    1.7165889    2.2883926    2.3188141   0.54255998 0.00077643617 -0.064056486  0.068905697    1.5577083    1.5851145   0.71464765  0.066666667    1.5182165        1e-08 1.7866191e-09    5.5971639     2.488471    30.403515  0.000774188  -0.22932439 -0.0038769822   0.19310029   0.20681977     4.982883 
 1311000    4.1729904    1.2881207    2.8848696  -0.21454807   0.85883877    1.0088281   0.76551362   -1.2465374            1    1.4748864    2.1354666    2.1259497   0.16324286 -0.010883756  0.012549784 -0.0021011442    1.3133246    1.3421981   0.70604309  0.066666667    1.5029106        1e-08 1.7651077e-09    5.6653766    2.4977717    30.403515  0.007698998  -0.18824621 0.0063363284   0.18932633   -1.0053364    1.4925828 
 1312000    4.1891309    1.2691472    2.9199837  -0.21188071    0.8461884    1.0080057   0.74548984   -1.2465374            1    1.4117502    2.0668065    2.0624684   0.10597547 -0.0075377962 -0.062401214  0.041159751    1.2544144      1.27917    0.7014601  0.066666667    1.5052165        1e-08 1.7536502e-09    5.7023913    2.5164685    30.403515 -0.0011244181  -0.19635949 0.00050743516   0.18780408   0.15019365   -1.3139982 
 1313000    4.1855745    1.2852038    2.9003708    -0.222877    0.8568939    1.0047885   0.76487385   -1.2465374            1    1.4996897    2.1363184    2.1529812   0.20976959 0.0067628731  0.035276152 -0.063206999     1.338263    1.3675327   0.71042622  0.066666667    1.4946252        1e-08 1.7760656e-09    5.6304228     2.475499    30.403515  0.015300762  -0.20815524 0.0055127919   0.19468246  -0.98245044   0.95444318 
 1314000    4.1722237    1.2774401    2.8947836  -0.21779547   0.85171755    1.0099043    0.7532825   -1.2465374            1    1.6716165    2.2623383    2.2647324   0.48777878 0.0053613306  0.072125088  0.047447681    1.5126361    1.5387866   0.70993244  0.066666667     1.483691        1e-08 1.7748311e-09     5.634339     2.490169    30.403515 -0.0028719233  -0.18870306 -0.0031620691   0.18305034  -0.98719282     1.513278 
 1315000     4.159649    1.2757105    2.8839385  -0.21857183   0.85056438    1.0054691   0.75417448   -1.2465374            1    1.7530497    2.3267724    2.3314554   0.60092119 -0.0063714592 -0.020857604   0.04830258     1.593881    1.6208031   0.69674814  0.066666667    1.5117322        1e-08 1.7418703e-09    5.7409554    2.4687507    30.403515 -0.00025460114  -0.19311384  0.004539704   0.15877864    1.0632695     4.055514 
 1316000    4.1686746    1.2826502    2.8860244  -0.22809428   0.85519137    1.0102903   0.75868125   -1.2465374            1    1.5451207    2.1663441    2.1882673   0.28075068 0.0065372173 -0.039234203 -0.040063268    1.3850009      1.41224   0.70242555  0.066666667    1.5023986        1e-08 1.7560639e-09    5.6945537    2.4810142    30.403515  0.002435998   -0.1746441 0.0088070386   0.19262136    -1.212007    1.6578822 
 1317000    4.1595918    1.2732053    2.8863865  -0.21790671   0.84889408    1.0118348   0.74749588   -1.2465374            1    1.6852987    2.2935749    2.2617052   0.50061612  -0.01029471  0.059079397  0.070125452    1.5275396    1.5522149   0.71131541  0.066666667    1.5325637        1e-08 1.7782885e-09    5.6233844     2.497445    30.403515  0.012783082  -0.20107344 0.0052836066    0.2051446  -0.75585852  -0.41703423 
 1318000    4.1784275    1.2785026     2.899925  -0.21660505   0.85242595   0.99940528   0.76097553   -1.2465374            1    1.5521337    2.1667246    2.1960955   0.29358114 0.0081923344  0.018541284 -0.052236382    1.3915297    1.4206848   0.70962939  0.066666667    1.5055402        1e-08 1.7740735e-09    5.6367451    2.4951228    30.403515 -0.0016329184  -0.18866266 0.0094017252   0.18031726   0.22762353    1.7742242 
 1319000    4.1457124    1.2632642    2.8824482  -0.22258428   0.84226597   0.99445706    0.7475658   -1.2465374            1    1.4245531    2.0996685    2.0831232  0.090867578 0.0031435376  0.038659104 -0.059350311    1.2667792     1.293755   0.70554415  0.066666667    1.4662434        1e-08 1.7638604e-09     5.669383    2.4945438    30.403515  0.010012995  -0.15586799 0.0091226762   0.19317859  -0.65106904   0.47809043 
 1320000    4.1346628    1.2630628    2.8715999  -0.22246624    0.8421317   0.99657395   0.74602859   -1.2465374            1    1.5086023    2.1780981     2.119577   0.22813173 -0.0084665153 -0.048603975  -0.02559127    1.3511528    1.3775257   0.70867931  0.066666667    1.4521928        1e-08 1.7716983e-09    5.6443019    2.5188853    30.403515 -0.0096148334  -0.19617285 -0.0065922002   0.21946778   0.47543789    0.5634571 
 1321000    4.1530367    1.2720025    2.8810342  -0.20983771   0.84809214    1.0074477   0.74892806   -1.2465374            1    1.7271115    2.3092524    2.3070581   0.56502418 -0.0059295058  0.084236884  0.047224183    1.5690501    1.5946048   0.70885681  0.066666667    1.4563046        1e-08 1.772142e-09    5.6428886    2.4745687    30.403515 0.0098723526  -0.22210329 -0.003465079   0.21989038   -0.1163489    4.5078486 
 1322000    4.1633086    1.2701893    2.8931193  -0.20702995   0.84688322     0.997641    0.7530771   -1.2465374            1     1.558919    2.1618067    2.2018727   0.31307763  0.012608334  0.031476607 -0.033050262     1.399982    1.4277021   0.70015473  0.066666667    1.4729697        1e-08 1.7503868e-09    5.7130229    2.4763467    30.403515 0.0068957089  -0.19331199 -0.0075399501   0.17309987  -0.88551869    5.3337069 
 1323000    4.1377323    1.2399467    2.8977856   -0.2192279   0.82671933   0.96484575   0.74078163   -1.2465374            1    1.5320419    2.1761222    2.1420306    0.2779729 -0.017057977 -0.0062483388  -0.02195477    1.3756998    1.4051385   0.70473047  0.066666667      1.45684        1e-08 1.7618262e-09    5.6759289    2.4931328    30.403515 -5.403062e-06  -0.25402692 0.0076002841   0.18201691   0.70103292    2.0388287 
 1324000    4.1759402    1.2867647    2.8891755  -0.21733621   0.85793462    1.0249534   0.75399647   -1.2465374            1    1.7295535    2.3160501    2.3303695   0.54224093 0.0037002052  -0.04857575 -0.037753683    1.5704225    1.5947443   0.71347076  0.066666667     1.439816        1e-08 1.7836769e-09    5.6063965    2.4845842    30.403515 0.00082569874  -0.19047332 -0.00095774554    0.1783483  -0.30896326    3.0260596 
 1325000    4.1485412    1.2660688    2.8824724  -0.22982349   0.84413587   0.99877222   0.74791214   -1.2465374            1    1.5058008    2.1472981     2.146913   0.22319134 -0.0094662799 -0.0093557091  0.074130722    1.3479538    1.3744351   0.70894983  0.066666667    1.4201746        1e-08 1.7723746e-09    5.6421482    2.4981839    30.403515 -0.0073226444  -0.21499866 -0.0061232706   0.17079048     -0.55307   0.73851302 
 1326000    4.1456099    1.2571807    2.8884292  -0.22576033   0.83820986    1.0019706   0.73629872   -1.2465374            1    1.5128336    2.1398128    2.1373019    0.2613861  0.010568006 -0.0086527202 -0.017998531    1.3574376    1.3810472   0.70090342  0.066666667    1.4101309        1e-08 1.7522585e-09    5.7069204    2.4955954    30.403515 -0.0064102692  -0.17323744 0.0099964232   0.20215546   0.42814704   -1.2655884 
 1327000    4.1573448    1.2526981    2.9046467  -0.21904416   0.83522117   0.99782819   0.73402853   -1.2465374            1     1.687285    2.2854266    2.2521531   0.52427541 -0.0097749868 0.0067822257 0.0093804657    1.5323682    1.5560435   0.69549208  0.066666667    1.4196475        1e-08 1.7387302e-09    5.7513236    2.4796427    30.403515 -0.012454369  -0.16583921 -0.018066497   0.20079623   0.89905511    3.9890897 
 1328000    4.1848795      1.27964    2.9052395  -0.22810911   0.85318436    1.0131497   0.75364116   -1.2465374            1    1.5738244    2.1796792    2.2098441   0.33194981 -0.0058700842  0.056438688 -0.067623452    1.4147683    1.4405676   0.70703972  0.066666667    1.4218013        1e-08 1.7675993e-09    5.6573908    2.4689318    30.403515 0.0040109794  -0.19707266 -0.00049364921   0.15380899   -1.0158142     2.418862 
 1329000    4.1676617    1.2695821    2.8980796  -0.21998473   0.84647832    1.0197056   0.73866908   -1.2465374            1    1.5780354    2.1921978     2.181821   0.36008743 0.0082598835 -0.0089895047  0.025039184    1.4221392    1.4439164   0.71473111  0.066666667    1.4194109        1e-08 1.7868278e-09    5.5965103    2.4910491    30.403515 -0.00032169548   -0.1912861 0.0063019325   0.18604211    0.7355502    2.1459396 
 1330000    4.1923394    1.2775592    2.9147802  -0.21037707   0.85179698    1.0083452    0.7543831   -1.2465374            1    1.6302214     2.259267    2.2173726   0.41402472 -0.0032153833 -0.041948731 -0.018670747    1.4710088    1.4975966   0.70443727  0.066666667    1.4322986        1e-08 1.7610932e-09    5.6782913    2.5260205    30.403515 -0.0034110155  -0.18531122 0.0018437943   0.22411597  -0.21688144    1.4917184 
 1331000    4.1758041    1.2828261     2.892978  -0.20565489   0.85530861    1.0152983   0.75575058   -1.2465374            1    1.5155406    2.1310312     2.171727    0.2438637   0.01375854 -0.023557487 -0.067988465    1.3560394    1.3820013   0.69643797  0.066666667    1.4184333        1e-08 1.7410949e-09    5.7435122    2.5175268    30.403515 0.0046491347  -0.19450077  0.013482838    0.2099013   0.73379256  0.033888542 
 1332000    4.1751251    1.2729772    2.9021479  -0.22517055   0.84874197    1.0123528   0.74692608   -1.2465374            1    1.5457329    2.1779055    2.1720477    0.2872455  -0.01073339  0.068405356  0.010744833     1.388094     1.412581   0.70173049  0.066666667    1.4125036        1e-08 1.7543262e-09    5.7001941     2.491113    30.403515 0.0080919381  -0.18004217 -0.0065548404   0.16184545   -1.5920595    0.9494111 
 1333000    4.1711291    1.2764209    2.8947083  -0.21401493   0.85103801    1.0084838   0.75306462   -1.2465374            1    1.6402075    2.2468402    2.2641869   0.40959547 0.0092603162  0.018928185   0.03325403    1.4812731    1.5075645   0.70717957  0.066666667    1.4211726        1e-08 1.7679489e-09     5.656272    2.4818821    30.403515 0.0010258638  -0.20481406 0.0019240689   0.23938227   -1.2166494  -0.93044499 
 1334000    4.1802743    1.2848533     2.895421  -0.21914789   0.85666024    1.0069048   0.76317563   -1.2465374            1    1.5214259    2.1518536    2.1646142   0.24780975  0.011308748  0.040237281  0.086559012    1.3603575    1.3889905   0.70033149  0.066666667    1.4442363        1e-08 1.7508287e-09    5.7115809    2.4694282    30.403515 0.0012371515  -0.15715743 -0.00068759596   0.18742552   -1.6272128  -0.16176939 
 1335000    4.1483288    1.2600433    2.8882855  -0.21323509   0.84011845   0.99744991   0.74221442   -1.2465374            1    1.6137177    2.2616222    2.2148526    0.3646783 -0.0022007274  0.010684369  0.039951164    1.4570732    1.4825259   0.70193636  0.066666667    1.4483929        1e-08 1.7548409e-09    5.6985223    2.5006916    30.403515 0.0096500398   -0.1776244 0.0044795668    0.1568418    -1.419033   -1.0453389 
 1336000     4.152831     1.248414     2.904417  -0.20961819    0.8323648   0.99303741   0.73237721   -1.2465374            1    1.6415654    2.2302899    2.2625027   0.43190368 -0.0039104395  0.056093827 0.0094972004    1.4869971     1.510954   0.71133757  0.066666667     1.416159        1e-08 1.7783439e-09    5.6232092    2.4909758    30.403515 0.0013398829  -0.18153001  0.002335579   0.18276967   0.30178576  0.038920421 
 1337000    4.1491195    1.2579985     2.891121  -0.22163916   0.83875513    1.0173843   0.72757804   -1.2465374            1    1.5658021    2.1793443    2.1875385   0.33052355  0.013087643 -0.030768445 -0.0042622599    1.4122466    1.4319884    0.7092762  0.066666667    1.4031657        1e-08 1.7731905e-09     5.639552    2.4794275    30.403515 -0.0031453287  -0.19428129 -0.0077997581   0.20138887    1.1165218   0.79426813 
 1338000    4.1604422    1.2789144    2.8815278  -0.21341501   0.85270055     1.017681   0.75003183   -1.2465374            1    1.6029753    2.2382541    2.2061019   0.36457004 0.0035145222  0.095626264 -0.014983401     1.444681    1.4691226   0.70801824  0.066666667    1.4230668        1e-08 1.7700456e-09    5.6495719    2.4947462    30.403515 -0.010810391  -0.18658972  0.012479583   0.17758306  0.044928062  -0.61702934 
 1339000    4.1578036     1.256286    2.9015177  -0.21049137   0.83761331   0.99457622   0.73993852   -1.2465374            1    1.5713257    2.2051616    2.1874706   0.32134488 0.0095879908 0.0021991245 -0.082492559    1.4151615    1.4405119   0.70052467  0.066666667    1.4242236        1e-08 1.7513117e-09    5.7100059    2.4872785    30.403515 0.0043590318  -0.15825255  0.003968036   0.20019007   0.09129766     2.236576 
 1340000    4.1589582    1.2638478    2.8951104  -0.22072476    0.8426551    1.0147841   0.73552965   -1.2465374            1    1.6265899    2.2382711    2.2436963   0.39780226 -0.010389047 -0.068547106  0.028659152    1.4713562    1.4931182    0.7065444  0.066666667    1.4248262        1e-08 1.766361e-09    5.6613569    2.4797257    30.403515 -0.022363914  -0.21952504 -0.0058226899   0.17692545   0.83354338  0.097864253 
 1341000     4.137394    1.2500695    2.8873245  -0.21902746   0.83346858    0.9925979   0.73444296   -1.2465374            1    1.6776993    2.2715065    2.2850669   0.47652454 -0.019751441  -0.12132764 -0.0063499787     1.522695    1.5471457   0.71680397  0.066666667    1.4208748        1e-08 1.7920099e-09    5.5803262    2.4878262    30.403515  0.001537655  -0.18807222  0.006214227   0.17888705    1.5047123    1.2994943 
 1342000    4.1555981     1.256859    2.8987392  -0.21767616   0.83799536    1.0134012   0.72882694   -1.2465374            1     1.533007     2.189726    2.1682809   0.24101399 -0.0097485944 -0.025495525  0.028575479    1.3791879    1.3997172   0.71177918  0.066666667    1.4354121        1e-08 1.779448e-09    5.6197204    2.5061529    30.403515 -0.0023916632  -0.19773013  0.027188975   0.18134633   0.43840618  -0.48324064 
 1343000    4.1565497      1.24939    2.9071597   -0.2181612   0.83301552   0.98664553   0.73741701   -1.2465374            1    1.6415627    2.2443445    2.2317674   0.44857633 0.0025047797  -0.11967745 -0.018854715    1.4859308     1.511792    0.7040836  0.066666667     1.443827        1e-08 1.760209e-09    5.6811436     2.489514    30.403515 -0.010701581  -0.17227712 -0.013448282    0.2064834    1.6430042    1.5247863 
 1344000    4.1641474     1.276222    2.8879255  -0.22348813   0.85090539    1.0111247    0.7512035   -1.2465374            1    1.6031554    2.2081745    2.1896816   0.41161001 -0.008984745 -0.095561556 -0.068912133    1.4446137     1.470165   0.70724559  0.066666667    1.4334728        1e-08 1.768114e-09     5.655744    2.5067957    30.403515  0.004714096  -0.22016246 -0.0059459199   0.23246211   0.59724999  -0.25718808 
 1345000    4.1850171    1.2899357    2.8950814  -0.21847405   0.86004885    1.0033754   0.77087615   -1.2465374            1    1.6636179    2.2492492    2.2698729   0.47173146 -0.0066827921 -0.084740525  0.019128087    1.5009243    1.5316467   0.71025751  0.066666667    1.4054988        1e-08 1.7756438e-09    5.6317602    2.4913826    30.403515 -0.005684094  -0.22397701 0.0023303791   0.19227458  -0.35366744  -0.23494972 
 1346000    4.1527079    1.2817492    2.8709587   -0.2217718   0.85459061    1.0123304   0.75643459   -1.2465374            1    1.6445997    2.2226254    2.2662299   0.44494377 -0.0028536904 -0.028194559 -0.036542565    1.4849541    1.5114507    0.7075211  0.066666667    1.4154169        1e-08 1.7688028e-09    5.6535416    2.4826957    30.403515 -0.0042614618  -0.19430185  0.016841956   0.21734657  0.083928829  -0.41068879 
 1347000    4.1267789    1.2506638    2.8761151  -0.21910074   0.83386479    1.0031803   0.72849119   -1.2465374            1     1.524417    2.1542056    2.1578611   0.26118426 -0.008905659 -0.080130772 -0.0088526684    1.3706688    1.3924715   0.69966426  0.066666667    1.4172379        1e-08 1.7491607e-09    5.7170277    2.5052516    30.403515 0.0098944081  -0.19270295 -0.0039604119   0.18354178  -0.59445967   -1.0015576 
 1348000    4.1859769    1.2654174    2.9205595     -0.21251   0.84370159    1.0039965   0.74395131   -1.2465374            1    1.6107274    2.2300622    2.2168202   0.38529986 -0.009115878 -0.030583813 -0.0054816269    1.4537164    1.4786746   0.71255494  0.066666667    1.4182554        1e-08 1.7813874e-09    5.6136022    2.5354883    30.403515 -0.002111637  -0.22467183 -0.0036926447   0.19574176  -0.57749838   0.80744849 
 1349000    4.1708745    1.2771676    2.8937069   -0.2202194   0.85153589     1.014986   0.74982065   -1.2465374            1    1.6380106    2.2404648    2.2365898   0.43697719  0.013813978  0.060682887 -0.053042165    1.4797608    1.5045123   0.71508331  0.066666667    1.4219381        1e-08 1.7877083e-09    5.5937538    2.4898676    30.403515 -0.015299625  -0.23253527 -0.0072397013   0.22897215   0.44178321    3.0373464 
 1350000    4.1796958    1.2836318     2.896064  -0.20755704   0.85584578    1.0148137   0.75692465   -1.2465374            1    1.6251075    2.2232438    2.2417152    0.4103633 0.0051574123  0.032228827   0.05416887    1.4653584    1.4916319   0.71113924  0.066666667    1.3933567        1e-08 1.7778481e-09    5.6247775    2.4974126    30.403515 0.0069768065  -0.19998345 -0.0032281275   0.20178363    1.7013223    4.0709324 
 1351000    4.1632189    1.2910991    2.8721198  -0.21263239   0.86082452    1.0022686   0.77282511   -1.2465374            1    1.6213516    2.2308628    2.2531675   0.38002448 0.0033479761   0.23169127 -0.026515157    1.4582467     1.489526   0.70175876  0.066666667    1.4263112        1e-08 1.7543969e-09    5.6999645    2.4820271    30.403515 0.0024505766  -0.16834211 0.0034368574   0.22531946   -1.0984077    1.3806096 
 1352000     4.164152    1.2716169    2.8925351  -0.22025724   0.84783504    1.0104379   0.74664721   -1.2465374            1    1.4040766    2.0515497    2.0732554  0.087424845 -0.0034808804   0.18413477 0.0015261742    1.2464966    1.2711766   0.70975958  0.066666667    1.4474745        1e-08 1.774399e-09    5.6357112      2.49583    30.403515 -0.0025623502   -0.1723859  0.017769548    0.1724467   -1.5112639   0.44177595 
 1353000    4.1997198     1.288827    2.9108928  -0.22231902   0.85930968    1.0026585   0.77012299   -1.2465374            1    1.7359503    2.3410837    2.3240532   0.54271389 0.00068309543 -0.0074358466  0.014780087    1.5734157    1.6040734   0.71575385  0.066666667    1.4123733        1e-08 1.7893846e-09    5.5885134    2.5071973    30.403515 -0.00049290636  -0.19162972 -0.0055986896    0.1750077  -0.55937738    1.4471256 
 1354000    4.1864633    1.2894208    2.8970425  -0.21344835   0.85970556    1.0223964   0.75846492   -1.2465374            1    1.6213453    2.2260343    2.2298162   0.40818552 0.0035719608  0.071878475 -0.0098055353    1.4612712    1.4868724   0.70294051  0.066666667    1.4186489        1e-08 1.7573513e-09    5.6903819    2.4806527    30.403515 -0.0093318161  -0.19269643  0.010813402   0.22717869   -4.4181467    1.1412649 
 1355000    4.1913136    1.2891612    2.9021524  -0.21792943   0.85953244    1.0203504   0.75945898   -1.2465374            1    1.7580968    2.3129526    2.3543907   0.60694688  -0.01460363  0.024428621 -0.010903685    1.5978128    1.6238929   0.69889958  0.066666667    1.4524541        1e-08 1.7472489e-09    5.7232829    2.4964124    30.403515  0.008571272  -0.16999769  0.010984406   0.19941061   -4.8873285   0.10337995 
 1356000      4.17187      1.27185      2.90002  -0.20972326   0.84799042    1.0007753   0.75292119   -1.2465374            1    1.6583924    2.2598153    2.2454707   0.46989128 0.0013860141  -0.08520247  0.032350514    1.4994883    1.5267633   0.70445209  0.066666667      1.44143        1e-08 1.7611302e-09    5.6781718    2.4959139    30.403515  0.018097987  -0.20667055 -0.00036488504   0.19421529   -1.7807641    1.1556905 
 1357000    4.1711907    1.2922071    2.8789837  -0.21995167   0.86156326    1.0168924   0.76491081   -1.2465374            1    1.5762157    2.1957698    2.2009321   0.33194516 -0.013748115     0.077931 -0.023852968    1.4147812    1.4424667   0.71286017  0.066666667    1.4286601        1e-08 1.7821504e-09    5.6111986     2.497556    30.403515  0.013980097  -0.19755388  0.006080288   0.21621716   -4.1301145  -0.13370702 
 1358000    4.1738924    1.2977207    2.8761717  -0.21848934   0.86523944    1.0243567   0.76622688   -1.2465374            1    1.6960049    2.2813046    2.3041388   0.50257144 -0.010234126  0.047244814  0.041119129    1.5342926    1.5612742   0.71072239  0.066666667     1.425576        1e-08 1.776806e-09    5.6280765    2.4933205    30.403515  0.010717961  -0.22798112 0.0043719369    0.1887783   -2.2466759    2.6202827 
 1359000    4.1841024    1.2708423    2.9132601  -0.21448256   0.84731858   0.99564704    0.7550265   -1.2465374            1    1.5350256    2.1617171    2.1788732   0.26448634 -0.0037954895   0.12886924 0.0092229606    1.3756771    1.4040709   0.69762471  0.066666667    1.4023616        1e-08 1.7440618e-09    5.7337419    2.5002727    30.403515 -0.0089031334  -0.18288023 0.0066202558   0.17521209   0.13740124    1.1128653 
 1360000    4.1795494    1.2668514     2.912698  -0.22801641   0.84465772   0.99232568   0.75277679   -1.2465374            1     1.563108    2.1817903    2.1716197   0.33591383 -0.0056476202 -0.044860862 -0.022129248    1.4042343    1.4325901   0.70309314  0.066666667     1.389076        1e-08 1.7577329e-09    5.6891467    2.4939335    30.403515  0.015260957  -0.16656807 -0.0027691027   0.21525605    1.8938707    3.0876204 
 1361000     4.188307    1.2931362    2.8951708  -0.22222949   0.86218279    1.0201461   0.76388882   -1.2465374            1    1.6483487     2.237926    2.2691647   0.43795548 0.0079974139  0.029152426 -2.8361143e-05    1.4871299    1.5141718   0.71349486  0.066666667    1.4055154        1e-08 1.7837371e-09    5.6062072    2.4810948    30.403515  0.023486329  -0.20125594 -0.012339395   0.19839873    2.6376447    3.6263311 
 1362000    4.1799111    1.2642096    2.9157014  -0.21224903   0.84289632   0.99232542   0.74991755   -1.2465374            1     1.400977    2.0783773    2.0288013  0.095752291 0.0018353348 -0.036040199 -0.031740016    1.2427067    1.2704592   0.70426633  0.066666667    1.3966066        1e-08 1.7606658e-09    5.6796695      2.50938    30.403515 -0.0096389768  -0.17315055  0.003080841   0.19609354    2.5560724   -2.3272357 
 1363000    4.1689416    1.2777172    2.8912243  -0.21648882   0.85190234    1.0111713   0.75279287   -1.2465374            1    1.6386316    2.2540222    2.2318066    0.4300661  0.010896854 -0.044878582  0.066824743    1.4797546    1.5056351   0.69334388  0.066666667    1.4286046        1e-08 1.7333597e-09     5.769143    2.4687634    30.403515  0.011603868  -0.21552074  0.002525966   0.20665768   0.73756575   -2.9521556 
 1364000    4.1732261    1.2770001    2.8962259  -0.22413432   0.85142424    1.0033118   0.75691483   -1.2465374            1    1.6103405    2.2218669    2.2187263   0.39042841 -0.0033312657 -0.050017808 -0.0056175156    1.4505935    1.4783777   0.70327109  0.066666667    1.4316525        1e-08 1.7581777e-09    5.6877072    2.4818186    30.403515 0.0036084359  -0.20591931 0.00099602684   0.17117198   0.62824001   0.99359407 
 1365000    4.1721244    1.2553486    2.9167759  -0.21429317   0.83698832   0.99493204   0.73870217   -1.2465374            1    1.5486101    2.1902824    2.1535927   0.30195536 0.0068539532  -0.11796333  0.016918001    1.3927069    1.4177495    0.7169585  0.066666667    1.4284721        1e-08 1.7923962e-09    5.5791235    2.5108576    30.403515 -0.0027060557  -0.19135918  0.014666931   0.19730215  -0.51780293    0.9578541 
 1366000    4.1638678    1.2581762    2.9056916  -0.20969572    0.8388736   0.97717373   0.75282974   -1.2465374            1    1.7607517    2.3321206    2.3426112   0.60752318 -0.00028722604  -0.14115192  0.018740086    1.6018668    1.6322267   0.71482856  0.066666667    1.4416651        1e-08 1.7870714e-09    5.5957473    2.4954971    30.403515 -0.0053263192  -0.18966182 0.0077140617   0.21428228  -0.21006387     3.631583 
 1367000    4.1514148    1.2618382    2.8895767  -0.21924035   0.84131518   0.98646796   0.75100116   -1.2465374            1    1.5270615    2.1702587    2.1448965   0.26602939  0.012745557 -0.057012416  0.030699545    1.3685626    1.3973141   0.71271435  0.066666667     1.457755        1e-08 1.7817859e-09    5.6123466    2.4884325    30.403515 -0.0090058706  -0.22134819  0.015811881   0.16986772   0.22389334   -1.2665994 
 1368000    4.1381761    1.2518016    2.8863745  -0.21424507   0.83462344   0.98931207   0.73836546   -1.2465374            1    1.6211797    2.2462673    2.2411836   0.37608819 0.0036079204  0.058112838  0.010712769    1.4653476    1.4910583    0.7066158  0.066666667    1.4390496        1e-08 1.7665395e-09    5.6607848    2.4709063    30.403515   0.01295675  -0.17329783 0.0052618455   0.20647879  -0.74206019    1.0789376 
 1369000    4.1450812    1.2605751    2.8845061  -0.22293988   0.84047306   0.99032677   0.74722925   -1.2465374            1    1.6773055    2.2636866    2.2878646   0.48036533 0.0046452108   -0.0356927 0.0025692756    1.5196027    1.5470506   0.70789582  0.066666667    1.4451607        1e-08 1.7697395e-09     5.650549    2.4784759    30.403515 -0.010389242  -0.19547814 -0.007180888   0.18297928    1.7512317    2.7753808 
 1370000    4.1682941    1.2631385    2.9051556  -0.21627588   0.84218219    0.9954749   0.74679547   -1.2465374            1    1.6045596    2.1990172    2.2373194   0.37734207 -0.0065419961 -0.024089842  0.014500439    1.4469483    1.4736275   0.70415624  0.066666667    1.4359026        1e-08 1.7603906e-09    5.6805575    2.5103993    30.403515   0.02078578   -0.2186087 0.0032743802   0.19454092   0.29834068    2.8488938 
 1371000    4.1840445    1.2726816    2.9113628  -0.21048268   0.84854493    1.0035962   0.75206336   -1.2465374            1    1.5293064    2.1650676    2.1628608   0.25999074 0.0048802672 -0.078691857  0.068099848    1.3705833    1.3973062     0.702654  0.066666667    1.4382745        1e-08 1.756635e-09    5.6927023    2.4942775    30.403515 -0.0029704811  -0.19295145 -0.00071072871   0.17039763    2.4657639    4.9153436 
 1372000    4.1571783     1.263522    2.8936564    -0.214242   0.84243784    1.0038196   0.74201002   -1.2465374            1    1.5985923    2.1936579    2.2267852   0.37533391 -0.0099410616  0.025169704  0.016709201     1.441991    1.4665628   0.70017467  0.066666667     1.430527        1e-08 1.7504367e-09    5.7128602    2.4794412    30.403515 -0.0077684178  -0.18510362 -0.011561508   0.18535238   0.77754247    1.9391907 
 1373000    4.1657573     1.273513    2.8922444  -0.21466327   0.84909921    1.0149062   0.74591474   -1.2465374            1    1.4085842    2.0743132    2.0792887   0.07215055 -0.0021451956 -0.048944171 -0.041122846    1.2511587    1.2750964   0.69839947  0.066666667    1.4104016        1e-08 1.7459987e-09    5.7273812     2.465657    30.403515  0.010248518   -0.1998953 -0.0062772847    0.1608468  -0.16648984  -0.87538299 
 1374000    4.1897768    1.2828428    2.9069339  -0.21000772   0.85531978    1.0339397   0.74415133   -1.2465374            1     1.517844    2.1698638    2.1765499    0.2071183 -0.0093531489 -0.044440412 -0.052265401    1.3607907    1.3818528   0.71064138  0.066666667    1.4187298        1e-08 1.7766034e-09    5.6287181    2.5296349    30.403515   -0.0221985  -0.16808049 0.00050831867     0.166642    1.0671045    1.3833238 
 1375000    4.1781839    1.2903907    2.8877932  -0.22762291   0.86035222    1.0166083   0.76312187   -1.2465374            1    1.6593432    2.2516657    2.2612407    0.4651231  -0.02326947 -0.064075508  0.013728407    1.4982862    1.5256315   0.70459457  0.066666667    1.3942348        1e-08 1.7614864e-09    5.6770236    2.4869719    30.403515  0.016542519  -0.19625156 0.0036452938   0.16753591    1.8627451    3.2290879 
 1376000    4.1813465     1.283799    2.8975475  -0.21366984   0.85595728    1.0160075   0.75636167   -1.2465374            1    1.5186338    2.1607576    2.1630989   0.23204491 0.0080322194  0.041396142  0.071340848    1.3590036    1.3850012   0.70043469  0.066666667    1.3813292        1e-08 1.7510867e-09    5.7107394    2.4745478    30.403515 -0.00067785147  -0.18470099 0.0031839401   0.19401856 -0.078024724  -0.50935771 
 1377000    4.1895861    1.2669407    2.9226454  -0.21789499   0.84471725    1.0048425   0.74507294   -1.2465374            1    1.6106562    2.2225261    2.2077498   0.40169287  0.012906655  0.043795628 0.0075870486    1.4534085    1.4784921   0.71094021  0.066666667    1.3866496        1e-08 1.7773505e-09    5.6263522    2.5146754    30.403515 0.0072297711  -0.18296836  0.017650352   0.16947671   0.89601481    2.1804854 
 1378000    4.1590147    1.2735479    2.8854668  -0.21961081   0.84912251    1.0160175   0.74525998   -1.2465374            1    1.5341358    2.1556825    2.1769516   0.26977339 0.0055607317  0.043857863 -0.035831862    1.3768486    1.4005019   0.70956713  0.066666667    1.3894941        1e-08 1.7739178e-09    5.6372397    2.5227151    30.403515 -0.0094718082  -0.18362909 -0.0038738522   0.20285066  -0.16987564    -2.856145 
 1379000    4.1909475    1.2689996    2.9219479  -0.21940477   0.84608994    1.0075862   0.74559141   -1.2465374            1    1.4892655    2.1503994    2.1062222   0.21117487 -0.002828772  0.027898983 -0.010628679    1.3319083    1.3567405   0.70063102  0.066666667    1.3634741        1e-08 1.7515775e-09    5.7091392    2.4914719    30.403515 0.0028343774  -0.17149581 0.0091990876   0.19238579  -0.23389347    -4.349876 
 1380000    4.1877025    1.2817904    2.9059121  -0.21938464   0.85461807     1.010927   0.75735378   -1.2465374            1    1.6727725    2.2752922    2.2550249    0.4880005 0.0025762757 -0.049155341 -0.037097183    1.5129329    1.5398081   0.70006114  0.066666667    1.3423708        1e-08 1.7501528e-09    5.7137867    2.4819686    30.403515 -0.0089398762  -0.19093316 0.00030526158   0.18854614  -0.25064872    1.2157484 
 1381000     4.151109     1.243096     2.908013  -0.20639482   0.82881906    0.9876308   0.72999055   -1.2465374            1    1.6666746    2.2940503    2.2611111   0.44486233  0.031048317  0.061780148  0.064746469      1.51261    1.5367743   0.70602023  0.066666667    1.3565913        1e-08 1.7650506e-09      5.66556    2.4995647    30.403515 -0.0078197313  -0.19321143 -0.0072509741   0.17736061  -0.04512463   0.25791972 
 1382000    4.1537719    1.2472804    2.9064914  -0.21530243   0.83160899   0.98184704   0.73812411   -1.2465374            1    1.5663272    2.1980243    2.1900921   0.31086531   0.02172698  0.086252958  0.075703034     1.410546    1.4371877   0.70000469  0.066666667    1.3560052        1e-08 1.7500117e-09    5.7142474    2.4799246    30.403515 -0.012953536  -0.21024653 0.0075609542   0.16885469   0.72112464   0.88376129 
 1383000    4.1760861    1.2688634    2.9072227  -0.21797492   0.84599916    1.0055704   0.74670031   -1.2465374            1    1.4541236    2.1015352    2.1042061   0.15662938 -0.0032817924  -0.11442187 -0.035270466    1.2965323    1.3218637   0.70219164  0.066666667    1.3598623        1e-08 1.7554791e-09    5.6964506    2.4907073    30.403515 -0.0032293619  -0.19100591 0.0066279036    0.1856206    1.7598551    1.7739366 
 1384000    4.1716621    1.2796578    2.8920043  -0.21487251   0.85319619    1.0207434   0.74892793   -1.2465374            1    1.5759332    2.1902853    2.2314554   0.30605881 -0.016106448  -0.10421324 0.0066020729    1.4178718    1.4416777    0.7038024  0.066666667    1.3675278        1e-08 1.759506e-09    5.6834134     2.485498    30.403515 0.0063526881   -0.1911104 0.0006454636   0.16319581   0.86793842   0.82665468 
 1385000    4.1737475    1.2854052    2.8883423  -0.21943761   0.85702819      1.01979   0.75574288   -1.2465374            1    1.6130887    2.2507898    2.2216456    0.3668307  0.012430631 -0.083151664  0.062393535     1.453589    1.4789586     0.704397  0.066666667    1.3672791        1e-08 1.7609925e-09    5.6786159    2.4831554    30.403515 -0.00087324826  -0.18992604 -0.0059273689    0.1900119    0.6659553   0.96971632 
 1386000    4.2112415    1.2972158    2.9140257  -0.21985077   0.86490275    1.0158824   0.77096149   -1.2465374            1    1.5194022    2.1237889    2.1670447   0.26737305 -0.0046864592 -0.0090534233  0.058837621    1.3566907    1.3857861    0.7094144  0.066666667    1.3702258        1e-08 1.773536e-09    5.6384533    2.5068927    30.403515  0.011977981  -0.17674424  0.013243776    0.1858652   0.29847582   -1.4899549 
 1387000    4.1606492    1.2786547    2.8819946  -0.21550638   0.85252737    1.0020548   0.75948902   -1.2465374            1    1.5740146    2.2157757     2.176004   0.33026401 0.00079663348  0.056864079 -0.014778865    1.4137243    1.4422171   0.69943679  0.066666667    1.3767794        1e-08 1.748592e-09     5.718887    2.4954566    30.403515 -6.7180676e-05  -0.18192327 -0.0063388086   0.22256359  0.059842368     1.613079 
 1388000    4.1745332    1.2675024    2.9070309  -0.21053673   0.84509171    1.0083495   0.74349521   -1.2465374            1    1.5093267    2.1444549    2.1501823   0.23334298 -0.0075458682  0.095183989 0.0025955746    1.3524119    1.3767013    0.7038821  0.066666667    1.3921139        1e-08 1.7597052e-09    5.6827699    2.5085948    30.403515 -0.0071592963  -0.16410834 -0.012357856   0.19299455    1.8891288  -0.79572371 
 1389000    4.1728527    1.2786179    2.8942348  -0.22203732   0.85250286    1.0424365   0.73428318   -1.2465374            1    1.6538087    2.2642741    2.2370787   0.46007327  0.015764703  -0.05873309  0.046207208    1.4988381    1.5166999   0.70710553  0.066666667     1.388549        1e-08 1.7677638e-09    5.6568643    2.4735177    30.403515 -0.009514247  -0.19837562 -0.0049725854   0.20589759   0.54532967   -1.2959769 
 1390000    4.1899999    1.2885964    2.9014035  -0.22429414   0.85915588    1.0350532   0.74968483   -1.2465374            1     1.466674    2.0879402    2.1318765   0.18020519 0.0098829874    0.1277174 -0.039314375    1.3084529    1.3305363   0.71089146  0.066666667    1.3716112        1e-08 1.7772287e-09     5.626738    2.4798154    30.403515 0.0058913234  -0.20696299  0.011166544   0.19625963   -1.6380656   0.80238085 
 1391000    4.1713936    1.2862799    2.8851137  -0.21905874   0.85761141    1.0235817   0.75432668   -1.2465374            1    1.5789645    2.2013827     2.208311   0.32719966 0.0013446944 -0.0069919301 0.0046980926    1.4197637    1.4443356   0.69723747  0.066666667    1.3779374        1e-08 1.7430937e-09    5.7369263    2.4935659    30.403515 0.0039698361  -0.14378747 0.0033930245   0.16556764   -1.8587415   0.37585463 
 1392000    4.2121309    1.2793417    2.9327891   -0.2042252   0.85298547    1.0091607   0.75580423   -1.2465374            1     1.408185    2.0621106    2.0657567  0.096687719  0.012103884   0.13777437  0.016971252    1.2486724    1.2754529   0.69393869  0.066666667    1.3674613        1e-08 1.7348467e-09     5.764198    2.4843994    30.403515 0.0028765805  -0.18851573  0.011434932   0.19655594   -3.2484551  -0.55297417 
 1393000    4.1847614    1.2785997    2.9061617  -0.21225523    0.8524907       1.0071   0.75628527   -1.2465374            1    1.5963749    2.2147344    2.2313163   0.34307397 -0.00080251544  0.063261993 0.0064998009    1.4367608    1.4639139   0.70783982  0.066666667    1.3700176        1e-08 1.7695995e-09     5.650996    2.5076236    30.403515 -0.0036284934  -0.20064344 0.0015088248   0.19680143   -1.1662707    2.4905471 
 1394000    4.1477659     1.264421    2.8833448  -0.21855612   0.84303728    1.0183213   0.73394567   -1.2465374            1    1.5524758     2.172798    2.1564305   0.32819892 -0.001164007  0.017825507  0.025143499    1.3975765    1.4185389   0.70188983  0.066666667    1.3829517        1e-08 1.7547246e-09    5.6989001    2.4873803    30.403515  0.010043094    -0.199705 0.0026596283   0.18257173   0.14182347   0.84008247 
 1395000    4.1579801    1.2488164    2.9091636  -0.21575565    0.8326331   0.99394514   0.73224705   -1.2465374            1    1.5808255    2.1824502    2.2142287   0.34579773 0.0079006599   0.10429248  -0.03990061    1.4262847    1.4500947   0.69449599  0.066666667    1.3927479        1e-08  1.73624e-09    5.7595725    2.4871383    30.403515 0.0045183725  -0.19025412 0.0069366153   0.14979718  -0.28447237    1.2085415 
 1396000    4.1585888    1.2526192    2.9059696  -0.21541418   0.83516855   0.99013909   0.73873499   -1.2465374            1    1.5588047    2.1705518    2.2109084     0.294954 -0.0039146535  0.071277282  0.033833755    1.4028946    1.4285745   0.70033014  0.066666667    1.4170013        1e-08 1.7508253e-09     5.711592     2.483725    30.403515 0.0044646551  -0.22123679 0.0027979851    0.1779485     0.970825   -0.7521031 
 1397000    4.1548241    1.2656372    2.8891869  -0.21910465   0.84384812    1.0196063   0.73446111   -1.2465374            1    1.5560694    2.1754859    2.1777867   0.31493547 0.0044721877   0.13893937  -0.01070202    1.4010612    1.4219634    0.7103754  0.066666667     1.401621        1e-08 1.7759385e-09    5.6308256    2.4822487    30.403515 0.0084857209  -0.22642385 0.0029476501   0.19470211   -1.5735167   0.60993445 
 1398000    4.1541356    1.2505642    2.9035714  -0.21257342   0.83379839   0.98990562   0.73665621   -1.2465374            1    1.6925794    2.2793416    2.2946906   0.50370615  0.007315339  0.056529773  0.019636435     1.537108    1.5623799   0.70311642  0.066666667    1.4316482        1e-08 1.7577911e-09    5.6889583    2.4717201    30.403515 -0.0097393936   -0.1796885 0.00042749372   0.15112374    0.3828219    1.3696947 
 1399000    4.1733702    1.2757066    2.8976635  -0.20099099   0.85056181   0.99525384   0.76053652   -1.2465374            1    1.6608387    2.2408483    2.3001552    0.4415127 -0.0052629802 0.0026538812  -0.00902094    1.5003274    1.5299358   0.69883613  0.066666667    1.4426533        1e-08 1.7470903e-09    5.7238025    2.4848929    30.403515 -0.0053682447  -0.22128529  0.006897801   0.20743753  -0.72511988   -2.6130271 
 1400000    4.1520599    1.2563664    2.8956936  -0.20805671   0.83766693   0.99629347   0.73895536   -1.2465374            1    1.4861901    2.1322809    2.1543005   0.17198876  -0.03415612 -0.046470417 0.0065620849    1.3302334    1.3551504   0.70416367  0.066666667     1.431124        1e-08 1.7604092e-09    5.6804975    2.4872304    30.403515  0.012180722  -0.18460032  0.010531917   0.18154655   -1.6672166  -0.68339076 
 1401000    4.1589276    1.2747492    2.8841784  -0.22210564   0.84992344    1.0184926   0.74501776   -1.2465374            1    1.6137189    2.2477506    2.2091828   0.38422329 -0.0070193577 -0.046326729 -0.038230442    1.4564828    1.4797594   0.71459541  0.066666667    1.4322591        1e-08 1.7864885e-09     5.597573    2.4897813    30.403515 -0.001109715  -0.19534307  0.011742593   0.18421281   -1.4719308   0.72819586 
 1402000    4.1718946    1.2616479    2.9102467  -0.21517169   0.84118834    0.9970239   0.74421674   -1.2465374            1    1.6113248    2.2190973    2.2209557   0.39392156 0.0046236928 -0.0041195611 -0.022987812    1.4542578    1.4801891   0.71126869  0.066666667    1.4296276        1e-08 1.7781717e-09    5.6237538    2.4998568    30.403515 0.00063649431  -0.20069339 0.0036240405   0.20812638   -1.1023747   0.88803086 
 1403000    4.1634877    1.2675088    2.8959789  -0.21150636   0.84509602   0.99366743   0.75265214   -1.2465374            1    1.5766237     2.214276    2.1873253   0.32826967  0.010209814 -0.0071394608 -0.047901111    1.4177763    1.4459294   0.69707898  0.066666667    1.4374932        1e-08 1.7426974e-09    5.7382307    2.5009134    30.403515  0.014908053  -0.19860219 0.0098282491   0.18948786  -0.99596807    0.1506613 
 1404000    4.1545599    1.2825878    2.8719721  -0.22974441   0.85514971    1.0195668   0.75283251   -1.2465374            1    1.5809623    2.1933379    2.2041572   0.34539184  0.031151744   0.11411061 -0.00097346778    1.4220769    1.4468616   0.70594902  0.066666667     1.451748        1e-08 1.7648726e-09    5.6661315    2.4841235    30.403515 0.0016880392  -0.18137691 0.00043194979   0.17266204    -1.209953   0.14697506 
 1405000    4.1765883     1.253322    2.9232664  -0.21052302    0.8356371   0.99723687   0.73507227   -1.2465374            1    1.5660187    2.1835239    2.1908495   0.32368269 8.3500486e-05  0.030156506  0.021187595    1.4108816    1.4348549   0.71386246  0.066666667    1.4315406        1e-08 1.7846561e-09    5.6033203    2.4829678    30.403515 0.0014141556  -0.17305351 -0.0072082793   0.19163504 -0.093136197    1.0535937 
 1406000    4.1750096     1.275029    2.8999807  -0.21370219   0.85010999    1.0102407   0.75046319   -1.2465374            1    1.6306342    2.2368206    2.2468098   0.40827208  0.022938056 -0.031658147 -0.021831066    1.4722488      1.49776    0.7091389  0.066666667    1.4319863        1e-08 1.7728472e-09    5.6406439    2.4869986    30.403515 0.0017934798  -0.20403265 -0.003767558    0.2140033   -0.9436089    2.8241418 
 1407000    4.1891094    1.2664065     2.922703  -0.21347172   0.84436104    1.0020024   0.74626458   -1.2465374            1    1.6464667    2.2350817    2.2596495   0.44466895 0.0038033036 -0.061820894 0.0071996899    1.4889675    1.5146762   0.69524796  0.066666667    1.4393197        1e-08 1.7381199e-09     5.753343    2.4992371    30.403515 0.0091199404   -0.2043033 -0.0012039232   0.17146891   0.67790538    2.9838804 
 1408000    4.1970848    1.2782843    2.9188005  -0.22421298   0.85228046    1.0045663   0.75752296   -1.2465374            1    1.4969052    2.1360247    2.1265876   0.22810345 -0.00036093436   -0.1319441 -0.019410555    1.3370299    1.3647775   0.70763042  0.066666667     1.458982        1e-08 1.7690761e-09    5.6526682    2.4972023    30.403515 -0.0056117197  -0.20379084 -0.0040241604   0.22713675    1.4542698    3.0931881 
 1409000    4.1776797    1.2777706    2.8999091  -0.22178761   0.85193794   0.99795947   0.76108433   -1.2465374            1    1.4877965    2.1089191    2.1492286   0.20524194 -0.0018572015  -0.03479108    0.0277696    1.3271696    1.3565377   0.70992252  0.066666667    1.4400628        1e-08 1.7748063e-09    5.6344177     2.494814    30.403515 -0.0081148697  -0.19806834   0.01452074   0.18677816  -0.10177608     0.404188 
 1410000    4.1746418     1.275677    2.8989648  -0.21160938   0.85054204    1.0176625    0.7465393   -1.2465374            1    1.5616182    2.1794881    2.1742739   0.33109277 -0.0008652964 -0.0020534736 -0.001369017     1.404061     1.427768    0.7032874  0.066666667    1.4376123        1e-08 1.7582185e-09    5.6875753    2.4752397    30.403515 0.0046613777  -0.18134824 -0.00063334639   0.17780353   -0.6857643    5.2837055 
 1411000    4.1964917    1.2785398    2.9179518  -0.20551441   0.85245081    1.0012425    0.7598709   -1.2465374            1    1.5753039    2.1970415    2.1961214   0.33274886 -0.001228431 -0.094369371 -0.019326846    1.4149331    1.4436133   0.70026303  0.066666667    1.4366561        1e-08 1.7506576e-09    5.7121393    2.5140647    30.403515 0.0082166194  -0.19041915 -0.0010795129   0.19882986   -1.6716602    2.9963504 
 1412000     4.166706    1.2748105    2.8918955  -0.21406883   0.84996433    1.0073257   0.75204337   -1.2465374            1    1.6445314    2.2624318    2.2437141    0.4274483 -0.0054096165  -0.04245868 -0.00065379435    1.4858125    1.5120407   0.69914591  0.066666667    1.4441153        1e-08 1.7478648e-09    5.7212664    2.4881414    30.403515  0.008783528   -0.2017114 0.0018171922   0.22152136  -0.61866286   0.39541927 
 1413000    4.1746864    1.2816108    2.8930756  -0.22106131   0.85449836    1.0252765   0.74821679   -1.2465374            1    1.4989111    2.1466933    2.1337009   0.21633907 0.0040687279  0.082191221 0.0037730008    1.3409998    1.3640593   0.71168008  0.066666667    1.4435806        1e-08 1.7792002e-09     5.620503    2.4871335    30.403515 0.00044479776  -0.19457621 -0.012496952   0.15847973   -1.0211031    1.3724526 
 1414000    4.1860651    1.2802886    2.9057765  -0.20918329   0.85361677     1.022026   0.74881135   -1.2465374            1    1.5376499    2.1811455    2.1636803   0.26812395 -0.0033977262 -0.042791902  -0.06744857    1.3796132    1.4032257   0.70676996  0.066666667    1.4603932        1e-08 1.7669249e-09    5.6595501    2.4891129    30.403515 -0.0020167718   -0.2041189  0.026674314   0.19670579   0.16185774   0.78177218 
 1415000    4.1636963    1.2774985    2.8861978  -0.21385036   0.85175652   0.99779786   0.76089055   -1.2465374            1    1.6643818    2.2675888    2.2713251   0.45423161 -0.030825784  -0.11606577 -0.033895812    1.5037958    1.5331443   0.70003085  0.066666667    1.4467465        1e-08 1.7500771e-09    5.7140339    2.4771701    30.403515 0.0018098624  -0.19757836 0.0055561386   0.19643387    1.5202506    3.4666673 
 1416000    4.1691882    1.2908432     2.878345  -0.21835056   0.86065391    1.0247574   0.75853305   -1.2465374            1    1.5439323    2.1848539     2.153915   0.29302801 -0.0078932169 -0.095531792  -0.06064622    1.3838438    1.4091488   0.69693756  0.066666667    1.4473846        1e-08 1.7423439e-09    5.7393951    2.4787224    30.403515  0.013586611  -0.18131468 0.0057380319   0.18963844   0.09228469   0.78206785 
 1417000    4.1637872    1.2865054    2.8772817  -0.21191424   0.85776177    1.0271048    0.7523751   -1.2465374            1     1.590253    2.2091831    2.2190071   0.34256882  0.005296703  0.041809768  0.073665186    1.4314641    1.4551608   0.69723404  0.066666667    1.4216109        1e-08 1.7430851e-09    5.7369546    2.4880729    30.403515 0.0052208131  -0.18224897 -0.0056669732   0.19479595   -1.3027065    2.0571811 
 1418000    4.1761846     1.283332    2.8928526  -0.20462004   0.85564594    1.0234752   0.75120233   -1.2465374            1    1.5589277    2.1739334    2.1905101   0.31233956 -0.019669697 -0.016435002  0.012562666    1.4003863    1.4243129   0.70455403  0.066666667    1.4114601        1e-08 1.7613851e-09    5.6773503    2.4849242    30.403515 0.0075829489  -0.22810192  0.011135891    0.1878909   -1.1522511   0.93100433 
 1419000    4.2000496     1.307503    2.8925466  -0.22143708   0.87176163    1.0444657   0.76428281   -1.2465374            1    1.7026413    2.2885749    2.2927144   0.52663465 0.0096972038  0.028025465 -0.020493951    1.5413393    1.5652657   0.70788659  0.066666667    1.4127541        1e-08 1.7697165e-09    5.6506227     2.504851    30.403515 -0.0054483162  -0.16163931 0.0062619641   0.18996281   -1.1748771    3.6528065 
 1420000    4.1789583    1.2591121    2.9198462  -0.21598947   0.83949764    1.0025635   0.73801979   -1.2465374            1     1.505362    2.1327598    2.1413116   0.24201447 -0.00094541648  -0.12267668  0.005555571    1.3496028    1.3734976   0.70342563  0.066666667    1.4201665        1e-08 1.7585641e-09    5.6864576    2.4811271    30.403515  0.018453994  -0.18743913 -0.014291406   0.18930334  -0.41299869    1.8510293 
 1421000    4.1878775    1.2766579    2.9112196  -0.21048303   0.85119605    1.0090908   0.75294287   -1.2465374            1    1.7456697    2.3076549    2.3392561   0.59009802  0.012042518  -0.07650539  0.013523045     1.586761    1.6129468   0.70117277  0.066666667    1.4108876        1e-08 1.7529319e-09    5.7047281    2.4809925    30.403515 0.0062530943   -0.1794972 -0.019429544   0.19073935  -0.64390373    2.8418386 
 1422000    4.1692147    1.2786373    2.8905774   -0.2186443   0.85251581    1.0139953   0.75202884   -1.2465374            1    1.4725959    2.1125478    2.1333398   0.17190014 0.0052760827  -0.10385422  0.012291752    1.3138801     1.339228   0.70781329  0.066666667    1.3869043        1e-08 1.7695332e-09    5.6512078    2.4847658    30.403515 -0.0081859855  -0.18683431   0.00287576   0.21222563   0.99428597    -0.496955 
 1423000    4.1675825    1.2625365     2.905046  -0.21562031    0.8417808    1.0214794   0.72993779   -1.2465374            1    1.6252979    2.2445637    2.2346411   0.39668906 -0.000818989  -0.14961873 -0.042486779    1.4712444    1.4909456   0.70572277  0.066666667    1.3951205        1e-08 1.7643069e-09    5.6679481    2.4828033    30.403515  0.012953082  -0.21023741 0.0012548921   0.22728451    1.2077181    2.1146518 
 1424000    4.1831272    1.2783469    2.9047803  -0.21291485   0.85232219    1.0113573   0.75335856   -1.2465374            1    1.5901202    2.1734729    2.2303176    0.3665701 0.0067865996 -0.048262651  0.026891946    1.4311238    1.4570992   0.69927749  0.066666667    1.3869272        1e-08 1.7481937e-09    5.7201898    2.4823313    30.403515  -0.01437372  -0.20598034 -0.0033725908   0.20784701  0.074557816    2.6140163 
 1425000    4.1957849    1.2853335    2.9104514  -0.21608566   0.85698037    1.0236347   0.75326919   -1.2465374            1    1.6134028    2.2336907    2.2133325   0.39318526  0.006222197 -0.036485689 -0.042817558    1.4544253     1.478767    0.7042127  0.066666667    1.4020288        1e-08 1.7605318e-09     5.680102      2.49316    30.403515 -0.0096295207     -0.19846 -0.0089079064   0.17714779   0.11752272    2.5971705 
 1426000    4.1893011    1.2902733    2.8990278  -0.21160644   0.86027397    1.0339898   0.75216261   -1.2465374            1    1.5127299    2.1489186    2.1489562   0.24031492 0.0027963895 -0.021113118 0.0025752787    1.3539858    1.3767321   0.70771346  0.066666667    1.3974034        1e-08 1.7692836e-09     5.652005    2.4895768    30.403515 -0.0015737683  -0.20362806  0.014144532   0.19545051   -2.0050549   -1.0892933 
 1427000    4.1808419    1.2803451    2.9004968  -0.21645561   0.85365443    1.0220247   0.74887333   -1.2465374            1     1.556804    2.1950865    2.1855774     0.289748  0.014371757  -0.10236667 -0.093879261    1.3987542      1.42238   0.70427886  0.066666667    1.4101673        1e-08 1.7606971e-09    5.6795685    2.4976512    30.403515 -0.0040412909  -0.15431361 -0.00077146962    0.2030837  -0.77977572    3.1299585 
 1428000    4.1755979    1.2741918    2.9014061  -0.21786947    0.8495518     1.012104   0.74839579   -1.2465374            1    1.4473319    2.0877866    2.1091619   0.14504718 0.0069913687  -0.10355162  0.029441385    1.2893828    1.3142127   0.69246275  0.066666667    1.4037989        1e-08 1.7311569e-09     5.776484    2.4775805    30.403515 0.0032366128  -0.20565775 -0.0064831352   0.19791216    1.1847965    2.2028311 
 1429000    4.2029195    1.2747815     2.928138  -0.20888193   0.84994498   0.99111213   0.76211631   -1.2465374            1    1.6160742    2.2014631    2.2405601    0.4061994  0.011084949  -0.11469575  0.010107015    1.4552294     1.485716   0.69703937  0.066666667     1.407611        1e-08 1.7425984e-09    5.7385567    2.4768232    30.403515 -0.024746808  -0.21208628 -0.0060733582   0.19868232   -1.0008684    1.7077528 
 1430000    4.1945407    1.2915866    2.9029541  -0.20877039   0.86114956    1.0239559   0.75983722   -1.2465374            1    1.4619465    2.0973675    2.1373741   0.15109792  0.010460675  -0.03671085  0.030539559    1.3015827    1.3272685   0.71013424  0.066666667    1.4105274        1e-08 1.7753356e-09    5.6327378    2.4866882    30.403515 -0.00039755758  -0.17709501 -0.002741509   0.19315771   0.30216346   0.54537284 
 1431000     4.181923    1.2749714    2.9069516  -0.22058925   0.85007159     1.021647   0.74329239   -1.2465374            1    1.7008175    2.2682386    2.2937886   0.54042537 -0.0095390574   0.06794141 -0.056857559    1.5439455    1.5664432   0.70927446  0.066666667    1.4208127        1e-08 1.7731861e-09    5.6395658    2.4893908    30.403515 0.0040638876  -0.19137959  0.017343059   0.22046849   0.82667114    5.1534235 
 1432000    4.1987985    1.2890993    2.9096992  -0.20480992   0.85949123    1.0142951   0.76316577   -1.2465374            1    1.5435546    2.1929843    2.1625745   0.27510505  0.023653204 -0.0083786234  0.038866131    1.3824883    1.4101472   0.70591106  0.066666667    1.4143169        1e-08 1.7647777e-09    5.6664362    2.5118017    30.403515 0.0025945391  -0.19943608  0.015503073   0.20530998   0.86146819   -1.0470863 
 1433000    4.1719532    1.2738013    2.8981519  -0.20805184   0.84929146    1.0103591   0.74906058   -1.2465374            1    1.6373191    2.2293888    2.2684829   0.41408548 -5.6260797e-05 -0.078751052  0.057088047    1.4792297    1.5044294   0.70455122  0.066666667    1.4274673        1e-08 1.761378e-09    5.6773729    2.4762177    30.403515 0.0061625196  -0.18901164 0.0062540194   0.25149156    1.6117038    2.3903023 
 1434000    4.1814891    1.2733981     2.908091  -0.21692907   0.84902265      1.00865   0.74968931   -1.2465374            1    1.6252111    2.2107037    2.2405602   0.42436945 -0.0022451802  0.088966178 -0.008183744    1.4669891    1.4925462   0.70506466  0.066666667    1.4148346        1e-08 1.7626616e-09    5.6732386    2.4836216    30.403515  0.015346254  -0.21678713 -0.0081447337   0.19457562   -0.2908963  -0.78057852 
 1435000    4.1486443    1.2564688    2.8921755   -0.2164687   0.83773521   0.99207088   0.74169775   -1.2465374            1    1.5797412    2.1852864    2.1959457   0.35799152 -0.012794881   0.12854207  0.011327193    1.4232058    1.4492569   0.69666385  0.066666667    1.4100979        1e-08 1.7416596e-09      5.74165    2.4746906    30.403515 0.0021410952  -0.18720735  0.011144018   0.18044911   -0.5667836   -0.6145312 
 1436000    4.1788698    1.2604967    2.9183731  -0.20983879   0.84042076   0.98694393   0.74925253   -1.2465374            1    1.6234601    2.2535159     2.207147   0.40971751 -0.00079551166  0.082625881  0.023035922    1.4653302    1.4936502   0.69984891  0.066666667    1.3972871        1e-08 1.7496223e-09    5.7155194    2.4892382    30.403515  0.014684497  -0.13129728   0.01789727    0.1893381    1.2217328   0.27688405 
 1437000    4.1890162    1.2876433    2.9013729  -0.21648673   0.85852043    1.0088345   0.76499287   -1.2465374            1    1.5333292    2.1737858    2.1440983   0.28210349 0.0090934374  0.012217957 -0.032163704    1.3718773      1.40064   0.71294918  0.066666667    1.3951063        1e-08 1.782373e-09    5.6104981    2.4987913    30.403515 0.0075501067  -0.18594768 -0.0032602391    0.2392802    1.5443639  -0.22445646 
 1438000    4.1728514    1.2553923    2.9174591  -0.22061662   0.83701749   0.98201924   0.74679683   -1.2465374            1    1.6005051    2.2193222    2.2043513    0.3778418 -0.012056106  0.018421403  0.018757108    1.4428935    1.4713429   0.71739489  0.066666667    1.3919446        1e-08 1.7934872e-09    5.5757297    2.4818139    30.403515 -0.0041234526  -0.18773521 -0.0079221131    0.2081774   0.33386062   -1.6784716 
 1439000    4.1369948    1.2455615    2.8914333  -0.22091348    0.8304629   0.99147761   0.73026177   -1.2465374            1    1.5511754    2.1642939        2.191   0.29823235 0.0061815694  0.026698503  0.067181109    1.3970536    1.4207692   0.70803685  0.066666667    1.4052836        1e-08 1.7700921e-09    5.6494235    2.5061356    30.403515 0.0051889586  -0.19250339 0.0053442019   0.20272275  0.079242564   -2.0221661 
 1440000    4.1517254    1.2719328    2.8797926  -0.22243099   0.84804564    1.0151782   0.74403487   -1.2465374            1    1.5977555    2.2278334    2.2125806   0.35285258 -0.024749232  0.024526306  0.042407417    1.4407269     1.464232   0.70536945  0.066666667    1.4007395        1e-08 1.7634236e-09    5.6707872    2.4942285    30.403515 -0.011673093  -0.22560446 -0.0048123355   0.17388033  -0.65273632      1.75429 
 1441000    4.1498297    1.2652093    2.8846204  -0.22153464   0.84356281    1.0052532   0.74294286   -1.2465374            1    1.6111716     2.210909    2.2184084   0.40419741 -0.019650789  -0.10369893 0.0076543066    1.4543734    1.4789535   0.70591047  0.066666667    1.3971467        1e-08 1.7647762e-09     5.666441    2.4807612    30.403515 -0.017301231  -0.18215332 -0.0086492791   0.19676598   0.37165214    2.4861352 
 1442000    4.1293186    1.2433985    2.8859201  -0.21507693   0.82902076    0.9984935   0.72354832   -1.2465374            1    1.5550973    2.1685761    2.1766653   0.32005051  0.011310897  0.014027191 -0.030499046    1.4023923    1.4237683   0.70450069  0.066666667    1.4154476        1e-08 1.7612517e-09    5.6777801    2.5055874    30.403515  0.017040131  -0.22638146 -0.00089432291   0.18900352  -0.26965032    1.0740282 
 1443000    4.1494051     1.262574    2.8868312  -0.22037875   0.84180578   0.98579004   0.75222006   -1.2465374            1    1.6432369    2.2311497    2.2475277   0.45103335  0.010929273  0.026118232  0.015725704    1.4844807    1.5135787   0.70268642  0.066666667    1.4086859        1e-08 1.756716e-09    5.6924396    2.4712229    30.403515 -0.014885896  -0.17716989 0.0030998625   0.17792775  -0.24970005    2.1172001 
 1444000    4.1507072    1.2775089    2.8731983  -0.22480038   0.85176346    1.0036654   0.75724514   -1.2465374            1    1.5076041    2.1505067    2.1608287   0.21147697 -0.0052498158  0.089231579 0.0063524358    1.3477874    1.3755948   0.71173053  0.066666667    1.4288112        1e-08 1.7793263e-09    5.6201045    2.5178235    30.403515  0.012183989  -0.22040308  0.016678596   0.21483535  -0.64723731    2.0205109 
 1445000    4.1410906    1.2630128    2.8780777  -0.22743522   0.84209837    1.0092582   0.73806962   -1.2465374            1    1.5258622    2.1629946    2.1186612    0.2959308 -0.0094592888   0.10907988 -0.038673631    1.3700925    1.3931173   0.70187129  0.066666667    1.4278583        1e-08 1.7546782e-09    5.6990506    2.4882836    30.403515 0.0023926005  -0.17105132 -0.018264826   0.19425651  -0.96329777     1.366041 
 1446000    4.1294573    1.2797008    2.8497565  -0.22193082    0.8532249    1.0076186   0.75715397   -1.2465374            1    1.4982391    2.1643549    2.1134963   0.21686606 -0.00049093137 -0.025922867  0.034741157    1.3384416    1.3657098   0.70277695  0.066666667    1.4343982        1e-08 1.7569424e-09    5.6917063    2.5132807    30.403515 0.0036405994  -0.17405477 -0.012981125   0.21812847   0.92992492  -0.09029452 
 1447000    4.1739963    1.2847898    2.8892064  -0.22026481   0.85661793    1.0238825   0.75252642   -1.2465374            1    1.5432282    2.1876741    2.1491987   0.29281171 -4.4059289e-05 -0.0048232197  0.027182574    1.3844073    1.4085598   0.70639177  0.066666667    1.4365198        1e-08 1.7659794e-09    5.6625801    2.4821022    30.403515  0.001471507  -0.17629438 0.0018997181   0.19962026   0.82106502   0.74874318 
 1448000    4.1745848    1.2833625    2.8912223  -0.21462347   0.85566623    1.0145419   0.75680255   -1.2465374            1    1.6310797     2.259603    2.2380429   0.39559309 -0.011283836 -0.038446477 -0.0015632938    1.4713564    1.4976398   0.70673768  0.066666667    1.4440735        1e-08 1.7668442e-09    5.6598086    2.4868264    30.403515 -0.0057812403  -0.17292311 -0.013152918   0.17829139  -0.28495804    4.3853765 
 1449000    4.1519442    1.2728498    2.8790944  -0.22193544   0.84865707    1.0242177   0.73939401   -1.2465374            1    1.5949609    2.2093501    2.2223564   0.35317625 -0.0050370532   -0.0418311  0.072185936    1.4389117    1.4602484   0.69785965  0.066666667     1.439416        1e-08 1.7446491e-09    5.7318116     2.473118    30.403515 -0.0044648944  -0.15715993 -6.7497395e-05   0.15007137 -0.0070447414   0.44909207 
 1450000    4.1720553    1.2801144    2.8919408   -0.2109391   0.85350065    1.0130622   0.75420911   -1.2465374            1     1.657347     2.252596    2.2711657   0.44827932 -0.0020886933 -0.0069371815 0.0089199988     1.498171    1.5241018   0.70066577  0.066666667    1.4456011        1e-08 1.7516644e-09     5.708856    2.4870226    30.403515 0.0024095606  -0.21813274 0.0061536828   0.17479989  -0.29838155    1.9606009 
 1451000    4.1717504    1.2743951    2.8973553  -0.22020434   0.84968733     1.011602   0.74892868   -1.2465374            1    1.5927539    2.2242177    2.2079568   0.34608721 -0.004602287 -0.075293943 -0.015613855    1.4346924    1.4597007   0.71670202  0.066666667    1.4367997        1e-08 1.7917551e-09      5.58112    2.5004433    30.403515 -0.0066233022  -0.21294518 -0.0055979812   0.19526718   0.55251335      1.25134 
 1452000    4.1750834    1.2810193    2.8940641  -0.22040898   0.85410395    1.0066995    0.7591538   -1.2465374            1    1.5452358    2.1520892      2.18216    0.3014581 -0.0056747088 -0.040346712 0.0063777812    1.3850162    1.4128274   0.70555225  0.066666667    1.4287171        1e-08 1.7638806e-09    5.6693179    2.4990474    30.403515  0.018050452  -0.22337861 0.0055703219   0.20826828  0.043353092  -0.85712448 
 1453000    4.1522326    1.2651525    2.8870801  -0.21096957   0.84352496   0.99752266   0.74769913   -1.2465374            1    1.6498815    2.2426401     2.241915   0.46508936 -0.0027039319 -0.047042922   0.05790831    1.4920795    1.5186801   0.69542694  0.066666667    1.3995533        1e-08 1.7385674e-09    5.7518623    2.4851023    30.403515 -0.002208507  -0.19782997 -0.0027508746   0.20828374    0.3994504   0.25292838 
 1454000     4.190481    1.2868156    2.9036653  -0.22300606   0.85796858     1.004997   0.76648851   -1.2465374            1    1.4759824    2.1316088    2.0996357   0.19670277 -0.0025428671 -0.009309432 -0.060704543    1.3142149     1.343798    0.7057205  0.066666667     1.407467        1e-08 1.7643013e-09    5.6679663    2.5007145    30.403515 -0.0044561146   -0.2355439 -0.0038677197   0.18235632  -0.20168227   -2.6524138 
 1455000    4.1442772    1.2627518    2.8815254  -0.22612309   0.84192434   0.99297225   0.74793655   -1.2465374            1    1.6043679    2.2189728    2.2286824   0.36544866 -0.0089395729  0.023813512 -0.017433918    1.4465158    1.4737651   0.71320198  0.066666667     1.409118        1e-08 1.7830049e-09    5.6085094    2.4795542    30.403515 -0.0079205282  -0.17540984 -0.0054069934   0.18897974   -1.5440917  -0.35470998 
 1456000    4.1619436    1.2617935    2.9001501  -0.22522823   0.84128542   0.99676826   0.74453365   -1.2465374            1    1.8583102    2.3997468    2.3849133   0.79027041 0.0056481476  -0.14011177 -0.003928211    1.7011762     1.727208   0.70691408  0.066666667    1.4063971        1e-08 1.7672852e-09    5.6583963    2.4966921    30.403515  0.010193249  -0.15379612 -0.010099759   0.19337942  -0.10175797    1.2582704 
 1457000    4.1651923    1.2758267    2.8893656   -0.2223573   0.85064189   0.99208911   0.76263879   -1.2465374            1    1.4001077    2.0322196    2.0823718   0.08573169 0.0098620814  -0.11022527  0.016793689    1.2391526     1.269621   0.70288886  0.066666667    1.4063879        1e-08 1.7572222e-09    5.6908001    2.4847304    30.403515 -0.011420839  -0.20139902 -0.0062604467   0.18227484  -0.50076501  -0.94600936 
 1458000    4.1538093    1.2622286    2.8915807  -0.21352092   0.84157547   0.99650344   0.74516955   -1.2465374            1    1.6313027    2.2331858     2.243824   0.41689845  0.010354985 0.0008888028  0.010947257    1.4740346    1.5002354   0.70525488  0.066666667    1.4247987        1e-08 1.7631372e-09    5.6717084    2.5001508    30.403515  0.021120836  -0.19897929 0.0011572023   0.16394407  -0.48337971     2.321023 
 1459000    4.1725639    1.2770889     2.895475  -0.22201121   0.85148344    1.0038128    0.7566987   -1.2465374            1    1.6109072    2.2191014     2.225663   0.38795723    0.0013483 -0.042420109  0.038021198    1.4512058    1.4788785   0.71653683  0.066666667    1.4197952        1e-08 1.7913421e-09    5.5824067    2.4883795    30.403515 0.0060699628  -0.18152863 -0.00029016161   0.21895048    1.4124744    1.2553119 
 1460000    4.1382214    1.2647295     2.873492  -0.22657578   0.84324291    1.0274339   0.72860044   -1.2465374            1    1.5855956    2.2032741    2.1987041   0.35480875  0.013094821  0.018756988  0.014432345    1.4318244    1.4504601   0.70835778  0.066666667    1.4166763        1e-08 1.7708944e-09    5.6468639    2.4720471    30.403515  0.010749553  -0.17842817  0.016267206   0.21198522   0.24429001    3.0764175 
 1461000    4.1898373    1.2750653    2.9147721  -0.21611105   0.85013417    1.0108499   0.75012277   -1.2465374            1    1.5493541    2.1544744    2.1751685   0.31841943 -0.0014889322 -0.014536955 -0.0064161217    1.3910406    1.4163999   0.69672753  0.066666667    1.4158449        1e-08 1.7418188e-09    5.7411253    2.4896907    30.403515 -0.0011361311  -0.18488935 9.2256437e-05   0.18806806    1.4855601    1.3186046 
 1462000    4.1666467    1.2862173    2.8804294  -0.21307917   0.85756967    1.0089831    0.7633568   -1.2465374            1     1.509061    2.1637304    2.1250443   0.23840839 -0.0085759647 6.350225e-05  0.060390403    1.3479544    1.3763523   0.69744641  0.066666667    1.4432295        1e-08 1.743616e-09    5.7352077    2.5113302    30.403515 0.0092272291     -0.20761  -0.01155136   0.15135781    2.4593354   -2.5087788 
 1463000    4.1538816    1.2588326    2.8950489   -0.2194863   0.83931126   0.98906123    0.7461319   -1.2465374            1    1.5703317    2.2052219     2.195948   0.30982516 -0.003930816  -0.16891408 -0.060932244    1.4128604    1.4402433   0.70765609  0.066666667    1.4293481        1e-08 1.7691402e-09    5.6524632    2.4879842    30.403515 0.0075098583  -0.17691556 -0.0013251277   0.21801527    1.6714016  -0.56731889 
 1464000    4.1707042    1.2755877    2.8951165  -0.22814281   0.85048254   0.99769963   0.75888361   -1.2465374            1    1.6598616    2.2543099    2.2714812   0.45379376   0.03001198 -0.096876981  -0.03397703    1.4996991     1.528637   0.71757347  0.066666667    1.4403447        1e-08 1.7939337e-09    5.5743421    2.5048426    30.403515 -0.0015915646  -0.18063859 -0.0025493711    0.1785936 -0.088561686   0.66538057 
 1465000    4.1972629    1.2802491    2.9170138  -0.21728572   0.85359044    1.0097521    0.7564178   -1.2465374            1    1.5740286    2.1708677    2.2132607   0.33795747 0.0048560602 -0.091967054  0.020200304    1.4143865    1.4412188   0.71039299  0.066666667    1.4322099        1e-08 1.7759825e-09    5.6306862     2.508933    30.403515 -0.009263541  -0.18574673 -0.0084251467   0.20314464    1.4932234    3.3384836 
 1466000    4.1330989    1.2500149     2.883084   -0.2246747   0.83343214     1.002157   0.72842651   -1.2465374            1    1.6797692    2.2804579    2.2796678    0.4791819 0.0058083816 -0.078786469  0.040535861    1.5260347    1.5479583   0.70541441  0.066666667    1.4551941        1e-08 1.763536e-09    5.6704257     2.474365    30.403515 -0.0050610518   -0.1941709 -0.0027910979   0.21481902   0.43510741    3.1159444 
 1467000    4.1495978    1.2636305    2.8859673  -0.21861767   0.84251017    1.0182503   0.73313417   -1.2465374            1    1.5533968    2.1853939    2.1872337   0.28756292 0.0062414406 -0.071262194 0.0027879086    1.3986688    1.4194692   0.70200596  0.066666667    1.4548908        1e-08 1.7550149e-09    5.6979574    2.4947437    30.403515 0.0006709778  -0.25448954 0.0084892826   0.18109611  -0.19922034   -1.6657384 
 1468000    4.1646225    1.2698657    2.8947568  -0.21786387   0.84666743    1.0087137   0.74582621   -1.2465374            1    1.6183464     2.221192    2.2111715   0.42267559 -0.0055972251 -0.021639374  0.035614323    1.4609396    1.4856731   0.70158733  0.066666667    1.4552104        1e-08 1.7539683e-09    5.7013573    2.5188617    30.403515 0.0040449202  -0.19385615  0.013640351   0.19035945    1.1609587     3.085266 
 1469000    4.1828908    1.2700298     2.912861  -0.22275116   0.84677685   0.99859278   0.75231126   -1.2465374            1    1.7503948    2.3010296    2.3464533   0.60370144  0.001293098  0.096583731 -0.028198149    1.5916194    1.6190527   0.69729203  0.066666667    1.4355018        1e-08 1.7432301e-09    5.7364775    2.4783501    30.403515 -0.005996163  -0.18843666   0.01279969   0.20398473   -1.0211263    3.5259255 
 1470000    4.1728867    1.2813391    2.8915476   -0.2193915    0.8543172    1.0197275   0.75138083   -1.2465374            1    1.6006201    2.2173521    2.2134065   0.37110166 -0.0095317153  -0.02245032  0.024284702     1.442041    1.4664982   0.70081276  0.066666667    1.4306475        1e-08 1.7520319e-09    5.7076586    2.4976386    30.403515 0.0011179233  -0.17522627 -0.0032870339    0.2192494  -0.11116273    1.2547143 
 1471000    4.1881697     1.279852    2.9083176  -0.21972637   0.85332569    1.0233311   0.74752546   -1.2465374            1    1.5776668    2.1816191    2.1855402   0.36584125 0.0058581479  0.033206896  0.026511925    1.4199015     1.443071   0.70656896  0.066666667    1.3992146        1e-08 1.7664224e-09    5.6611601    2.4908768    30.403515 -0.0095655012  -0.19090869   0.01414677   0.17609108   0.57298868    1.2670852 
 1472000    4.1631395    1.2696727    2.8934668  -0.20824031   0.84653875    1.0112613    0.7440297   -1.2465374            1    1.6103845    2.2320741    2.2246974   0.37438185 -0.014914069  0.051567306 -0.011120395    1.4533569    1.4773761   0.70179568  0.066666667    1.3979544        1e-08 1.7544892e-09    5.6996646    2.4842909    30.403515  0.002299306  -0.21835648 0.0038273795    0.2082937  -0.26277098    1.5523194 
 1473000    4.1725755    1.2643747    2.9082008  -0.21187399   0.84300639    1.0030219   0.74343012   -1.2465374            1    1.6117824     2.250444    2.2055247   0.37937866 -0.0025332437 -0.020161692 -0.017541072    1.4548814    1.4798578   0.70284699  0.066666667    1.3871611        1e-08 1.7571175e-09    5.6911391    2.4813793    30.403515  0.011770315  -0.23871687 0.0025865933   0.22013205  -0.26704096    3.7526587 
 1474000    4.1796313    1.2677597    2.9118715  -0.20846661   0.84526331     1.006597   0.74486596   -1.2465374            1     1.610424    2.2303592    2.2352466   0.36566632  0.010577672  -0.10724976  0.010930314      1.45322    1.4780292    0.6981163  0.066666667    1.3849729        1e-08 1.7452908e-09    5.7297043    2.4916253    30.403515  0.010003132  -0.16297653 -0.0014134238   0.18688558  -0.90978177    1.0696217 
 1475000    4.1408948    1.2644878     2.876407  -0.22673784   0.84308181    1.0065349    0.7413633   -1.2465374            1    1.5342102      2.14739    2.1915546   0.26368604 0.0033716281  -0.13525841 -0.057101067    1.3777454    1.4018235   0.69986639  0.066666667    1.3967168        1e-08 1.749666e-09    5.7153766    2.4868558    30.403515 0.00090068307   -0.1856661 -0.002724075   0.17251346   -1.3998292   0.45558552 
 1476000    4.1820909    1.2653263    2.9167647  -0.21927168   0.84364082    1.0206409   0.73347982   -1.2465374            1    1.6762451    2.2980781    2.2579709   0.47268628 -0.012881562  0.094899936 -0.018150099     1.521444     1.542003   0.70605069  0.066666667    1.4018994        1e-08 1.7651267e-09    5.6653156    2.4952561    30.403515 0.0002932524  -0.17745969 -0.013971546    0.1586484   -2.4117016  -0.20601015 
 1477000    4.1673064    1.2736737    2.8936327  -0.21574776   0.84920637    1.0158343   0.74551033   -1.2465374            1    1.4164648    2.1143815     2.063537  0.071475947 -0.0042785659  0.044712391  0.011270862    1.2591247     1.282855   0.70516127  0.066666667    1.4012365        1e-08 1.7629032e-09    5.6724613     2.486063    30.403515  -0.02624277  -0.19702874 0.0092450083   0.19503237   0.31048278   -1.9632269 
 1478000    4.1648075    1.2650608    2.8997467  -0.20953411    0.8434638    1.0013565   0.74521057   -1.2465374            1    1.5752856    2.1919613    2.2229304   0.31096509  0.024501597  0.026864453 -0.0067464144    1.4180088      1.44358   0.70327078  0.066666667    1.4117288        1e-08 1.758177e-09    5.6877096    2.4774852    30.403515 0.0011209945  -0.16516956 -0.0077807967   0.20785899   0.94279502   0.56766154 
 1479000    4.1872353    1.2889039    2.8983313  -0.21356915   0.85936095    1.0134885   0.76345693   -1.2465374            1    1.6937141    2.2767586    2.2918849   0.51249865 -0.0050466385   0.08646233  0.014961846    1.5325863    1.5604128   0.69959447  0.066666667    1.4098919        1e-08 1.7489862e-09    5.7175981    2.4834873    30.403515  0.012901554  -0.21982002 -0.0020373082   0.18800266    1.0015633   0.58409482 
 1480000    4.1880758    1.2588776    2.9291982  -0.20410302   0.83934126    1.0035391   0.73715793   -1.2465374            1     1.622678    2.2468368    2.2182132   0.40298395 -0.0024714772  -0.01981257 0.0061983235    1.4671007    1.4906853   0.70694209  0.066666667    1.3870031        1e-08 1.7673552e-09    5.6581721    2.4912765    30.403515 -0.0069432956  -0.19271712 -0.0022546124   0.19703167 -0.087215919    1.7710883 
 1481000    4.1557786    1.2724338    2.8833448  -0.21875504   0.84837969    1.0252265   0.73831509   -1.2465374            1    1.5980687    2.2129604    2.2139204   0.36732522 -0.010748028 3.7947906e-05  0.028331642    1.4422472    1.4632235   0.70511784  0.066666667    1.3819065        1e-08 1.7627946e-09    5.6728107    2.4980776    30.403515 -0.0019634595  -0.20362811 0.0027887912   0.17217396   -1.1766964   0.76629106 
 1482000    4.1574902    1.2712779    2.8862123  -0.21368901   0.84760903   0.99346997   0.75685475   -1.2465374            1      1.48282    2.1138833    2.1559545   0.17862223 0.0018350457  0.006554423 -0.045663578    1.3230857    1.3521517   0.70517166  0.066666667    1.3850768        1e-08 1.7629291e-09    5.6723777    2.5032292    30.403515 -0.018477352  -0.22129181 -0.0018085835   0.22069577  -0.84700682   -2.0484758 
 1483000    4.1444423     1.263993    2.8804493  -0.21671911    0.8427519     1.005786    0.7412944   -1.2465374            1     1.666342    2.2776357    2.2485092   0.47288094 -0.011898314   0.11306846 0.0070446716    1.5098917    1.5340538   0.70659003  0.066666667    1.3732093        1e-08 1.7664751e-09    5.6609913    2.4989399    30.403515 -0.018180388  -0.18721716 -0.0093524568   0.19899895   -2.1921886    2.3918256 
 1484000    4.1627192     1.272567    2.8901522  -0.22248159   0.84846851    1.0214495   0.74081309   -1.2465374            1    1.5492792    2.1783609    2.1818306   0.28764595 -0.014298184 -0.036223195  0.020593408    1.3929304    1.4149308   0.70965779  0.066666667    1.3735518        1e-08 1.7741445e-09    5.6365195    2.4832488    30.403515 0.0095947885  -0.20310005 -0.0039309228   0.18982115  0.028195866      1.79291 
 1485000    4.1670288    1.2783314    2.8886975  -0.21792535    0.8523118    1.0128961   0.75238272   -1.2465374            1    1.5219016    2.1511813    2.1711067   0.24341665 -0.0076395835 -0.046423004  0.069708496    1.3631111    1.3886782   0.70232751  0.066666667    1.3766309        1e-08 1.7558188e-09    5.6953486    2.5078669    30.403515 0.0045578569  -0.16204934 -0.0067233752   0.19865927   -1.6141754   0.22679447 
 1486000    4.1831635    1.2837897    2.8993739  -0.21997597   0.85595107    1.0260488   0.75009379   -1.2465374            1    1.6135778    2.2142926    2.2334324   0.39300839 0.0075666295  0.015657475 -0.0098336052    1.4552704    1.4786245   0.70339097  0.066666667    1.4107613        1e-08 1.7584774e-09    5.6867378    2.4930087    30.403515 -5.9407709e-05  -0.17621507 -0.00082328997   0.16452606  -0.70574263   0.68910631 
 1487000     4.194284    1.2744997    2.9197843  -0.20642696   0.84975713    1.0189307   0.74447474   -1.2465374            1    1.4541462    2.1168616    2.1268944    0.1186825 0.0025956793  0.055203353  0.045735345    1.2970247    1.3201291   0.70281642  0.066666667     1.430504        1e-08 1.7570411e-09    5.6913867     2.493987    30.403515  0.014205066  -0.18883819 0.00045310682   0.17489752  -0.61629959  -0.49797777 
 1488000    4.1948425    1.2838563    2.9109862  -0.22115843    0.8559955    1.0193694   0.75432854   -1.2465374            1    1.5865862    2.1733671    2.2117907   0.37460077 0.0038445866 0.0089550543 -0.058544881     1.427385    1.4525114   0.70069478  0.066666667    1.4310577        1e-08 1.7517369e-09    5.7086197    2.4887998    30.403515 -0.0075168817  -0.16874515  0.001666435   0.18426257  -0.44471415    1.4710601 
 1489000    4.1710863    1.2589568    2.9121295   -0.2098949   0.83939406      1.00495   0.73636437   -1.2465374            1    1.4623188    2.1407534    2.0945579   0.15164517  0.017252317  -0.12010608  0.013998116     1.306909    1.3301406   0.69851284  0.066666667    1.4096906        1e-08 1.7462821e-09    5.7264516    2.4948671    30.403515 0.0097725409  -0.22633557 -0.0071111881   0.19760432   0.53150081    1.4055567 
 1490000    4.1645449    1.2777087    2.8868362   -0.2241908   0.85189665    1.0199681   0.74730142   -1.2465374            1    1.6183924     2.234411    2.2065227   0.41424335  0.014916488  0.019969561  0.018686996    1.4606743    1.4842388   0.70595472  0.066666667    1.4014573        1e-08 1.7648868e-09    5.6660858    2.5027689    30.403515  0.013029721  -0.17458874 -0.00089599658    0.1799336   -1.3063543    4.2230478 
 1491000    4.1791523    1.2775614     2.901591  -0.20860883   0.85179843    1.0071139    0.7551528   -1.2465374            1    1.5529935    2.1858365    2.1822009   0.29094298  0.002926342   0.16374099  0.021965793    1.3936183    1.4205306   0.70559754  0.066666667    1.4048372        1e-08 1.7639938e-09     5.668954    2.4776996    30.403515 -0.013988538  -0.20189529 0.0027663385   0.17129356   -1.8789571     2.017722 
 1492000    4.1712363       1.2749    2.8963364  -0.22751213   0.85002398    1.0129653    0.7486256   -1.2465374            1    1.5541372    2.1649685     2.198687   0.29875619 -0.00053049619   0.20835969  0.035397885    1.3961397    1.4209047   0.70637397  0.066666667    1.3868922        1e-08 1.7659349e-09    5.6627228    2.4853211    30.403515 0.0084733302  -0.22463891 0.0038235437   0.17245735   -1.1819213    4.0528853 
 1493000    4.1771657    1.2825636    2.8946021  -0.20889626   0.85513363    1.0201787   0.75242503   -1.2465374            1    1.6266748    2.2381457    2.2243389   0.41753974 -0.00094480613 0.0012277063  0.063363587    1.4678754    1.4924935   0.70086855  0.066666667    1.4114616        1e-08 1.7521714e-09    5.7072043    2.4865582    30.403515  0.012355991  -0.18362992 -0.0082340759   0.21580603    1.4711138    1.2004197 
 1494000     4.198294    1.2887582    2.9095358  -0.21311555   0.85926377    1.0263319   0.75529514   -1.2465374            1    1.5189908    2.1565119    2.1485263   0.25193413 0.0036998758 0.0028186469 -0.0095683132    1.3595856    1.3840002   0.70379345  0.066666667    1.4309748        1e-08 1.7594836e-09    5.6834857    2.5020973    30.403515 0.0012219234  -0.18320341 -0.010526414   0.19408144    0.5573196   -1.0067896 
 1495000    4.1708127    1.2816345    2.8891782  -0.21312862   0.85451414    1.0240369   0.74901495   -1.2465374            1    1.5526319    2.1818695    2.2065282   0.26949789  0.012154998 -0.078073027  0.034856419    1.3945521    1.4179432   0.70555587  0.066666667    1.4023333        1e-08 1.7638897e-09    5.6692888    2.5164987    30.403515  0.023278379  -0.17673046 -0.003854359   0.16668134   -1.4057953    1.1871542 
 1496000    4.2052668    1.2863662    2.9189006  -0.21810779   0.85766895    1.0167497   0.75867776   -1.2465374            1    1.5727361     2.182856    2.1883381   0.34701402  0.015424721 -0.081476063 -0.012306981     1.412617    1.4390058   0.70037287  0.066666667    1.4255114        1e-08 1.7509322e-09    5.7112435    2.4827585    30.403515 -0.0066147475   -0.1892901 0.0048322747   0.17667592    0.9302122   0.20301723 
 1497000     4.170702     1.257516     2.913186  -0.20879189   0.83843339    1.0105509   0.73131434   -1.2465374            1    1.4836435     2.123088     2.126487   0.20135538 -0.021115294  -0.02636724 -0.039969272    1.3292994    1.3507285   0.70620147  0.066666667    1.4534125        1e-08 1.7655037e-09     5.664106    2.4921327    30.403515 -0.00059746053  -0.21786205 -0.0030372365   0.18162773   -0.1345855    1.2689212 
 1498000    4.1540829    1.2712751    2.8828079  -0.22116057    0.8476071    1.0186125   0.74118272   -1.2465374            1    1.5287416    2.1409528    2.1506218   0.29465019 -0.014156621  -0.01673021   0.14828989    1.3723149    1.3947664   0.70159148  0.066666667    1.4424751        1e-08 1.7539787e-09    5.7013235    2.4683889    30.403515 0.0065318121  -0.21638861 0.0049685252   0.20249187  -0.60759383   0.88771905 
 1499000    4.1972066    1.2968184    2.9003882  -0.21454634   0.86463783    1.0091023   0.77475678   -1.2465374            1      1.54294    2.1833957    2.1639083   0.28151609 -0.0067578064  -0.15668382  -0.01363972    1.3794275    1.4102156   0.70957805  0.066666667    1.4599693        1e-08 1.7739451e-09     5.637153    2.5060037    30.403515 -0.013980216  -0.18545677 -0.011269977   0.20126533    1.0206211  -0.44972053 
 1500000    4.1903374    1.2814363    2.9089011  -0.20986267   0.85438199    1.0013868   0.76291605   -1.2465374            1    1.5680269    2.2095982    2.1961358    0.2983466 0.0096059479 -0.089167286 -0.0072510726    1.4070133    1.4363173   0.70662808  0.066666667    1.4371252        1e-08 1.7665702e-09    5.6606865    2.4697057    30.403515 -0.0017656142  -0.21278981 0.0021085501   0.19271542    2.1426384  -0.39455746 
 1501000    4.1834927    1.2913871    2.8921056  -0.21225257   0.86101654    1.0079632   0.76958798   -1.2465374            1    1.5791427    2.2057521    2.1996747    0.3320012 1.5974869e-05 -0.021287329 0.0060200856     1.416721    1.4465681   0.70733934  0.066666667    1.4580616        1e-08 1.7683484e-09    5.6549944    2.4978149    30.403515  0.017652054   -0.2259572 0.00084417473   0.18153133   0.92598406    1.2679163 
 1502000    4.1619414    1.2802026    2.8817388  -0.21357352   0.85355945    1.0139137   0.75377394   -1.2465374            1    1.5608748    2.2051275    2.1877139   0.28978295 -0.0099361827   0.17348134 -0.026699356    1.4017907    1.4275176   0.70180178  0.066666667    1.4283158        1e-08 1.7545045e-09     5.699615    2.4811563    30.403515 -0.0014112963  -0.21395873  0.001863386   0.17973793   -1.1795143  -0.80561013 
 1503000    4.1478455    1.2704309    2.8774146   -0.2137906   0.84704426    1.0227295   0.73770327   -1.2465374            1    1.7317107    2.3021917    2.3369561   0.55598419 -0.0026392161   0.14786424 -0.056708401    1.5760183    1.5971939   0.71251975  0.066666667     1.434265        1e-08 1.7812994e-09    5.6138794    2.4857842    30.403515 0.0020518749  -0.20489162 -0.0012390113    0.2071454     -1.22035    1.2826136 
 1504000     4.170949    1.2784139    2.8925351  -0.21322328   0.85236684    1.0083203   0.75532371   -1.2465374            1    1.5544481    2.2007234     2.180695   0.28192585 -0.011455819   0.04531208  0.032490472    1.3950369    1.4218265   0.70249871  0.066666667    1.4311002        1e-08 1.7562468e-09    5.6939607    2.4888895    30.403515 0.0088749749  -0.19405202 -0.012051705   0.21443887   -1.2505131   0.33335145 
 1505000     4.139528    1.2646209    2.8749071  -0.22072923   0.84317054    1.0224312   0.73160069   -1.2465374            1    1.7236676     2.325506     2.298209   0.54728764 -0.015525226 -0.022463843  -0.05178167    1.5692631    1.5891901    0.6984492  0.066666667    1.4479214        1e-08 1.746123e-09    5.7269734    2.4809395    30.403515 -0.0050235579  -0.19098663  0.012817785   0.19775663   -1.5767113  -0.82163308 
 1506000    4.1872028    1.2858583    2.9013444  -0.21219104   0.85733033    1.0058977   0.76489111   -1.2465374            1    1.4937488    2.1502403    2.1321233   0.19888287  0.018803529   0.01611924 -0.010259315    1.3323184    1.3614459   0.70654915  0.066666667    1.4462456        1e-08 1.7663729e-09    5.6613188    2.4811026    30.403515 -0.016936582  -0.18294601 0.0011443498    0.2196827    -1.387123   -2.6331833 
 1507000    4.1755106    1.2680676     2.907443  -0.21419093   0.84546857    1.0077313   0.74449231   -1.2465374            1    1.6209996    2.2350049    2.2562597   0.37173422 0.0008590771   0.13405297  0.044220374    1.4638744    1.4884555   0.71345248  0.066666667     1.426146        1e-08 1.7836312e-09    5.6065402    2.4905103    30.403515 -0.0067731759  -0.19607565 -0.0018033538   0.19885291   -1.6362482   0.58773948 
 1508000    4.1636479    1.2727324    2.8909156  -0.22189085   0.84857874    1.0234957   0.73971682   -1.2465374            1    1.6552544    2.2661863    2.2280882   0.47148865 0.0060118781 -0.052379532 -0.014069542     1.499137    1.5206369   0.71252556  0.066666667    1.4398509        1e-08 1.7813139e-09    5.6138337    2.4989678    30.403515 -4.4607351e-05   -0.2343707 0.0059628839   0.23642227    1.1978501   0.54731193 
 1509000     4.170165    1.2759652    2.8941998  -0.21459717    0.8507342    1.0060943   0.75406054   -1.2465374            1    1.5207096    2.1618322    2.1617049   0.23859158 -0.013157184   0.12774777  0.038370325     1.361565    1.3883808   0.70238521  0.066666667    1.4179682        1e-08 1.755963e-09    5.6948807     2.490172    30.403515  0.010496793  -0.19175747 -8.5937369e-05    0.1986773  -0.11503247   -1.0765904 
 1510000    4.1639077    1.2912744    2.8726333  -0.22034242   0.86094144    1.0158522   0.76454959   -1.2465374            1    1.5546338    2.1843711    2.1596774   0.31985279 -0.005488997   0.12013952  0.043153531    1.3932755    1.4210216   0.69804792  0.066666667    1.4149101        1e-08 1.7451198e-09    5.7302656    2.4709248    30.403515 0.0072789091  -0.19203061 -0.0003870783   0.20122432  -0.20564001  -0.66219007 
 1511000    4.1802259    1.2755452    2.9046807  -0.20944447   0.85045417    1.0044172   0.75465117   -1.2465374            1    1.7909137    2.3518297    2.3596137   0.66129767 -0.0012734092  -0.11590468  0.045069641    1.6316444    1.6588055   0.71032076  0.066666667    1.3791143        1e-08 1.7758019e-09    5.6312587    2.4945837    30.403515 0.0094839066  -0.19006121 -0.0015967333   0.20054552     2.600328    1.2820862 
 1512000    4.1636861    1.2704059    2.8932802  -0.21358692   0.84702761     1.000525   0.75151417   -1.2465374            1    1.5018224    2.1636637    2.1291873   0.21261613 -0.016424716 -0.00067796932  0.017928026    1.3432152    1.3702261   0.71045685  0.066666667    1.3859064        1e-08 1.7761421e-09    5.6301801    2.4914396    30.403515 -0.0047303294   -0.1928851 -0.0074711576   0.17231475   0.62953248  -0.23785229 
 1513000    4.1792476    1.2809224    2.8983252  -0.22223208   0.85403938    1.0178489    0.7521006   -1.2465374            1    1.5293871    2.1743599    2.1336701   0.28013121 -0.0099203654  0.036278549  0.044330084    1.3706561    1.3955123   0.70526227  0.066666667    1.3870123        1e-08 1.7631557e-09    5.6716489    2.4864867    30.403515 0.0066737903  -0.21832664 0.0019012269   0.18675364  -0.16195409   0.23671817 
 1514000    4.1739667    1.2629069    2.9110598  -0.22174727   0.84202776   0.99911464   0.74427648   -1.2465374            1    1.6177671     2.192158    2.2279409   0.43320225  -0.01109673 -0.029678402 -0.022716669    1.4606874    1.4863563   0.70188673  0.066666667    1.3863077        1e-08 1.7547168e-09    5.6989253     2.500564    30.403515  0.015400104  -0.22810863  -0.01163959   0.18467648  -0.57774799    1.0273603 
 1515000    4.1608431    1.2673538    2.8934893  -0.21121973   0.84499266     1.006628   0.74440725   -1.2465374            1    1.5661057    2.1931321    2.1853234    0.3198617  0.019387247 -0.046778117 -0.066094507    1.4089984    1.4337068   0.70073228  0.066666667    1.3829473        1e-08 1.7518307e-09    5.7083141    2.5039989    30.403515 -0.0068917209  -0.15873759 -0.0047125488   0.21743043   -1.3319961    1.2389432 
 1516000    4.1449176    1.2586531    2.8862645  -0.22734127   0.83919158    1.0077899   0.73426585   -1.2465374            1    1.5649443    2.1743107     2.176592   0.34393035 0.0098055162   -0.2023742 0.0026703378    1.4099774    1.4323926   0.70821426  0.066666667    1.3867514        1e-08 1.7705356e-09    5.6480083    2.4973703    30.403515 -0.0064364579  -0.22664265 -0.018387053   0.19725106   -0.8059517   0.54328427 
 1517000    4.1820072    1.2805689    2.9014382  -0.21881308   0.85380369    1.0221127   0.74906076   -1.2465374            1    1.5657031    2.1907649    2.1849266   0.32141777  0.009883159 -0.082473105 -0.019830597    1.4076137    1.4312675   0.71157469  0.066666667    1.3866721        1e-08 1.7789367e-09    5.6213354    2.4980086    30.403515 -0.0096506029  -0.20740155 0.0053276517   0.20136535   -1.6058158    1.8273046 
 1518000    4.1872832    1.2648266    2.9224566  -0.21552493   0.84330767   0.99716869   0.74756697   -1.2465374            1    1.5314897     2.156101    2.1752766   0.26309156  0.014170152 -0.044600112  0.022021258    1.3737156    1.4003349   0.70309958  0.066666667    1.3921795        1e-08 1.757749e-09    5.6890945    2.4894153    30.403515 0.0075718418  -0.17675402 -0.0095953845   0.21581698   0.24291375   0.52447571 
 1519000    4.1746428    1.2666184    2.9080244  -0.20796638   0.84450232    1.0107898    0.7410176   -1.2465374            1    1.4845193    2.1210151    2.1300763   0.20246643  0.017241249  0.090985274  0.011585805    1.3281274     1.351573   0.70248782  0.066666667    1.4003014        1e-08 1.7562195e-09    5.6940489    2.4888547    30.403515 -0.0012378514  -0.19861486 -0.011142811   0.20298704  -0.17429563   0.19199335 
 1520000    4.1500995    1.2577735     2.892326  -0.21239271   0.83860511    1.0090969   0.73249927   -1.2465374            1    1.6449437    2.2414648    2.2541947   0.43917172 -0.0066549654   0.10074225 -0.0059367063    1.4903496    1.5122201   0.70078426  0.066666667    1.3965755        1e-08 1.7519606e-09    5.7078908    2.4774997    30.403515 -0.010536565  -0.19565133 -0.00089191745   0.17948339  0.013517294    1.1234693 
 1521000    4.1527875     1.256703    2.8960845  -0.21942183    0.8378914    1.0012019   0.73626078   -1.2465374            1    1.4731711    2.1271201     2.118579   0.17381416 -0.020340371 -0.098727746 -0.023461445    1.3177831    1.3414858   0.70401506  0.066666667    1.3896972        1e-08 1.7600376e-09    5.6816967     2.486972    30.403515 0.00040848055  -0.19770611 0.0075382541   0.21550655     1.631279  0.083675068 
 1522000     4.168574    1.2692751    2.8992989  -0.21803526   0.84627364    1.0034458   0.74846996   -1.2465374            1    1.5617494    2.1662313    2.1795657   0.33945123 0.0028191802  -0.14660913  0.012190283    1.4037847     1.429769   0.70436107  0.066666667    1.3912766        1e-08 1.7609027e-09    5.6789056    2.4760913    30.403515 -0.010952569  -0.18486301 -0.015035505   0.20450505   0.83013739    1.0908706 
 1523000    4.1563822    1.2738304    2.8825518  -0.21382372   0.84931084    1.0111784    0.7485815   -1.2465374            1    1.5057791    2.1522269     2.163349   0.20176138 0.0025056447  -0.09976434 -0.017800229    1.3477909    1.3727816   0.70258043  0.066666667    1.3844001        1e-08 1.7564511e-09    5.6932984    2.4730111    30.403515 0.00023275797  -0.17224112 0.0044813187    0.1481532   0.14983386  -0.20998472 
 1524000     4.176686    1.2675197    2.9091663  -0.20597882   0.84510327   0.99228496   0.75352547   -1.2465374            1    1.6683614    2.2768444    2.2672833   0.46095652 -0.0085306568   -0.1233756 -0.044599378    1.5093298     1.537849    0.7014812  0.066666667    1.3681509        1e-08 1.753703e-09    5.7022198    2.4858776    30.403515  0.011138029  -0.21651777 0.0064366854   0.17143237   0.65608686    1.6768808 
 1525000    4.1625584    1.2848237    2.8777347  -0.22134374    0.8566405    1.0093069   0.76164662   -1.2465374            1     1.535866    2.1697837    2.1567093   0.28110501 0.0010237204  0.023724364  -0.01641512    1.3751203    1.4031147   0.70879638  0.066666667    1.3488581        1e-08 1.7719909e-09    5.6433697    2.4928091    30.403515  0.010158546  -0.20188057 -0.0022561832   0.23327019   0.14724054    5.2375372 
 1526000    4.1828425    1.2881449    2.8946976  -0.21894636   0.85885489    1.0198293   0.75868379   -1.2465374            1    1.5469612    2.1650968    2.1939149   0.28187204 0.0030456464  0.090977564 -0.032861098    1.3868409    1.4128259   0.70624512  0.066666667     1.360896        1e-08 1.7656128e-09     5.663756    2.4872493    30.403515 -0.0082704208  -0.20786015 -0.0073728739   0.18165688  -0.32045489    3.0626492 
 1527000    4.1710748    1.2750797    2.8959951  -0.22349396   0.85014383   0.99126979   0.76234085   -1.2465374            1    1.5842463    2.1945186     2.180793   0.37742731 -0.011112128  0.030880782 -0.017091036    1.4233541    1.4538674   0.69925984  0.066666667    1.3528112        1e-08 1.7481496e-09    5.7203342    2.4813766    30.403515 -0.0047822822  -0.18281085 0.00041444211    0.2020502  -0.12500483   0.78079599 
 1528000    4.1525008    1.2660502    2.8864506   -0.2250517   0.84412353   0.99970511   0.74731071   -1.2465374            1    1.6450788    2.2511549    2.2351581   0.44892323  0.023115301 -0.069253433 0.0017205812    1.4873587    1.5135903   0.69702879  0.066666667    1.3522432        1e-08 1.742572e-09    5.7386439    2.4768012    30.403515 0.0016222704  -0.17384588 0.0032366608   0.17879324   0.49153165    5.2226398 
 1529000    4.1813999    1.2720298    2.9093701  -0.22068115   0.84811029     1.014324   0.74467221   -1.2465374            1    1.5282742    2.1984652    2.1215247   0.26483264 -0.015044192  -0.01042722 -0.054078093     1.371111     1.394863   0.70550926  0.066666667    1.3503058        1e-08 1.7637731e-09    5.6696634    2.4895853    30.403515 0.0045443299  -0.17330727 -0.0054066992   0.22300572   0.41595287   0.53845355 
 1530000    4.1907312    1.2936502     2.897081  -0.20876795   0.86252545    1.0067289   0.77280673   -1.2465374            1    1.5365981    2.1810178    2.1568982    0.2718782 -0.019587324  -0.11037602 -0.031388212    1.3734971    1.4041859   0.70613994  0.066666667     1.352574        1e-08 1.7653498e-09    5.6645996    2.5009016    30.403515  0.016673351  -0.19612577 -0.0027648545   0.17753983  0.039195511    1.5841636 
 1531000    4.1635056     1.261929    2.9015766  -0.21119469   0.84137571    1.0214037    0.7293273   -1.2465374            1    1.5914408    2.2105673    2.1758275    0.3879276  0.015545004 -0.057002297 -0.024704737    1.4375161    1.4570984   0.70138537  0.066666667    1.3560671        1e-08 1.7534634e-09    5.7029989    2.4861342    30.403515 0.00097589251  -0.19335884 0.0044186959   0.20573338   0.51322915   -1.1943679 
 1532000    4.1721193    1.2552107    2.9169085  -0.21302562   0.83689642   0.98957058   0.74189427   -1.2465374            1    1.5566593    2.1818234    2.1948766   0.29327776  0.014200489  0.043724551  0.024376076    1.4000824    1.4265038   0.70628482  0.066666667    1.3721435        1e-08 1.765712e-09    5.6634376    2.4926803    30.403515 -0.0026981491  -0.20187117 0.0018930401   0.18913218  -0.46988768  0.021818968 
 1533000     4.179692    1.2648112    2.9148808  -0.20651119   0.84329739   0.99762112   0.74726834   -1.2465374            1    1.6761819    2.2758107    2.2499024   0.50283253 -0.015708113  0.040238482  0.006907279    1.5184708    1.5449676   0.71349073  0.066666667    1.3793212        1e-08 1.7837268e-09    5.6062396    2.4823458    30.403515  0.022577803  -0.23255536 0.00070379118   0.21110269   0.39577438    1.6714877 
 1534000    4.1551271    1.2711113    2.8840158  -0.21969145   0.84749794   0.99693783   0.75451323   -1.2465374            1    1.6028457    2.2167095    2.2296452   0.36218242 -0.0046216323   0.13986733   0.02856936    1.4436056    1.4717213   0.70671905  0.066666667    1.3962881        1e-08 1.7667976e-09    5.6599578    2.5020241    30.403515 0.0068974701  -0.22391433   0.00560719   0.19163663   -0.3860107    1.6127581 
 1535000    4.1667367    1.2917215    2.8750152  -0.21148788   0.86123952    1.0051292    0.7717161   -1.2465374            1     1.631401    2.2464121    2.2678504   0.37994045 -0.0035408873   0.13814183  0.097177384    1.4685302    1.4991992   0.70827724  0.066666667    1.3776908        1e-08 1.7706931e-09    5.6475061    2.5155368    30.403515 0.0084970288  -0.21878452 -0.007606337   0.16795685   -2.9705145   -1.3125138 
 1536000    4.1892292    1.2647963    2.9244329  -0.20534051   0.84328751   0.98331974   0.75616496   -1.2465374            1    1.6291331    2.2224556    2.2410676   0.42387612  0.011032278  -0.04831983 -0.0020109551    1.4695444    1.4997998   0.70151782  0.066666667    1.3942958        1e-08 1.7537945e-09    5.7019222    2.4917337    30.403515 -0.0018666241  -0.21915267 0.0011559696   0.17594636 -0.057875493    1.5816701 
 1537000    4.1815621    1.2602643    2.9212978  -0.20845253   0.84026584   0.99284802    0.7453216   -1.2465374            1    1.6190432    2.2309673    2.2310448   0.39511745 -0.037105834  0.052202126 -0.019008549    1.4617429    1.4884567   0.70432763  0.066666667    1.4030882        1e-08 1.7608191e-09    5.6791752    2.4976262    30.403515 -0.0024850031  -0.24137954  0.024573147   0.19524608 -0.085427638  -0.37381103 
 1538000    4.1412094    1.2722379    2.8689715  -0.22667797   0.84824907    1.0127804   0.74585948   -1.2465374            1    1.5420746    2.1578981     2.194677   0.27364868 -0.0010602902  0.089265506 -0.015182739    1.3846609    1.4088665   0.71059663  0.066666667      1.37411        1e-08 1.7764916e-09    5.6290726    2.5277625    30.403515 -0.0056970447  -0.21749598 -0.0043403906   0.18074176  -0.47499373   0.21994011 
 1539000    4.1676675    1.2774006    2.8902668  -0.21355984   0.85169126    1.0056997   0.75586012   -1.2465374            1    1.5582646    2.1866075    2.1945164    0.2936698 -0.0097622375  -0.12501464  -0.06915711    1.3987402    1.4259877   0.70132875  0.066666667    1.3667567        1e-08 1.7533219e-09    5.7034594    2.4786524    30.403515 0.0050582675  -0.21538822 -0.016709716   0.19829154    1.5607961   0.35921834 
 1540000    4.1588141    1.2645663    2.8942478  -0.21431076   0.84313411   0.99212227   0.75043018   -1.2465374            1     1.607691    2.1932783    2.2434131    0.3863817 -0.016615735   0.16814945 -0.022244223    1.4493126       1.4772   0.70636812  0.066666667     1.382992        1e-08 1.7659203e-09    5.6627697    2.5029498    30.403515 -0.0052402478  -0.18721243 -0.0019681077   0.20912444  -0.64807627    2.4120008 
 1541000    4.1576264     1.273189    2.8844374  -0.22024912   0.84888321     1.003248   0.75282951   -1.2465374            1    1.6691756    2.2670735    2.2651982   0.47525508  0.012469241  0.010281662  0.021357983    1.5102908    1.5372212   0.71022453  0.066666667    1.3779298        1e-08 1.7755613e-09    5.6320217    2.4914235    30.403515 -0.0030873057  -0.22177564 -0.00057702364   0.18564218  -0.31424953     3.656637 
 1542000    4.1565012    1.2554387    2.9010625  -0.21531496   0.83704839   0.99167757   0.74082789   -1.2465374            1     1.460634    2.1281201    2.1144701   0.13931189  0.010956166  -0.12275482 -0.037121784    1.3042822    1.3302015   0.71082999  0.066666667      1.35639        1e-08 1.777075e-09    5.6272246    2.4980326    30.403515 0.0009780714  -0.19456744 -0.010734392   0.21258351  -0.10859372  0.047259355 
 1543000    4.1478063    1.2496362    2.8981701   -0.2090349   0.83317965   0.98868662   0.73641144   -1.2465374            1    1.6493551    2.2610835    2.2417458   0.44523615 0.0071464478 -0.088560241  0.062638133    1.4939354     1.519316   0.71096635  0.066666667    1.3795367        1e-08 1.7774159e-09    5.6261454    2.5077401    30.403515 0.0033411013  -0.18818194 0.0073954228   0.20300458    1.8492446   0.14240533 
 1544000    4.1519898    1.2651966    2.8867932   -0.2167192   0.84355434    1.0006184   0.74581755   -1.2465374            1    1.6178285    2.2318126     2.227531   0.39414208 0.0072395589 -0.032663428 -0.0084145769    1.4604236      1.48622    0.7011373  0.066666667    1.3353039        1e-08 1.7528432e-09    5.7050167    2.4736084    30.403515 -0.009585791  -0.22050045 -0.014018999   0.20089161  -0.61307147   -1.1607463 
 1545000    4.1343363    1.2609978    2.8733386  -0.21503484   0.84075484   0.99377277   0.74553912   -1.2465374            1     1.691464    2.2810434    2.2866711   0.50667732 -0.011150318 -0.010866183  0.052762388    1.5341178    1.5607558   0.70302422  0.066666667    1.3216172        1e-08 1.7575605e-09    5.6897044    2.4864243    30.403515 -0.0083654994  -0.24623801 0.0019531151   0.15823859   0.32899116    1.3965335 
 1546000    4.1656769    1.2763969    2.8892799  -0.21411045   0.85102205   0.99794987   0.75960349   -1.2465374            1    1.4813047    2.1098092    2.1383499   0.19575485 0.00059400343  0.039600802  0.026408272    1.3209902    1.3500471   0.70174406  0.066666667      1.32083        1e-08 1.7543601e-09    5.7000839    2.4830808    30.403515 0.00056874112  -0.21395227 0.0073945927   0.21035116     1.291894  -0.33598886 
 1547000     4.161282    1.2645994    2.8966826  -0.20440847   0.84315618    1.0054531   0.74215816   -1.2465374            1    1.6982796     2.294918    2.3250361   0.47488467  -0.02499704   0.03211996 -0.029055774     1.541647    1.5660352   0.70807926  0.066666667    1.3618182        1e-08 1.7701982e-09    5.6490851    2.4899011    30.403515 0.0066626566  -0.20840503 -0.0077549155    0.1806561   0.14433787  -0.37502181 
 1548000    4.1617129    1.2731198     2.888593  -0.22651365   0.84883709    1.0179702   0.74357975   -1.2465374            1    1.4603535     2.090665    2.1223298   0.16806578 -0.0018413036  0.019807756 -0.033721325    1.3034209    1.3264628   0.70637898  0.066666667    1.3537852        1e-08 1.7659474e-09    5.6626827    2.4744366    30.403515 -0.00076282223  -0.19325246 -0.0015393485   0.18795219   0.38450436 -0.074003838 
 1549000    4.1479085    1.2605921    2.8873164  -0.21726243   0.84048438    1.0209361   0.72817176   -1.2465374            1    1.5487991     2.167204    2.1657053   0.31348794  0.013399874  -0.13244606  0.043021513    1.3951183    1.4145182    0.7062272  0.066666667    1.3533253        1e-08 1.765568e-09    5.6638997    2.4888606    30.403515 0.0017816183  -0.21218396 -0.0061063951   0.20912374    1.5115692    3.9923158 
 1550000    4.1845682    1.2592644    2.9253037  -0.20706704   0.83959917    1.0075442   0.73508065   -1.2465374            1    1.4757095    2.0897944    2.1412278   0.19610644 -0.0023712463 -0.097971509 -0.066360018    1.3205706    1.3431901   0.69640501  0.066666667    1.3683756        1e-08 1.7410125e-09    5.7437841    2.4802258    30.403515 -0.0056479865  -0.19185734 0.0066869522   0.18388978    1.5091799    2.7310087 
 1551000    4.1703431    1.2567384    2.9136047  -0.20988219   0.83791495    1.0143045   0.72813346   -1.2465374            1    1.5640435    2.2147699    2.1577434   0.31961706  0.022757183  -0.03299045 -0.0077857659    1.4103708    1.4306348   0.70375509  0.066666667    1.3539518        1e-08 1.7593877e-09    5.6837955    2.4898825    30.403515 0.0082496309  -0.16415581 0.0032963687    0.1941419    0.7634997   0.17540149 
 1552000    4.1692161    1.2689957    2.9002203    -0.231879    0.8460874    1.0190582   0.73843789   -1.2465374            1    1.6774576    2.2796093    2.2617874   0.49097608 0.0042233409 -0.054674616 0.0049058238    1.5216101    1.5434237   0.71390275  0.066666667    1.3818188        1e-08 1.7847569e-09    5.6030041    2.4725654    30.403515 -0.012788629  -0.19165869 -1.9609446e-06   0.21007635    -0.409971    1.3125393 
 1553000    4.1954735    1.2974076    2.8980659  -0.21997003   0.86503065    1.0178791   0.76992478   -1.2465374            1    1.3918583    2.0794782    2.0716847  0.024412116 -0.00018902797  -0.12061441 -0.023944054    1.2293656    1.2579795   0.70896971  0.066666667    1.3910976        1e-08 1.7724243e-09    5.6419899    2.5002168    30.403515 0.0061529529  -0.18934646 -0.0029277877   0.19293902   0.10329949   -0.1871117 
 1554000    4.1800634    1.2748697    2.9051937  -0.20852926   0.85000377    1.0037168   0.75435648   -1.2465374            1    1.7699492    2.3377986    2.3500564    0.6219928 0.0091506396 -0.049235655  0.013039017    1.6107422    1.6379332   0.70339482  0.066666667    1.3811986        1e-08 1.7584871e-09    5.6867066    2.5065306    30.403515 -0.0078153288  -0.19967383  0.019596059   0.20630475  0.060649261    3.2934125 
 1555000    4.1889352    1.2515731    2.9373621   -0.2065665   0.83447108   0.98521464   0.74067166   -1.2465374            1    1.4868974    2.1241231    2.1452487    0.1913204 0.0023479131  -0.11788047 -0.0029008447    1.3305785    1.3573149   0.70888791  0.066666667    1.3743288        1e-08 1.7722198e-09    5.6426411    2.4928731    30.403515 0.00063574064  -0.22339193   -0.0120716   0.19412758 -0.087915785    2.3061979 
 1556000      4.18452    1.2820821    2.9024379  -0.20979778   0.85481259    1.0231422     0.750057   -1.2465374            1    1.4969599    2.1530803    2.1236172   0.21418225 -0.026460829 0.0058295171 -0.0055365822    1.3386603    1.3623889   0.70202816  0.066666667    1.3793442        1e-08 1.7550704e-09    5.6977772    2.5048675    30.403515 -0.00078135881  -0.18836747 -0.0023651958    0.2029578  -0.59592627    2.0560612 
 1557000    4.1816215    1.2637831    2.9178384  -0.20916552   0.84261196   0.99742068   0.74628053   -1.2465374            1    1.6453042     2.242308    2.2240788   0.46952566 -0.010687484  0.029975209 -0.016354204    1.4878015    1.5141162   0.69868882  0.066666667    1.3782541        1e-08 1.746722e-09    5.7250093     2.489525    30.403515 -0.0024630794  -0.19891945 0.0035521491   0.21283828   0.73857378     5.028682 
 1558000    4.1679611    1.2776471    2.8903141  -0.22021472   0.85185558    1.0233583   0.74512197   -1.2465374            1    1.6277296    2.2350246    2.2381938   0.40997031  0.011495739 -0.025648705  -0.05329196    1.4704715    1.4931301   0.71228083  0.066666667    1.4038954        1e-08 1.7807021e-09    5.6157625    2.5070452    30.403515 0.0043350752  -0.15555609  0.008342638   0.23445526   0.31807873    4.0344263 
 1559000    4.2010523    1.2964383     2.904614  -0.22481278   0.86438441    1.0246949   0.76462801   -1.2465374            1    1.5568557    2.2047863    2.1827856    0.2829952 0.00033571285  0.050455982  0.082646074    1.3954808    1.4220805   0.70455919  0.066666667    1.4000516        1e-08 1.761398e-09    5.6773086    2.4904258    30.403515 -0.0037942173  -0.17024866 -0.0034119978   0.19052509  -0.33204036    1.0846079 
 1560000    4.2077261      1.27937    2.9283561  -0.20919397    0.8530043    1.0090592   0.75589804   -1.2465374            1     1.706859    2.3004685    2.3170491    0.5030592 -0.013405345 -0.0055076472 0.0061167597    1.5473266    1.5741402   0.69496552  0.066666667    1.4192543        1e-08 1.7374138e-09    5.7556812    2.4985161    30.403515 -0.0071350864  -0.18046596  -0.01080661   0.18283284   -2.2530172   0.35099827 
 1561000    4.1811038    1.2747741    2.9063297  -0.21410759   0.84994006    1.0179712   0.74536962   -1.2465374            1    1.4870409    2.1179053    2.1389969   0.20422044 -0.011860868  0.096208882 -0.032781162    1.3297305      1.35315   0.69936337  0.066666667    1.4151421        1e-08 1.7484084e-09    5.7194874    2.4862396    30.403515  0.015104975  -0.17266425 -0.0063977065     0.180479  -0.49051606  -0.23733758 
 1562000    4.1797279    1.2968715    2.8828564  -0.22984957   0.86467323     1.033782   0.75943376   -1.2465374            1    1.6410704    2.2601274    2.2464101   0.41667356  0.010959188   0.17211363  0.015786819    1.4807917    1.5050999   0.71250651  0.066666667    1.3989889        1e-08 1.7812663e-09    5.6139838    2.4901264    30.403515 0.0072295108  -0.20248023  0.013323567   0.15799023   -0.5880074    1.6842112 
 1563000    4.1890373    1.2841069    2.9049303  -0.22012948   0.85616261     1.001034    0.7660265   -1.2465374            1    1.5377629    2.1543736    2.1707473   0.28816793 0.0025126656   0.16461392  0.049764454    1.3760929    1.4060998   0.69911835  0.066666667    1.3958001        1e-08 1.7477959e-09    5.7214919    2.5007285    30.403515 0.0084766076  -0.17832654 0.0097570798   0.20628392   -1.7735208   0.79676304 
 1564000    4.1587195    1.2714454    2.8872741  -0.21447905   0.84772068   0.99955716   0.75324245   -1.2465374            1    1.6737831    2.2473157    2.3017678   0.47226575 -0.0034771598  0.045807243 -0.063121383    1.5148112    1.5423142   0.69975518  0.066666667    1.3678745        1e-08 1.749388e-09    5.7162849    2.4986291    30.403515 0.0066100439  -0.17559136 0.0061616773   0.19872433    -1.254369    6.3174475 
 1565000    4.1700355    1.2850086    2.8850269  -0.22347095   0.85676377    1.0166877   0.75724698   -1.2465374            1    1.5764095    2.1838675    2.2134622   0.33189892 -0.0045799558  -0.28156744  0.016643398    1.4165924    1.4426875   0.70734014  0.066666667    1.3383382        1e-08 1.7683504e-09     5.654988    2.4877433    30.403515 -0.0015981348  -0.19153828 -0.0049871178   0.20680933    1.2311209    3.9067886 
 1566000    4.1676253    1.2716657    2.8959596  -0.22897986   0.84786757    1.0165142   0.74291322   -1.2465374            1    1.4985852    2.1290743    2.1264065   0.24027489 -0.020260819 -0.0049198768 -0.024360762    1.3417933     1.364886   0.71262939  0.066666667    1.3378158        1e-08 1.7815735e-09    5.6130157    2.4924284    30.403515 -0.015298774  -0.19924115 0.0080374138    0.2018834   -1.7562221    1.9346565 
 1567000     4.149706    1.2636951    2.8860109  -0.21109889   0.84255327   0.98963199   0.75103919   -1.2465374            1    1.6761789    2.2872359    2.2820297   0.45927128  0.012209698  -0.11998783  -0.03271044     1.517672    1.5460154    0.7092687  0.066666667    1.3507375        1e-08 1.7731717e-09    5.6396116    2.5046896    30.403515  0.007682726  -0.17157165 -0.0054905347   0.19621674  -0.36175334    3.0321668 
 1568000    4.1801674    1.2711846    2.9089828  -0.20937773   0.84754679   0.99859144     0.753562   -1.2465374            1    1.6116405    2.2237476    2.2207479    0.3904262 -0.011374617 -0.021244381  0.017212038    1.4526012    1.4802986   0.70737644  0.066666667    1.3620403        1e-08 1.7684411e-09    5.6546978    2.4992663    30.403515  0.014548314  -0.18228038 -0.00065242353   0.22173942  -0.93880389    1.7345465 
 1569000    4.1650296    1.2658808    2.8991488  -0.21717385   0.84401055   0.99609106    0.7493796   -1.2465374            1    1.5078278     2.133405    2.1655218   0.22455657 -0.0054781637  0.037548928 -0.033363725    1.3496711    1.3768147   0.70864746  0.066666667    1.3585051        1e-08 1.7716186e-09    5.6445556    2.4802762    30.403515 0.0001059317  -0.23604392 0.0039203564   0.13299504   0.82794289   -1.4356949 
 1570000    4.1793014    1.2684658    2.9108356  -0.21441778   0.84573408   0.99895264   0.75039418   -1.2465374            1    1.6205113    2.2264356    2.2256637   0.40943453 -0.0037091691  -0.02473389 -0.010221755    1.4621404    1.4891218    0.7003897  0.066666667    1.3606365        1e-08 1.7509742e-09    5.7111063    2.4819673    30.403515 -0.002539637  -0.21377151 0.0098904441   0.17509988     1.481017    1.0767629 
 1571000    4.1716235    1.2686357    2.9029879  -0.21877413   0.84584733    1.0272371   0.73295105   -1.2465374            1    1.6419287    2.2529844    2.2494211   0.42338063 0.0023743982 -0.048307959 -0.014870929    1.4872393    1.5068191   0.70285361  0.066666667    1.3846146        1e-08 1.757134e-09    5.6910855    2.4908876    30.403515 -0.0064244804  -0.18814035  0.010498387   0.20952265   0.14168367   -1.3323576 
 1572000    4.1899062    1.2839499    2.9059563  -0.22701412   0.85605793    1.0113222   0.75944494   -1.2465374            1    1.6894379    2.3017099    2.2741391   0.49246478 0.0072193922  0.045961351  0.032084326    1.5291569    1.5564215   0.71221311  0.066666667    1.3937075        1e-08 1.7805328e-09    5.6162965    2.4950278    30.403515 -0.018613481  -0.19592556 -0.0081688319   0.19394042   0.72804212    1.4086077 
 1573000    4.1527258    1.2558772    2.8968486  -0.20867372   0.83734078     1.004117   0.73355027   -1.2465374            1     1.571411    2.2015983    2.1859009   0.32673373 -0.0011442445 -0.007885074  0.032064999    1.4165951    1.4393423   0.70588927  0.066666667    1.3944627        1e-08 1.7647232e-09    5.6666112    2.4941835    30.403515 -0.012909592  -0.24834717 -0.0019757915   0.18008232 -0.037361358   0.55668044 
 1574000    4.1825387    1.2662957     2.916243  -0.22339173   0.84428718    1.0016012   0.74639473   -1.2465374            1    1.5982696    2.2219716     2.227423   0.34541417 -0.0038997718  -0.10542211  0.009765227    1.4407429    1.4665318   0.70184418  0.066666667    1.3713413        1e-08 1.7546105e-09    5.6992707    2.4998241    30.403515 0.0012129588  -0.17750167 -0.0058101741   0.18054611   0.59865489    1.6443019 
 1575000    4.1696211    1.2930034    2.8766176  -0.23005342   0.86209424    1.0252592   0.76055856   -1.2465374            1    1.6030305     2.212804    2.2146785   0.38160917 -0.0019097743  -0.15411228 -0.022278425    1.4425145    1.4681811   0.70425355  0.066666667    1.3997469        1e-08 1.7606339e-09    5.6797726     2.500459    30.403515 -0.010972033  -0.21052828 0.0091157687   0.18783541    1.3589658   0.81560481 
 1576000    4.1834484    1.2768114     2.906637  -0.21882087   0.85129838     1.024955   0.74322238   -1.2465374            1    1.6131421    2.2012068    2.2257739   0.41244558 0.0091918813 -0.099843169  0.027335833    1.4562849    1.4783326   0.71014351  0.066666667    1.3844161        1e-08 1.7753588e-09    5.6326643     2.483228    30.403515 0.0029952486  -0.19820197 -0.0012867493   0.20216271   0.81520179   0.64045178 
 1577000    4.1691955    1.2733017    2.8958938   -0.2250338   0.84895836    1.0145311   0.74591989   -1.2465374            1    1.6572489     2.240079    2.2765696   0.45509798 -0.0070262397 -0.050092077  0.057900788    1.4998223    1.5238104   0.70581576  0.066666667    1.3690807        1e-08 1.7645394e-09    5.6672013    2.4762045    30.403515 0.0025569819  -0.16227855 -0.007235556    0.1863304   0.85064408    3.2793722 
 1578000    4.1796853    1.2873064    2.8923789  -0.22635737   0.85829583    1.0144363    0.7611372   -1.2465374            1    1.5915678    2.2181679    2.2325023    0.3240332  0.012596075  0.078381864  0.038605121    1.4309297    1.4581419    0.7020716  0.066666667    1.3742333        1e-08 1.755179e-09    5.6974246    2.4795824    30.403515 -0.012476619  -0.18747808  0.016313597   0.17288942    -0.537281   -1.1571258 
 1579000    4.1548441    1.2605035    2.8943406  -0.21811171    0.8404253    1.0117365   0.73380912   -1.2465374            1    1.5725441    2.2161651    2.1736715   0.32779574 -6.3937436e-06  0.091218802 -0.022517085    1.4176736    1.4394732   0.70435207  0.066666667    1.3930082        1e-08 1.7608802e-09    5.6789781    2.5044674    30.403515  0.011575762  -0.17409328 -0.0084515614   0.20839069   -1.4459854   0.91929808 
 1580000    4.1720136    1.2761173    2.8958962  -0.21292163   0.85083563      1.00966   0.75200307   -1.2465374            1    1.5334647    2.1597846    2.1577154   0.28289408 0.0082894618 -0.0027916075  0.012009533    1.3747543    1.4006669   0.71097355  0.066666667    1.3892354        1e-08 1.7774339e-09    5.6260884    2.4812693    30.403515 -0.0029603854  -0.18353236    0.0101464   0.22172752   0.32529179   -0.4418344 
 1581000    4.1567498    1.2682849    2.8884649  -0.22185916   0.84561346   0.99839297   0.75054717   -1.2465374            1    1.5316567    2.1661834    2.1797978   0.24898883 0.0022145873  0.018822477  0.030058223    1.3732536    1.4003409   0.71241466  0.066666667    1.3955311        1e-08 1.7810366e-09    5.6147076    2.4958082    30.403515 0.0079918773  -0.16575762 -0.00010865334   0.20193455   -2.7968961   -1.6379445 
 1582000    4.1707541    1.2810542    2.8896998  -0.22841632   0.85412726   0.99798888    0.7646201   -1.2465374            1    1.4249133    2.0786799    2.0608576   0.13520239 0.00064371677  0.056600562  0.079382812    1.2635401    1.2936506    0.7028661  0.066666667    1.3937902        1e-08 1.7571653e-09    5.6909844    2.5015583    30.403515 -0.0051872686  -0.18952218 0.0047408947   0.21397515  -0.70440766  -0.33435907 
 1583000    4.1585761    1.2697627    2.8888134  -0.21957915   0.84659873    0.9877995   0.75874851   -1.2465374            1     1.755416    2.3429461    2.3203065    0.6029956 0.0029806331 0.0077032258 -0.036104054     1.595282    1.6254935   0.69950071  0.066666667    1.4185087        1e-08 1.7487518e-09    5.7183645    2.4710638    30.403515 -0.0045759666  -0.20433468 0.0010325966   0.20707144   0.35106968    5.5458077 
 1584000    4.1184189    1.2631622    2.8552567  -0.21653229   0.84219796   0.99723199   0.74572606   -1.2465374            1    1.4507659    2.1229485    2.1274945   0.10185452 0.0005146506  0.015497784  -0.04018244    1.2933802    1.3196027   0.70808801  0.066666667    1.4016462        1e-08  1.77022e-09    5.6490153    2.5068122    30.403515 -0.0059930914  -0.15643227  0.010086302   0.22274922   -1.4696062    2.7235189 
 1585000    4.1620281    1.2716094    2.8904187  -0.22087704   0.84783001   0.99833223   0.75418332   -1.2465374            1    1.6428646     2.226055    2.2718058   0.43073306   0.01735475  0.038742776 -0.027477098    1.4836941    1.5115568   0.71156752  0.066666667    1.4165249        1e-08 1.7789188e-09    5.6213921    2.4979973    30.403515 -0.013589054    -0.213634 0.0040447857   0.19260125  -0.24229636    4.0796502 
 1586000    4.1451422    1.2569404    2.8882017  -0.22838346   0.83804968   0.99477768   0.74052136   -1.2465374            1    1.5644316     2.178513    2.1803924   0.33438929 0.0023061399 -0.027921288  -0.02959376    1.4081444    1.4335913   0.70980914  0.066666667     1.422441        1e-08 1.7745228e-09    5.6353177    2.4879524    30.403515 0.0031230408  -0.16695844 0.00035104757   0.18785939   0.54410579     4.182471 
 1587000    4.1635202      1.29578    2.8677402  -0.21455279   0.86394548   0.99598222   0.78180933   -1.2465374            1    1.6183577     2.229147    2.2470811   0.37884495 0.0056572064  -0.16086888  0.018064571    1.4533567    1.4873589   0.71267433  0.066666667    1.4391335        1e-08 1.7816858e-09    5.6126618    2.4987397    30.403515 -0.0095534354  -0.20079059 -0.0060379847   0.24800316    1.9488203    2.6024092 
 1588000    4.1245223    1.2492071    2.8753152   -0.2210409   0.83289357   0.99337106   0.73302767   -1.2465374            1    1.5848087    2.2082413    2.2030056   0.34317919  0.012394668 -0.046228798 -0.027430927    1.4301031    1.4541534   0.71103182  0.066666667    1.4048474        1e-08 1.7775795e-09    5.6256273    2.4918478    30.403515  0.005916193  -0.20014279 -0.0063575111   0.21767613   0.46733973    1.2730843 
 1589000    4.1597616    1.2610566     2.898705  -0.21289895   0.84079406    1.0079458   0.73677009   -1.2465374            1     1.708136    2.2962429    2.2999005   0.52826476 -0.010146109 -0.049494806  -0.00237035    1.5526406    1.5755638   0.70504898  0.066666667    1.4147027        1e-08 1.7626225e-09    5.6733647    2.4923544    30.403515 0.0029901747  -0.21216534 -0.0070586675   0.18279947   0.70770085     2.534365 
 1590000    4.1650119    1.2663857    2.8986262  -0.20683514   0.84434719    1.0076332   0.74273299   -1.2465374            1    1.5670526     2.204117    2.1778083   0.31923244 -0.0077335482 -0.082312994  0.010085892    1.4102987    1.4345214   0.70229617  0.066666667    1.4111486        1e-08 1.7557404e-09    5.6956028    2.5028898    30.403515  0.010134036   -0.2323866 -0.010785046   0.17607894  0.063647745   -1.0941215 
 1591000    4.1679222    1.2697319    2.8981903  -0.22422187   0.84657823   0.99341112   0.75521807   -1.2465374            1    1.5437561    2.1528208     2.178226   0.30022153 -0.0045767712 -0.056480283 0.0052848522    1.3843672    1.4130956    0.7007711  0.066666667    1.4049481        1e-08 1.7519277e-09    5.7079979    2.4825057    30.403515 0.0021539001  -0.20623065 -0.024549046   0.17182764  -0.63317339   0.85860305 
 1592000    4.1440589    1.2548641    2.8891948  -0.22378894    0.8366653   0.99469779   0.73832379   -1.2465374            1    1.6074584    2.2168945    2.2358599   0.36962085  0.012487148  0.056058274 -0.045431794     1.451635    1.4766286   0.70036009  0.066666667    1.4124666        1e-08 1.7509002e-09    5.7113477    2.4697604    30.403515 -0.0075337825  -0.18425273 -0.0026729299   0.18702709   -1.8538397    1.9047012 
 1593000    4.1640827    1.2758181    2.8882645  -0.21935433   0.85063614    1.0005601   0.75735032   -1.2465374            1    1.6032799    2.2064381    2.2239516   0.37944999  0.015857139  0.046430412 -0.014772007     1.443441     1.471679   0.70392271  0.066666667    1.3925994        1e-08 1.7598068e-09    5.6824421    2.4815472    30.403515 0.0045309611  -0.19097409 0.0034475903   0.18465912  -0.53104596    2.7398395 
 1594000    4.1610774    1.2650748    2.8960027  -0.22665997   0.84347314   0.99366341   0.75002009   -1.2465374            1    1.6788022    2.2685603    2.2679423   0.49990414   -0.0190379 -0.088233703  0.021653129    1.5205104    1.5481085   0.70334252  0.066666667    1.4205465        1e-08 1.7583563e-09    5.6871295    2.4757514    30.403515  0.013973034  -0.21461765 -0.0030578373    0.1988078  0.050665357     0.618366 
 1595000    4.1633474    1.2844411    2.8789063   -0.2126222   0.85638543   0.99906725   0.76761393   -1.2465374            1    1.5069959    2.1497624     2.178758   0.19246742 0.00019456724  0.052894536 -9.0412874e-05    1.3449909    1.3755914   0.70249101  0.066666667    1.4265273        1e-08 1.7562275e-09     5.694023    2.4801876    30.403515  0.016594662  -0.20151605 -0.014862975   0.15924486  -0.11047838   -3.8638119 
 1596000    4.1838008    1.2823312    2.9014695  -0.21114558   0.85497867    1.0111185   0.75781987   -1.2465374            1      1.54027     2.181371    2.1623898   0.27704915 -0.0042005532  0.058559165 -0.030249871     1.380332    1.4072804   0.71414442  0.066666667    1.4262563        1e-08 1.785361e-09     5.601108    2.5215401    30.403515 0.0001993426  -0.21982458  0.012545143   0.21869391  -0.73079813  -0.22736815 
 1597000    4.1640257    1.2714828    2.8925429  -0.21442858   0.84774559    0.9854815   0.76205489   -1.2465374            1    1.6464326    2.2616557    2.2566024   0.42103982 0.0092060587  0.073863403 0.0029599806    1.4856008     1.516815   0.70062754  0.066666667      1.45159        1e-08 1.7515688e-09    5.7091676    2.4917904    30.403515 -0.00061658863  -0.17448387 -0.010142047   0.20901825   -1.8098697    2.5110652 
 1598000    4.1565736    1.2612057    2.8953679  -0.21781109   0.84089347   0.98385529   0.75194478   -1.2465374            1    1.6224363    2.2193028     2.232996   0.41501015 -0.0035607568  -0.02255747 -0.0055363749    1.4637383    1.4930326   0.70299433  0.066666667    1.4157706        1e-08 1.7574858e-09    5.6899463    2.4758051    30.403515 0.0013657057  -0.19891939  0.010479427   0.18131398  -0.65345964    2.4500999 
 1599000    4.1465878    1.2728072    2.8737806  -0.22302691   0.84862866   0.99880213   0.75518699   -1.2465374            1     1.507482    2.1212447    2.1527388   0.24846249 -0.0015323191  0.081194308 -0.059020042    1.3480996    1.3761123   0.71113407  0.066666667    1.4151725        1e-08 1.7778352e-09    5.6248184    2.4836188    30.403515 -3.3418074e-06  -0.16838076  0.002863631   0.21887723   -1.5141185    2.2144909 
 1600000    4.1448484    1.2625083    2.8823402  -0.22974494   0.84176195    1.0045683   0.74044623   -1.2465374            1    1.4472046    2.1183235    2.0947818   0.12850856  0.023891717  -0.15019145  0.075645513    1.2909333    1.3150766   0.70905002  0.066666667    1.4211988        1e-08 1.7726251e-09    5.6413509    2.4788501    30.403515 -0.011523067  -0.22970991 0.0049942513   0.18912933    1.8148112   -1.8332703 
 1601000    4.1776929    1.2723768    2.9053161  -0.22216079   0.84834169   0.97145818   0.77176196   -1.2465374            1    1.5912726    2.2207604    2.2195259   0.33353152 0.0024337848 -0.031649259 -0.0078832958    1.4283921    1.4634995   0.70051524  0.066666667    1.3940307        1e-08 1.7512881e-09    5.7100827    2.5077862    30.403515 -0.0056704404  -0.18616872 0.00097169882   0.16267156    2.0682126    3.5873568 
 1602000    4.1778301    1.2728438    2.9049863  -0.22330905   0.84865306   0.99125024   0.75993295   -1.2465374            1    1.4433434    2.1163468    2.0744773   0.13920625 0.0028985178  0.084152116 -0.018706237    1.2829595    1.3129671   0.70271756  0.066666667    1.3628191        1e-08 1.7567939e-09    5.6921873    2.4916373    30.403515 -0.0044126372  -0.20260096 0.0090574081   0.18403525    1.4935292   0.36301207 
 1603000    4.1476138    1.2757685    2.8718453  -0.22405975   0.85060305    1.0082602   0.75249788   -1.2465374            1    1.5793175    2.1744034     2.210881   0.35266808 -0.010902691   0.10225632  0.029934154    1.4205027    1.4467039   0.71472066  0.066666667    1.3689075        1e-08 1.7868017e-09    5.5965921    2.4869737    30.403515  0.002457151  -0.19119697 -0.00018174258   0.18256137     1.084366   0.77909849 
 1604000    4.1660439    1.2576897    2.9083542   -0.2207077   0.83854923    1.0024233   0.73656755   -1.2465374            1    1.5904076    2.1923259    2.2125484   0.36634855 -0.0035883622  0.017150737  -0.02777384    1.4349549    1.4585617   0.70981035  0.066666667    1.3679205        1e-08 1.7745259e-09    5.6353081    2.4997002    30.403515 -0.017042735  -0.18945695 0.0056830338   0.21988226    1.3347074    3.0375527 
 1605000    4.1605223     1.267417    2.8931053  -0.21944721   0.84503481    1.0066629   0.74445393   -1.2465374            1    1.4727335    2.1219163    2.0884442   0.20784001  0.029722711 -0.040482646  0.056506397    1.3156164      1.34033   0.69854266  0.066666667    1.3784177        1e-08 1.7463567e-09    5.7262072    2.4855943    30.403515  0.003943864  -0.17480106   0.01442101   0.21922261 -0.070158191    3.3353399 
 1606000    4.1870947    1.2789443    2.9081504   -0.2109548   0.85272051   0.99957139    0.7613502   -1.2465374            1    1.5738006     2.178838    2.1865241   0.35603984  0.018295548 -0.038210293 -0.045755774    1.4131175    1.4423298   0.70280309  0.066666667     1.407483        1e-08 1.7570077e-09    5.6914946    2.4888518    30.403515  0.003328804  -0.21701708 0.00061477207   0.20046508   0.89966139    2.5356464 
 1607000    4.1663564     1.266116    2.9002405  -0.21714733   0.84416734    1.0054769   0.74378485   -1.2465374            1    1.6513334    2.2503371     2.255653    0.4480102 -0.0066800014  -0.14978259 -0.053617227    1.4943575    1.5190859   0.70934023  0.066666667    1.4084754        1e-08 1.7733506e-09     5.639043    2.4863546    30.403515 0.0086189448  -0.17249956 -0.0042845514   0.19698343   0.62425374    2.1984462 
 1608000    4.1511093    1.2622342    2.8888751  -0.21567265   0.84157923   0.99595969   0.74551452   -1.2465374            1    1.4918819    2.1416443    2.1374776   0.19652381 -0.010548116  -0.09592601  0.016236369     1.334541    1.3608861   0.71159589  0.066666667    1.4047928        1e-08 1.7789897e-09     5.621168     2.512672    30.403515 -0.0053112821  -0.18296972 0.00039572119    0.1718182   -1.2333878    1.5452457 
 1609000    4.1498551    1.2643221    2.8855329  -0.21599237   0.84297134   0.99942121    0.7456172   -1.2465374            1    1.5417101     2.176832    2.1797892   0.26850903 0.0086824477  -0.12626369  0.026054527    1.3843474     1.410259    0.7039472  0.066666667    1.4137496        1e-08 1.759868e-09    5.6822444    2.4945677    30.403515  -0.01322588  -0.21695101  0.014864719   0.16120343    1.5259965    0.7867096 
 1610000    4.1493464    1.2758559    2.8734905  -0.22056393   0.85066135    1.0083727   0.75252241   -1.2465374            1    1.5383005     2.185186     2.170914   0.25880162 0.0047379108 -0.083004258  0.083829202    1.3794806    1.4056721   0.70952738  0.066666667    1.4003562        1e-08 1.7738184e-09    5.6375555     2.480318    30.403515 0.00068482054  -0.19266088 -0.0014854031   0.16882992     2.760521    1.7540188 
 1611000     4.154087    1.2611963    2.8928907  -0.22104271   0.84088723    1.0002155   0.74173891   -1.2465374            1    1.6435696    2.2439747    2.2563159   0.43041812 -0.0044861612 -0.013770292 0.0006170098    1.4870255    1.5120141   0.71266499  0.066666667    1.3958151        1e-08 1.7816625e-09    5.6127354    2.4977432    30.403515 -0.013052608  -0.17855677 0.00023947624   0.20302684     3.406276    1.0467313 
 1612000    4.1282224    1.2505006    2.8777218  -0.22080591   0.83375599   0.99025783   0.73636788   -1.2465374            1    1.5495369    2.1989565    2.1630976    0.2865567  0.025176063  0.023296161 0.0063319084    1.3941264    1.4192911    0.6994736  0.066666667    1.3959871        1e-08 1.748684e-09    5.7185861    2.4948934    30.403515 -0.0016390585  -0.19038206 -0.0022726884   0.18253859   0.93748927    0.3692641 
 1613000    4.1589928     1.262878    2.8961147  -0.21402641   0.84200849     1.013995   0.73497171   -1.2465374            1    1.4684993    2.1065217    2.1268295   0.17214682 -0.032968283  -0.10448394 -0.038088458    1.3133834    1.3351314   0.69810833  0.066666667    1.3850644        1e-08 1.7452708e-09    5.7297698    2.4798285    30.403515 -0.0033714688  -0.18945751 -0.010699527   0.22195154    1.6443272   0.47012498 
 1614000     4.189603    1.2924356    2.8971674  -0.21802956   0.86171565    1.0066658   0.77153143   -1.2465374            1    1.6772153    2.2812351    2.2662913   0.48411954 0.0097230793 -0.094196759   -0.0158856    1.5143835    1.5448114   0.70993402  0.066666667     1.391612        1e-08 1.7748351e-09    5.6343264    2.4783945    30.403515 -0.0063124158  -0.21449725  0.015387877    0.1822199   0.85820196    1.9867687 
 1615000    4.1571362    1.2589635    2.8981727    -0.208448   0.83939855    1.0041063   0.73689747   -1.2465374            1    1.7387643    2.2972533    2.3367407   0.58229903 -0.006173745 -0.055924787 -0.002644357     1.583242    1.6066971   0.70826604  0.066666667    1.4122386        1e-08 1.7706651e-09    5.6475953    2.4964454    30.403515 0.0036843658  -0.17200995 -0.0059793102   0.19639814  -0.44193148     1.745923 
 1616000    4.1672529    1.2724008    2.8948522  -0.21883329   0.84835765    1.0035884   0.75176419   -1.2465374            1     1.534612    2.1519257    2.1758615   0.27604883 -0.0038041185 -0.026572574 -0.037159072     1.375952    1.4026128   0.70643952  0.066666667     1.393976        1e-08 1.7660988e-09    5.6621974    2.4768227    30.403515 0.0031307029  -0.22245147 -0.010347178   0.19537358  -0.97702767   -1.8830369 
 1617000    4.1651577    1.2742641    2.8908936  -0.21737169   0.84960002    0.9986033   0.75688778   -1.2465374            1    1.6693538     2.258416     2.295776   0.45386934 -0.0010110863 -0.040465668 -0.016273709    1.5096125    1.5380103   0.71125505  0.066666667    1.3768834        1e-08 1.7781376e-09    5.6238617    2.4792293    30.403515 -0.00025580671  -0.17168917  0.001882499   0.21259097   -1.1378323   -4.2277113 
 1618000    4.1537592    1.2824433    2.8713159  -0.22227432   0.85505341    1.0229669   0.75055718   -1.2465374            1    1.6251474    2.2356522    2.2289425   0.41084741 -0.0015430965 -0.097935591 0.0020714212    1.4667422    1.4905994   0.70947269  0.066666667    1.4007555        1e-08 1.7736817e-09    5.6379901    2.5065673    30.403515 -0.0087511587  -0.19587933 -0.0022924226   0.23404097  0.050814871   0.77297989 
 1619000    4.1670649    1.2718652    2.8951997  -0.22276992   0.84800058    1.0172499   0.74267063   -1.2465374            1    1.6184932    2.1962754    2.2551752     0.404029   0.01225628 -0.018983992  0.048542755    1.4617524    1.4846972   0.70182755  0.066666667    1.3763792        1e-08 1.7545689e-09    5.6994058    2.4976997    30.403515 0.00095556592  -0.18838826 -0.003824651   0.18626228  -0.76017767   -1.3653825 
 1620000    4.2087542    1.2972693    2.9114848   -0.2192431   0.86493847    1.0194171    0.7688166   -1.2465374            1     1.642909    2.2374518    2.2233793   0.46789589 -0.011562584 -0.0036235346 -0.077115576    1.4806501    1.5088279    0.7020272  0.066666667    1.3923639        1e-08 1.755068e-09     5.697785    2.4806881    30.403515 0.0011562703   -0.2043794 -0.00057851095   0.20221819   -1.5120973   0.78917503 
 1621000    4.1871807    1.2804223    2.9067584  -0.21811696    0.8537059    1.0154215   0.75307199   -1.2465374            1    1.4834485    2.1495891    2.1043315   0.19642504 -0.0065587032  0.019113603  0.054585939    1.3245126     1.349893    0.7093351  0.066666667    1.3690762        1e-08 1.7733377e-09    5.6390837    2.5017934    30.403515 -0.00082535257   -0.2118155 0.0081337838   0.20100387   0.27862345    1.0423194 
 1622000    4.1708629    1.2588836    2.9119793  -0.21434599   0.83934527    1.0046454   0.73647499   -1.2465374            1    1.6354554    2.2527306    2.2637918   0.38984373 -0.011678107 -0.010150681 -0.011963788    1.4800222    1.5033172   0.70276029  0.066666667    1.3629731        1e-08 1.7569007e-09    5.6918412    2.4796336    30.403515  0.014457938  -0.15581631 0.0046575677   0.19063499 -0.074180346    2.3157163 
 1623000    4.1575372    1.2630244    2.8945128   -0.2148562   0.84210607    1.0048212   0.74084724   -1.2465374            1    1.5980877    2.2396088     2.198223   0.35643145 0.0038004781  -0.02713129  0.005526973    1.4417318    1.4659264   0.69748202  0.066666667    1.3501341        1e-08 1.743705e-09    5.7349149    2.4864335    30.403515 -0.0034473122  -0.14810097 -0.0056325159   0.19776655 -0.007497079    2.2806241 
 1624000    4.1744233    1.2669837    2.9074395  -0.21402026   0.84474593    1.0167659   0.73768879   -1.2465374            1    1.6011281      2.20789    2.2200587   0.37543575 -0.00014632437   0.02035849  0.051754479    1.4454388    1.4673958   0.70328596  0.066666667    1.3631278        1e-08 1.7582149e-09    5.6875869    2.4868903    30.403515 0.0031468062  -0.20429519 -0.0016955024   0.19026518   0.63562958   0.22703593 
 1625000    4.1843314    1.2824766    2.9018549  -0.22376937   0.85507557    1.0119443    0.7574625   -1.2465374            1    1.5068464    2.1315464    2.1362135   0.25277945 0.0031790403  0.047437863  0.060781454    1.3469839    1.3737482   0.71526842  0.066666667    1.3731653        1e-08 1.788171e-09    5.5923062    2.5196335    30.403515 -0.0017657668  -0.19843502 0.0023122422   0.20714848   -2.6231507  -0.91671986 
 1626000    4.1884561    1.2856055    2.9028506  -0.21231752   0.85716176    1.0188633   0.75653722   -1.2465374            1    1.6986788     2.283479    2.2977875   0.51476994  0.011066457  0.056996187 -0.0046522442    1.5390115    1.5646706   0.70593412  0.066666667    1.3876533        1e-08 1.7648353e-09    5.6662512    2.4782365    30.403515 0.0025210295  -0.17333591 -0.0068206755   0.22522606   -1.1101699    2.7532162 
 1627000    4.1782156    1.2774047    2.9008109   -0.2272469   0.85169394   0.99844517   0.76038555   -1.2465374            1    1.5807276    2.1736378    2.1877759    0.3807693 0.0013436429  0.014201692 0.0056267987    1.4202481    1.4494049   0.69782081  0.066666667    1.3788502        1e-08 1.744552e-09    5.7321306    2.4802975    30.403515 -0.012644323  -0.23212209 -0.0017425406   0.17549845   0.21427176    1.9668709 
 1628000    4.1694448    1.2706565    2.8987882  -0.21022377   0.84719472     1.015329   0.74255955   -1.2465374            1    1.6380194    2.2381933    2.2477266    0.4281384  0.018179033  0.035483626 -0.015231612    1.4813021     1.504476   0.70105191  0.066666667    1.4064483        1e-08 1.7526298e-09    5.7057116    2.4811526    30.403515 -0.0069690105  -0.21560736  0.015529676   0.21355254   -1.5255955    1.9700618 
 1629000    4.1876827    1.2832366    2.9044462  -0.21769217   0.85558229    1.0210314   0.75262197   -1.2465374            1    1.5746086    2.2003561    2.1943813   0.32908837  0.009902258 0.0051524868  0.033630162    1.4157676    1.4403152   0.70769678  0.066666667    1.4139916        1e-08 1.7692419e-09    5.6521382    2.5221024    30.403515 0.0083906928  -0.18670759 -0.0043789752   0.17237677  -0.54647604     1.951313 
 1630000    4.1741477    1.2768113    2.8973364  -0.21218142   0.85129836    1.0196287   0.74654169   -1.2465374            1    1.7519451    2.3339498    2.3355173    0.5863682 -0.0084424779   0.10169516   -0.0132688    1.5943874    1.6178362   0.69991062  0.066666667    1.4080104        1e-08 1.7497766e-09    5.7150154    2.4947777    30.403515  0.014682811  -0.19677698 0.00035734274   0.17434292   -2.6468247    6.2543114 
 1631000       4.1937     1.281125     2.912575  -0.22056448   0.85417447      1.01606   0.75343477   -1.2465374            1     1.243324    1.9291551    1.9530886  -0.15227158 0.0031178581  0.045946156  0.033249462    1.0843115    1.1096845   0.70437829  0.066666667    1.3967676        1e-08 1.7609457e-09    5.6787668    2.4940115    30.403515 0.0085798135  -0.18994504  0.010387795   0.17040691   -1.8239064   0.68622513 
 1632000    4.1602747    1.2712617     2.889013  -0.21988212    0.8475982    1.0030328    0.7508776   -1.2465374            1    1.6419111     2.249918    2.2501872   0.42562815 -0.013098852 -0.041352636 -0.048961905    1.4834383     1.509985   0.70283479  0.066666667    1.3956033        1e-08 1.757087e-09    5.6912379    2.4910932    30.403515 0.0016925751   -0.2260061 -0.0057948597   0.17094973    1.0589615   -0.9435312 
 1633000    4.1818478    1.3036542    2.8781936  -0.21063392    0.8691955    1.0271718   0.77089463   -1.2465374            1    1.6033419    2.2524531    2.2058127   0.35176003 -0.0082130703  0.020743021 -0.012371181    1.4406445    1.4682409   0.70377224  0.066666667    1.3991767        1e-08 1.7594306e-09     5.683657    2.4815938    30.403515  0.014020617    -0.197029  0.010530887   0.19331018  -0.69520243    2.4966552 
 1634000    4.1589728    1.2680466    2.8909262  -0.21578692    0.8454546    1.0017534   0.74819503   -1.2465374            1    1.7827318    2.3413764     2.341976   0.66484289 -0.0056530323  0.088357917 0.0071621335    1.6248251     1.650974   0.70279199  0.066666667     1.414033        1e-08  1.75698e-09    5.6915845    2.4979589    30.403515 0.0055964387  -0.19581004 0.0027094178   0.20368224   0.10558206    2.3839869 
 1635000    4.1883598    1.2901462    2.8982136  -0.21088318   0.86018923    1.0044778   0.77041705   -1.2465374            1    1.6449869    2.2473986    2.2716461   0.41591603  0.022494236   0.11114365 -0.028035281    1.4823902    1.5128707   0.70081559  0.066666667    1.4013382        1e-08 1.752039e-09    5.7076356    2.4864908    30.403515 -0.0030208183  -0.22259002 0.0047436097    0.1790972  0.012081743   0.82705278 
 1636000    4.1615876    1.2778493    2.8837383  -0.22672568   0.85199042    1.0154458   0.75027203   -1.2465374            1    1.6643279    2.2462129    2.2682108   0.47855997 -0.003361291   0.17176038  0.027935472    1.5059829    1.5307692    0.7083219  0.066666667    1.3881726        1e-08 1.7708048e-09    5.6471499    2.5198992    30.403515 0.0034460356  -0.19087966 -0.0094631257   0.20211678   -1.5022938    1.4302813 
 1637000     4.185541    1.2815645    2.9039766  -0.21122895   0.85446745    1.0118591   0.75652842   -1.2465374            1    1.4353339     2.093373    2.1020324   0.11059621 -0.0041752775   0.08302496 -0.014091413    1.2756684    1.3022469   0.71274949  0.066666667    1.3932481        1e-08 1.7818737e-09      5.61207     2.515663    30.403515 -0.015232812  -0.22571175  0.020159899   0.16794597    1.8805661    -4.174514 
 1638000    4.1593937    1.2599126    2.8994811   -0.2187244   0.84003134   0.99175619   0.74562135   -1.2465374            1    1.5746523     2.194483    2.2040538   0.32542002 0.0066449485  0.032028194 0.00065100854    1.4172888    1.4442094   0.70420859  0.066666667    1.3877164        1e-08 1.7605215e-09    5.6801352    2.4983299    30.403515  -0.01115887  -0.21758045 0.00090716137    0.2236329   0.95460992    2.6311205 
 1639000    4.1497151    1.2661264    2.8835888  -0.21611646   0.84417428    1.0123319   0.73952406   -1.2465374            1    1.5306808    2.1637007    2.1568906   0.27145101 0.0078423985 -0.064426169 -0.025904856    1.3746041    1.3975316   0.70226264  0.066666667    1.3814765        1e-08 1.7556566e-09    5.6958747    2.4934588    30.403515 -0.0066733807  -0.20209082 -0.0090215651   0.19115201    1.7078177    1.2953632 
 1640000    4.1852231    1.2773364    2.9078867  -0.21412407    0.8516484    1.0184159   0.74786582   -1.2465374            1    1.5655493    2.1917226    2.1771647    0.3277604 -0.013348215 -0.096666942 -0.031439771    1.4077121    1.4315999   0.71223028  0.066666667    1.3984172        1e-08 1.7805757e-09    5.6161611    2.5053832    30.403515 0.00088630868  -0.17895229  0.012237847   0.24566349    0.6140721   0.90868649 
 1641000    4.1857952    1.2669356    2.9188596  -0.21601918   0.84471385    1.0112186   0.74109376   -1.2465374            1       1.6533    2.2572042      2.25555   0.44714594  0.010234688 -0.047305707 -0.029057976    1.4968921    1.5202973   0.71589991  0.066666667    1.4107907        1e-08 1.7897498e-09    5.5873732    2.4998818    30.403515 0.0050532236  -0.17759446  -0.00791085   0.18931505 -0.073907219    1.5038046 
 1642000    4.1531209    1.2603284    2.8927925  -0.22545838   0.84030859    1.0051514   0.73772349   -1.2465374            1    1.6135385     2.244232    2.2238172    0.3725664  0.014181993   -0.1840437 0.0024965738    1.4578419    1.4813338   0.70577166  0.066666667    1.3983595        1e-08 1.7644291e-09    5.6675554    2.4859003    30.403515 -0.0097762591  -0.18441885 -0.003658353   0.18575912    2.0496823   0.27253928 
 1643000    4.1624097    1.2620671    2.9003426  -0.21606737   0.84146781   0.98397094   0.75280508   -1.2465374            1    1.6256074    2.2220118    2.2772155   0.37759475 -0.0069499428 -0.016400484  0.028159269    1.4667277    1.4961884   0.69841408  0.066666667    1.3799279        1e-08 1.7460352e-09    5.7272614    2.4629066    30.403515 -0.010433333  -0.16145521 0.0010551256   0.17241521     -1.39441   -1.0796355 
 1644000    4.1872703    1.2789927    2.9082775  -0.22991642   0.85275276   0.99545515   0.76396781   -1.2465374            1    1.7180261    2.2955505    2.3192219   0.53930576 0.0048896822  0.013472381  0.016448805    1.5567905    1.5870966   0.70464373  0.066666667    1.4075616        1e-08 1.7616093e-09    5.6766275    2.4852596    30.403515 -0.0081508472  -0.20189405 -0.0055123848   0.15425111  -0.82654638    4.0910214 
 1645000    4.1815796    1.2848404    2.8967392  -0.21733643   0.85665162    1.0062608   0.76356302   -1.2465374            1     1.431076    2.0963346    2.0802688   0.11662461 -0.0025638244  0.054951433 0.0021299186    1.2699259    1.2987254   0.71379729  0.066666667    1.3910836        1e-08 1.7844932e-09    5.6038318    2.5028453    30.403515 0.0011257752  -0.18402322 0.0030894057   0.21035825   -1.2577704   -2.2801215 
 1646000    4.1831058    1.2722867    2.9108191  -0.20737693    0.8482816      1.00905   0.74823705   -1.2465374            1    1.6046413    2.2244555    2.2291446   0.36032369 -0.014388641     0.140091 -0.044906891    1.4467257    1.4719238   0.71288559  0.066666667    1.3860765        1e-08 1.782214e-09    5.6109985    2.4943565    30.403515 0.0063516658  -0.18205926 0.0057011634   0.19600722   -2.5626521    3.0000542 
 1647000     4.168602    1.2608287    2.9077733  -0.21349681    0.8406421   0.98804895   0.74892321   -1.2465374            1    1.5908312    2.1940007    2.2198169   0.35867584 0.0038753785   0.17098592  0.017897186    1.4327708    1.4608759   0.70610067  0.066666667    1.3991667        1e-08 1.7652517e-09    5.6649146     2.485556    30.403515 0.0019185954  -0.17958427 -5.9836208e-05   0.21321122   -1.5853533    2.5322015 
 1648000    4.1616884    1.2685807    2.8931076  -0.21173554    0.8458107    1.0022689   0.74845185   -1.2465374            1    1.6341892    2.2498393    2.2350703   0.41765788 -0.012757454  0.082540605  0.017516539    1.4762283    1.5023635   0.70195515  0.066666667    1.3786985        1e-08 1.7548879e-09    5.6983698    2.5096116    30.403515 -0.012688467  -0.18883823 -0.0030427238   0.19479534   0.34611142    3.9481133 
 1649000    4.1613709    1.2599785    2.9013925   -0.2225754   0.84007526   0.98909373    0.7473519   -1.2465374            1    1.5956788     2.205758    2.1990893   0.38218906 0.0013499795  0.028922564  0.060065588    1.4379501    1.4655861   0.70565428  0.066666667    1.3719433        1e-08 1.7641357e-09    5.6684982    2.4874445    30.403515 0.0018191594    -0.223882 -0.011023296   0.16029175  0.074156265   0.58077734 
 1650000    4.1654343    1.2654227    2.9000115  -0.21984818   0.84370514    1.0068067   0.74220579   -1.2465374            1    1.4998246    2.1395857      2.10982   0.25006821 -0.014917689  0.078105942  0.031673995     1.343182    1.3674022   0.70051585  0.066666667    1.3844335        1e-08 1.7512896e-09    5.7100778    2.4825167    30.403515 -0.0014965544   -0.1825961 -0.0064948544   0.20432748   0.33667777   0.53725022 
 1651000    4.1852521    1.2874357    2.8978164  -0.21846909   0.85838203    1.0222456   0.75641033   -1.2465374            1     1.571714     2.194653    2.1982244   0.32226454   0.02737375  0.020753121 -0.016022838    1.4120735    1.4372609   0.70643592  0.066666667    1.3755687        1e-08 1.7660898e-09    5.6622262    2.4875806    30.403515 0.0072929143  -0.18261996 0.00034930573    0.2105674   -1.0437619    1.8657789 
 1652000    4.1709021    1.2857646    2.8851375  -0.21640694   0.85726782    1.0294261    0.7501266   -1.2465374            1     1.588733    2.2170865    2.1906756   0.35843686 0.0048993974  0.029483676 -0.023422313    1.4304187    1.4533355   0.70722636  0.066666667    1.3802162        1e-08 1.7680659e-09    5.6558978    2.4903869    30.403515 0.0067952589  -0.19662014  -0.00127902   0.18884866   -2.4240105    1.4517093 
 1653000    4.1925469    1.2946863    2.8978606  -0.21945549   0.86321626    1.0115825   0.77090339   -1.2465374            1    1.4646843    2.1259634    2.1344046   0.13368478  0.017594355 -0.014455528   0.02849278     1.301985    1.3316337   0.70203741  0.066666667    1.3697803        1e-08 1.7550935e-09    5.6977021    2.4852201    30.403515 0.0043473524  -0.19636415 -0.0017043005   0.15193249   -1.3916025  -0.25145612 
 1654000    4.1964946    1.2670255    2.9294691  -0.21304796   0.84477376    1.0017734    0.7470773   -1.2465374            1    1.5628737    2.1882966    2.1729699   0.32735465 -0.015561069  0.043800888   0.02991778    1.4052029    1.4311133   0.69907257  0.066666667    1.3849656        1e-08 1.7476814e-09    5.7218666    2.4922718    30.403515 0.0034857659  -0.19399815 6.5217593e-05    0.2166744  -0.61827041 -0.034168721 
 1655000    4.1791321    1.2792669    2.8998652  -0.21566499    0.8529356    1.0104969   0.75489053   -1.2465374            1    1.5765164    2.2106412     2.195291   0.32361704  0.017146391  0.011427449 -0.0041733533    1.4171966    1.4436086   0.70997743  0.066666667    1.3694369        1e-08 1.7749436e-09    5.6339819    2.5262269    30.403515 0.0067634809  -0.19540051 0.0046957711   0.17716867  -0.42021573     1.387571 
 1656000    4.1661902    1.2603071     2.905883  -0.21216429   0.84029438    1.0241861   0.72583791   -1.2465374            1    1.5374959    2.1816537     2.163176   0.26765786 -0.00034700486  0.070883268  0.061787077    1.3843076    1.4027875   0.70599482  0.066666667    1.3740665        1e-08 1.764987e-09     5.665764    2.4870059    30.403515  0.010657126  -0.18209588 -0.00038539561   0.16132339   -0.9534041  -0.78829815 
 1657000    4.1853191    1.2771444    2.9081746  -0.21064907   0.85152045    1.0138124   0.75052701   -1.2465374            1    1.4530554      2.08396    2.1282494   0.14695686 0.0067418543  0.021610568   0.01747396    1.2946566    1.3197115   0.70126022  0.066666667    1.3832944        1e-08 1.7531505e-09    5.7040167    2.5037764    30.403515  0.002280956  -0.17473748 -0.0097623591   0.18631868  -0.11586473   0.11012785 
 1658000     4.189622     1.271373    2.9182491   -0.2189166   0.84767239    1.0059834   0.74915918   -1.2465374            1    1.6757006    2.2567994    2.2634708   0.50683156 0.0015620057 0.0077054371 0.0012097103    1.5175904    1.5433864   0.70437683  0.066666667    1.3996621        1e-08 1.7609421e-09    5.6787785    2.4875205    30.403515  0.018555065  -0.18067452 -0.002595905    0.1714961  -0.80890761    4.6468571 
 1659000    4.1695045    1.2524912    2.9170133  -0.22512318   0.83508322   0.99422151   0.73605228   -1.2465374            1    1.4697331    2.1313028     2.104269   0.17362756 -0.0053773661 -0.061239966 -0.025048389    1.3143892     1.338966   0.71240369  0.066666667    1.4043919        1e-08 1.7810092e-09     5.614794    2.4874718    30.403515 -0.00021320214   -0.1682871 0.0062602398   0.20632553    -1.594532   -2.3429217 
 1660000    4.1906661    1.2828659    2.9078002  -0.21431423   0.85533515     1.007994   0.76034574   -1.2465374            1    1.6171474    2.2315269    2.2326021   0.38731325 -0.0071841971 -0.039707298  0.015910112    1.4566763    1.4845688   0.70073846  0.066666667    1.3922929        1e-08 1.7518462e-09    5.7082638    2.4789327    30.403515 -0.0083587298  -0.18448973  0.001401872   0.17581406   0.22672046    1.8447088 
 1661000    4.1845043    1.2861894    2.8983149  -0.22238901   0.85755107    1.0205451   0.75612114   -1.2465374            1    1.5386729    2.1566104     2.176906   0.28250224  0.015637133 -0.043719657  0.092936902    1.3790934    1.4044435   0.69761864  0.066666667    1.4019545        1e-08 1.7440466e-09    5.7337917    2.4962877    30.403515 0.0069438886  -0.18625848 -0.013358026     0.189612  -0.43944746     1.307145 
 1662000    4.1844511     1.271974     2.912477  -0.21488146   0.84807315    1.0007485   0.75307219   -1.2465374            1    1.6603694    2.2875754    2.2500294   0.44350324  0.016358827  -0.09391316  0.054417055    1.5014334    1.5287437   0.70472314  0.066666667     1.390604        1e-08 1.7618079e-09    5.6759879    2.4782642    30.403515 -0.0095738891  -0.19762919 0.00093108343   0.16248798    -1.072924   0.25488091 
 1663000    4.1568154      1.25669    2.9001254  -0.21803774    0.8378827    1.0196607   0.72474314   -1.2465374            1     1.573535    2.1906433     2.213933   0.31602871 0.0022635119 -0.097842612  -0.05777452    1.4205778    1.4394219   0.70625307  0.066666667    1.3861301        1e-08 1.7656327e-09    5.6636922    2.4880518    30.403515 0.0024271526  -0.20322969 0.0039924235   0.19262359  -0.60542167   -0.5300344 
 1664000    4.1931777    1.2703414    2.9228363  -0.21089155   0.84698462     1.013332   0.74346303   -1.2465374            1    1.5487906    2.1655173     2.180104   0.30075039 0.0097850713 -0.015356187 -0.071562312    1.3918826    1.4155098   0.69475591  0.066666667    1.3926447        1e-08 1.7368898e-09    5.7574177    2.4964718    30.403515 -0.0038543786  -0.19855843  0.010555587   0.17608262  -0.87536908  -0.63761919 
 1665000    4.1760896    1.2778962    2.8981934  -0.20879898   0.85202166    1.0297076    0.7414347   -1.2465374            1    1.5124496    2.1566396    2.1428036   0.23790574 -0.0070880909  0.064097584 -0.040362908    1.3559697    1.3770151   0.69299921  0.066666667    1.4085058        1e-08 1.732498e-09    5.7720123     2.503595    30.403515  0.013195932  -0.17023125 0.0050682266   0.16935502   -2.1481463    2.6245226 
 1666000    4.1649545    1.2626277    2.9023269  -0.20063957   0.84184157    1.0140082   0.73469249   -1.2465374            1    1.6846355    2.2900951    2.2828908    0.4809205  0.011860331 -0.020027173  -0.03986761    1.5295785    1.5512658   0.69786533  0.066666667    1.3982676        1e-08 1.7446633e-09    5.7317649    2.4878394    30.403515 -0.00075566603  -0.19002698  0.010382299   0.19792605     1.650883     3.233969 
 1667000    4.1780836    1.2648388    2.9132448  -0.21753201   0.84331581    1.0156176   0.73608279   -1.2465374            1    1.5358689    2.1721406    2.1521592    0.2833069 0.0027725145   0.07467313  -0.01314635    1.3805185    1.4022876   0.70466955  0.066666667    1.4158727        1e-08 1.7616739e-09    5.6764195    2.5044471    30.403515 -0.0034349877  -0.23494303 0.0081917517   0.20409917   0.23172245    2.2154284 
 1668000    4.2109698    1.2755348    2.9354349  -0.21623078   0.85044726    1.0001012   0.75732966   -1.2465374            1    1.5140256    2.1107524    2.1502406   0.28108372 0.0009897528   0.12173572   0.04634035     1.354191    1.3824851   0.69988098  0.066666667    1.4124613        1e-08 1.7497024e-09    5.7152575    2.4962284    30.403515 0.0092159884  -0.19348704 -0.0030672656   0.19862012   -1.0837537  -0.13407769 
 1669000    4.2191084    1.2941649    2.9249435    -0.215843   0.86286864    1.0435164   0.75043772   -1.2465374            1    1.5231039     2.145325    2.1540073   0.26997931 -0.0041071244   0.14590067 -0.046340053    1.3647239    1.3858531   0.70017155  0.066666667    1.4035719        1e-08 1.7504289e-09    5.7128856    2.5070682    30.403515 0.0013539364  -0.18087677 -0.0054120308   0.19381985   0.34011413    1.4620266 
 1670000    4.2005073    1.3068467    2.8936606  -0.21455893   0.87132408     1.028433   0.77356411   -1.2465374            1     1.736426    2.3251427    2.3396631   0.54447227 -0.00063030518   0.22084821  0.039507551    1.5731652    1.6011591   0.70295634  0.066666667    1.4300182        1e-08 1.7573908e-09    5.6902538    2.4734893    30.403515 0.00040326213  -0.14202659 -0.0059440524    0.2167756   -1.0713434    3.7041437 
 1671000     4.217447     1.283157    2.9342899  -0.20556119   0.85552927    1.0083128    0.7604622   -1.2465374            1    1.5685827    2.1989263    2.1834693   0.32335256  0.016509786   0.12329428  0.054827988    1.4080871    1.4359622   0.70092715  0.066666667    1.4217571        1e-08 1.7523179e-09    5.7067272    2.4799688    30.403515 -0.00048631434  -0.19695642 -0.0098691916   0.20681206    1.5330509   -1.1498798 
 1672000    4.2061245    1.2943624    2.9117622  -0.20515468   0.86300029    1.0346512   0.75617627   -1.2465374            1    1.6299566    2.2743369    2.2152706   0.40026235   0.01224126 -0.034934994 -0.025521972    1.4703655    1.4938718    0.7005864  0.066666667    1.4115323        1e-08 1.751466e-09    5.7095028    2.5092347    30.403515  0.016798933  -0.17351914 0.0020612452   0.20985814   0.65207755   0.11415227 
 1673000    4.2010283    1.2864115    2.9146168  -0.22325618   0.85769916    1.0256101   0.75320502   -1.2465374            1    1.5947131    2.1868801    2.2076072   0.38965208 0.0050927453   0.04717633  0.037924816    1.4357491    1.4598175   0.69550085  0.066666667    1.4061314        1e-08 1.7387521e-09    5.7512511    2.4789513    30.403515 -0.0016175899  -0.16255204  0.020747123    0.2250555  -0.85380385    0.1426245 
 1674000    4.1966434    1.2861342    2.9105092  -0.21767322   0.85751425    1.0306559   0.74976027   -1.2465374            1    1.6807409    2.2499818    2.2780899    0.5141511  0.008376014    0.1778391 -0.037313848    1.5225039    1.5451816   0.69626056  0.066666667    1.4207972        1e-08 1.7406514e-09    5.7449757    2.5001589    30.403515 0.00060504131  -0.20093748  0.012643115    0.2372074   -0.9998166   0.67589761 
 1675000    4.2077243    1.2796081    2.9281162  -0.21724755   0.85316309    1.0265169   0.74527614   -1.2465374            1    1.6042761    2.2056692    2.2110789   0.39608013 -0.0053466175  0.044952004  0.034645233    1.4469854    1.4692612   0.69701887  0.066666667    1.4309348        1e-08 1.7425472e-09    5.7387256    2.4890852    30.403515 0.0032826252  -0.20947153 -0.0018944329   0.18867527   -1.5787317    3.4323727 
 1676000    4.1692605     1.274255    2.8950055  -0.21923771   0.84959395    1.0369509   0.73297957   -1.2465374            1    1.6408557    2.2484713    2.2494947    0.4246012 -0.0059603528  0.036323821  0.059126102    1.4861603    1.5044685   0.69697703  0.066666667    1.4098621        1e-08 1.7424426e-09      5.73907    2.4871742    30.403515 -0.0023153656  -0.15882992 0.0026952504   0.19050429   -1.1513095    1.7084796 
 1677000    4.1926003    1.2961423    2.8964581  -0.21678182     0.864187    1.0377467   0.75617365   -1.2465374            1    1.5099854    2.1429785    2.1536107   0.23336686 0.00066681719  0.011627766 -0.021693781    1.3503948    1.3734934   0.69666531  0.066666667    1.3957493        1e-08 1.7416633e-09     5.741638     2.479223    30.403515 -0.011382909  -0.19579918 -0.0098876793   0.19994267   0.23087615  -0.89753449 
 1678000    4.2045984    1.2875717    2.9170267  -0.21279319   0.85847271    1.0377108   0.74691957   -1.2465374            1    1.6172995    2.2268471    2.1989483   0.42610292  0.025881244 -0.022289084   0.01925052     1.459662    1.4808123   0.69880454  0.066666667    1.4000345        1e-08 1.7470114e-09    5.7240612    2.5065588    30.403515  0.002867367  -0.20533983 -0.0065305149   0.22820512   0.25952388    2.8977749 
 1679000    4.1801413      1.28234    2.8978012  -0.21579742   0.85498454     1.040064   0.73979041   -1.2465374            1    1.6624235    2.2964144    2.2479151   0.44294097  -0.01444974 -0.048096885 0.0095993651    1.5062906    1.5256268   0.70280831  0.066666667    1.4135388        1e-08 1.7570208e-09    5.6914524    2.4938325    30.403515  0.014362244  -0.21843355 0.0017194269   0.17209078   0.61258177    2.3957149 
 1680000    4.2217959    1.2963731    2.9254229  -0.21157588   0.86434091    1.0490045   0.74940758   -1.2465374            1    1.5113989    2.1573869    2.1439429   0.23286695 0.0067254741 -0.083818414  0.024771797    1.3532363    1.3734263   0.70715771  0.066666667    1.3980682        1e-08 1.7678943e-09    5.6564469    2.4907426    30.403515 -0.018294058  -0.19067773  0.014389914   0.19030276   0.40573186    2.6993972 
 1681000    4.1665626    1.2583202    2.9082424  -0.21223239   0.83896959    1.0063255   0.73481806   -1.2465374            1    1.7105383    2.3061073    2.2961609   0.52934657 -0.022322884  -0.06740452  -0.05539882    1.5554548    1.5781791   0.70181898  0.066666667    1.3889974        1e-08 1.7545474e-09    5.6994754     2.503932    30.403515 -0.008730009  -0.16977041 -0.0070222979   0.19674698  -0.27924211    1.4276187 
 1682000    4.1787379    1.2857916    2.8929462  -0.21843381   0.85728587    1.0334001   0.74767933   -1.2465374            1    1.5225047    2.1523914    2.1549349   0.26018768 -0.0029746127 -0.064458347  0.019003066    1.3647068    1.3865845   0.69695996  0.066666667    1.4188806        1e-08 1.7423999e-09    5.7392106    2.4942903    30.403515 -0.00051548834  -0.17437945  0.019390222   0.19913479  0.011338419    2.3345282 
 1683000    4.1850022    1.2961327    2.8888695  -0.21727938   0.86418064    1.0388914   0.75544992   -1.2465374            1    1.5446833    2.1677922    2.1719578       0.2943 -0.014383375  0.094275388 -0.031863302    1.3852455    1.4080409   0.69247241  0.066666667    1.4083555        1e-08 1.731181e-09    5.7764034    2.4916642    30.403515 -0.001359678  -0.18198429 -0.0015337134   0.21586454  -0.71340073  -0.20504544 
 1684000    4.1883661    1.2787915    2.9095746  -0.21684461   0.85261861    1.0172488   0.75016815   -1.2465374            1    1.5684698    2.2073588    2.1771544   0.32089636  0.014704752  0.057341676 -0.013990132    1.4101467     1.434674   0.70133767  0.066666667    1.3949073        1e-08 1.7533442e-09    5.7033868    2.4927955    30.403515 -0.0040910944  -0.16500104 -0.0055323905   0.20889022  0.020757626    2.2180208 
 1685000    4.1706071    1.2606098    2.9099973  -0.22010306   0.84049619    1.0136781   0.73271418   -1.2465374            1    1.4765368     2.101002    2.1158212   0.21278715 0.0014006136 0.0096692173  0.025995611    1.3218974    1.3432106   0.70651244  0.066666667    1.4008692        1e-08 1.7662811e-09    5.6616129    2.5072317    30.403515 -0.0062121984  -0.18240399 0.0077331419   0.17790023   0.55043447   -1.1872172 
 1686000    4.1921823    1.2822895    2.9098928  -0.20840305   0.85495082     1.011238   0.75770013   -1.2465374            1     1.658313    2.2414995    2.2695479   0.46389158  0.010095927  0.074212407 -0.0087500885    1.4984002    1.5253077   0.70549974  0.066666667    1.3994335        1e-08 1.7637493e-09    5.6697399    2.5309597    30.403515  0.015911509  -0.20867028 -0.0096099081   0.20009474  -0.31915086    1.0598007 
 1687000    4.1385818    1.2690714    2.8695104  -0.22195091   0.84613787    1.0180666   0.73913777   -1.2465374            1    1.4467114    2.1154147     2.103354   0.12136558 -0.00079001361  -0.12662021  0.018967749    1.2907163     1.312808   0.70581797  0.066666667     1.377422        1e-08 1.7645449e-09    5.6671836    2.4985071    30.403515 -0.0004894643   -0.1528639 -0.00049374879   0.18743492    1.8396739    1.5010381 
 1688000     4.158827    1.2753833    2.8834436  -0.22436195   0.85034626    1.0167782   0.74677253   -1.2465374            1    1.6412476    2.2734162    2.2277647   0.42256199  -0.02770225 -0.098522466   0.10488498    1.4836411    1.5075136   0.71008172  0.066666667    1.3836841        1e-08 1.7752043e-09    5.6331544    2.4899129    30.403515 0.0053200768  -0.19198637 -0.0058468284   0.19266703    1.2017543   0.86154871 
 1689000    4.1635299    1.2584025    2.9051274  -0.20652916    0.8390245   0.99298264   0.74322255   -1.2465374            1    1.6966607    2.2931301    2.2702602   0.52659167 -0.012062088 -0.013440285  0.043310413    1.5398034    1.5660564   0.70975188  0.066666667    1.3908408        1e-08 1.7743797e-09    5.6357723    2.4939524    30.403515 -8.6133624e-05  -0.20879711 0.00086887919   0.19593095  -0.61750385    3.7705133 
 1690000     4.175069    1.2755294    2.8995397  -0.21831362   0.85044364    1.0065062   0.75333214   -1.2465374            1    1.5633752    2.1861432    2.1808015   0.32318096   0.01837934 -0.017857257  0.031873388    1.4043843    1.4309923   0.70144381  0.066666667    1.3877561        1e-08 1.7536095e-09    5.7025238    2.4916484    30.403515 0.0045447622  -0.19283875 -0.0011215066   0.19572179   0.66718611   -0.1513421 
 1691000     4.152178    1.2682744    2.8839036  -0.21751428   0.84560645    1.0033675   0.74743566   -1.2465374            1     1.592367     2.215038    2.2042534   0.35780963  0.020485908  0.049277951   0.04161923    1.4346206    1.4603969   0.70755131  0.066666667     1.378759        1e-08 1.7688783e-09    5.6533003    2.5065839    30.403515 -0.00052448536  -0.18631573 -0.00025438246   0.18145985  -0.49806029   -2.9679014 
 1692000    4.1765831    1.2721682    2.9044149  -0.21988725   0.84820259    1.0027108   0.75205944   -1.2465374            1    1.5291746    2.1569681    2.1644696   0.26608599  0.010954395   0.23071259  0.049181969    1.3704523    1.3972908   0.71041227  0.066666667    1.3941761        1e-08 1.7760307e-09    5.6305333    2.5039188    30.403515  0.010623945  -0.18479266 -0.0012169806   0.17883327  -0.82720383   0.31358404 
 1693000    4.1664893    1.2794711    2.8870182  -0.22073018    0.8530717   0.99365604   0.76560678   -1.2465374            1    1.5487974    2.1721413    2.1764346   0.29781631 -0.010356686   0.21850399 -0.019846236     1.387216    1.4181046    0.6980503  0.066666667    1.3811756        1e-08 1.7451258e-09    5.7302461    2.4779718    30.403515 -0.0016883899  -0.18393108 -0.0014652887   0.18724984   -2.6059135   0.65968318 
 1694000    4.1722419    1.2721268    2.9001151  -0.21424185     0.848175    1.0056494    0.7501833   -1.2465374            1    1.7681929    2.3439057    2.3220556   0.63861748 -0.013948155  0.042282195 0.0044008251    1.6098666    1.6359227   0.70844949  0.066666667    1.3801757        1e-08 1.7711237e-09     5.646133    2.5049418    30.403515 -0.016202339  -0.19761352 -0.0059349077   0.19999313  -0.72932264    3.1251924 
 1695000    4.1613467    1.2786722    2.8826745  -0.21787005   0.85253903    1.0034582   0.75863332   -1.2465374            1    1.3439582    2.0309815    2.0067586 -0.0058654951  0.020955414 -0.070045759  0.018665393    1.1838485    1.2119762   0.70922649  0.066666667    1.3728569        1e-08 1.7730662e-09    5.6399473    2.4925899    30.403515 -0.00054309757  -0.21587976 -0.002311523   0.21621554   0.24139638   -2.6569104 
 1696000    4.1481222    1.2573594    2.8907628  -0.21283518   0.83832905   0.98085785   0.74964977   -1.2465374            1    1.6179049    2.2375856    2.2313119   0.38481713   0.00334089 -0.040389127  0.032926738    1.4596912    1.4888954   0.70178154  0.066666667    1.3613777        1e-08 1.7544539e-09    5.6997794    2.4836565    30.403515 0.00090238739   -0.1766477 -0.0068910392   0.16171151  -0.71821252    1.0178467 
 1697000    4.1611792    1.2696304    2.8915489  -0.22469366   0.84651052   0.99164748   0.75620725   -1.2465374            1    1.5517125    2.1634639    2.1705962   0.32107746 -0.0067961821  -0.10385062 -0.0056303903    1.3921149    1.4212839   0.70392195  0.066666667     1.359251        1e-08 1.7598049e-09    5.6824482    2.5012301    30.403515 0.0073713548  -0.21781674 -0.010570683   0.19025428   0.53501948    0.4991591 
 1698000    4.1405175    1.2560738    2.8844437  -0.21141006   0.83747187    1.0033812    0.7342216   -1.2465374            1    1.5375151    2.1769892    2.1709395    0.2646166 -0.016045612 -0.094934039   0.06686414    1.3825575    1.4055432   0.71162964  0.066666667    1.3461867        1e-08 1.7790741e-09    5.6209014    2.4861152    30.403515 0.0009339224  -0.20809605 0.0065402856   0.19445603   0.35713956    2.7225016 
 1699000    4.1615704    1.2546855    2.9068849  -0.21653476   0.83654623   0.98681046    0.7430459   -1.2465374            1    1.5589399    2.2025052    2.1692602    0.3050544 0.0059459031  -0.18842295 -0.019519498      1.40212    1.4291475   0.71006193  0.066666667    1.3453184        1e-08 1.7751548e-09    5.6333114    2.4768207    30.403515 0.0047163079  -0.18260247 0.0017691774   0.19794923    1.8845389    1.1348227 
 1700000    4.1418408    1.2433287    2.8985121  -0.21130646   0.82897421   0.97825687   0.73608428   -1.2465374            1    1.4965327    2.1386944    2.1331079   0.21779582 0.0083981154 -0.017553234  0.031814887     1.341182    1.3678653   0.69947921  0.066666667     1.361164        1e-08 1.748698e-09    5.7185403    2.5070796    30.403515 0.0054474662  -0.16369622 -0.0054746925    0.1805588   0.51763878  -0.21707962 
 1701000    4.1605365    1.2570421    2.9034944  -0.21120149   0.83811747   0.97560544   0.75257962   -1.2465374            1    1.5440862     2.181226    2.1698499   0.28118254 0.0062982209 -0.0068596462  0.020436447    1.3852541    1.4157675    0.7001524  0.066666667    1.3471899        1e-08 1.750381e-09    5.7130419    2.5051031    30.403515 -0.0010275783  -0.24208109 0.0076254371   0.17747612  -0.35717257   -3.3526286 
 1702000    4.1561946    1.2562523    2.8999423  -0.21847594   0.83759086    0.9955461   0.73929764   -1.2465374            1    1.5390912    2.1745874    2.1569961   0.28569011   -0.0050788 -0.025421126 0.0057676365    1.3830623    1.4081498    0.7137031  0.066666667    1.3726426        1e-08 1.7842577e-09    5.6045715    2.4918928    30.403515 -0.011212348  -0.20144994 -0.0027894522   0.20381929    1.8217412    1.3260501 
 1703000    4.1298292    1.2619819    2.8678473  -0.23304743   0.84141099    1.0031156   0.74078183   -1.2465374            1    1.6036847    2.2362349     2.194134   0.38068525 -0.0080256538  0.038492329  0.020613115    1.4473426    1.4717477   0.71348333  0.066666667    1.3570115        1e-08 1.7837083e-09    5.6062978    2.4887191    30.403515 -0.0042720673  -0.21008047  0.014194923   0.18968875  -0.44598374  -0.66903545 
 1704000    4.1601128    1.2635865    2.8965263  -0.20784638   0.84248084   0.98528335    0.7536317   -1.2465374            1    1.6972147    2.2987665    2.2952732   0.49760451 0.0014558021 -0.062625386  0.040947811    1.5381606    1.5676232   0.70196479  0.066666667    1.3477653        1e-08 1.754912e-09    5.6982915    2.4706308    30.403515 -0.0077582228  -0.19403687  0.015270235   0.16253856  0.028113096    3.1542786 
 1705000     4.112461    1.2319888    2.8804722  -0.21428413   0.82141345   0.99197524   0.71526099   -1.2465374            1    1.5167862    2.1544632    2.1646568   0.23123843 -0.00034638859  0.072883063 -0.065212327    1.3658302    1.3863144   0.70476633  0.066666667    1.3439539        1e-08 1.7619158e-09      5.67564    2.4810156    30.403515 -0.0020454356   -0.2054363 0.0048797793   0.19051684  -0.10859249  -0.16460737 
 1706000    4.1645176    1.2613814    2.9031362  -0.22073419   0.84101064   0.98483603   0.75152379   -1.2465374            1    1.6521957    2.2568943    2.2549955   0.44469727 -0.00077779521  -0.10366016  0.013159131    1.4935865     1.522663   0.71082851  0.066666667    1.3667427        1e-08 1.7770713e-09    5.6272363    2.4905994    30.403515 -0.0084123538  -0.21707964 0.0043636574   0.20079848 -0.00058757508    2.2094709 
 1707000    4.1343417    1.2667632    2.8675784  -0.22359466    0.8445989    0.9756801    0.7630549   -1.2465374            1    1.6330348    2.2687823    2.2280417   0.40228045 -0.0069245234  0.016738548 -0.022442486     1.471992    1.5047064   0.70326724  0.066666667    1.3785625        1e-08 1.7581681e-09    5.6877382     2.474334    30.403515 -0.0033868576  -0.19324398 -0.0030662949   0.18206261   -0.9394297    3.0064706 
 1708000    4.1460663    1.2570734    2.8889929  -0.22146332   0.83813835   0.98686882   0.74559414   -1.2465374            1    1.6266311    2.2332244    2.2531177   0.39355137 -0.013198065  0.067936764 -0.056504241    1.4692734    1.4968311   0.70560776  0.066666667    1.3775525        1e-08 1.7640194e-09    5.6688719    2.4788264    30.403515 -0.012114523  -0.19103199  -0.01226408   0.19003861   0.83675549    1.1494965 
 1709000    4.1449954    1.2478159    2.8971795  -0.21744438   0.83196599   0.99085759   0.73308826   -1.2465374            1    1.5334676    2.1480359    2.1595433   0.29282354 -0.0059732401  0.069241678   0.05650878    1.3787492    1.4031429   0.70827912  0.066666667    1.3667453        1e-08 1.7706978e-09    5.6474911    2.4774736    30.403515   0.01027887   -0.2191522 0.0040196703   0.20428151  0.043322278  -0.30509143 
 1710000    4.1664769    1.2723182    2.8941587  -0.21810286   0.84830261    1.0015951   0.75291709   -1.2465374            1     1.686037    2.2811103    2.2522692   0.52473137 -1.853628e-05  0.045584699   0.02570482    1.5271337       1.5543    0.7131933  0.066666667    1.3774721        1e-08 1.7829833e-09    5.6085776    2.4967785    30.403515 -0.003073117  -0.19060656 -0.0095667204   0.21379662     0.237642    3.5122449 
 1711000    4.1755951    1.2805031     2.895092  -0.21373359   0.85375979   0.97728052   0.77692908   -1.2465374            1    1.5618522    2.1660536    2.2057105   0.31379249  0.020695472  0.023959555  -0.02400369    1.3978812    1.4333132   0.70432201  0.066666667    1.3528161        1e-08 1.760805e-09    5.6792205    2.5196594    30.403515 -0.0065963167  -0.20118341 0.0036730021    0.1846465   -1.0806639  -0.37301588 
 1712000     4.155772    1.2551532    2.9006188  -0.21898077   0.83685805   0.98377741    0.7454423   -1.2465374            1    1.5565901    2.1619617    2.1618102    0.3459983 0.0039060058   0.15280151 -0.010487339    1.3992644    1.4271966   0.69831578  0.066666667    1.3600189        1e-08 1.7457894e-09    5.7280676    2.4961768    30.403515 -0.0013772395   -0.2021534 0.0071301965   0.15852994  -0.99618735    1.1591696 
 1713000    4.1582865    1.2624274    2.8958592  -0.22782807   0.84170802    1.0118019   0.73585067   -1.2465374            1    1.5485539     2.161253    2.1754574   0.30895117  0.027131644  0.067798829 -0.021608239    1.3932525    1.4154744   0.70737174  0.066666667    1.3596481        1e-08 1.7684294e-09    5.6547353    2.4723881    30.403515 -0.017061331  -0.16948899 0.0051328507   0.19405066   -0.5021542    1.1578772 
 1714000    4.1547547    1.2565304    2.8982243  -0.22682182    0.8377763    1.0024751   0.73528053   -1.2465374            1    1.7261116    2.2834496    2.3143738   0.58051132 0.0019176139   0.13244558  0.019810762    1.5709305    1.5942589   0.71301083  0.066666667    1.3776954        1e-08 1.7825271e-09    5.6100129    2.4823757    30.403515 -0.014071565  -0.19914043 0.0077742849   0.16301726    -1.579626    3.8361731 
 1715000    4.1468485    1.2577846    2.8890639   -0.2243352   0.83861249    0.9925217   0.74284095   -1.2465374            1     1.499092    2.1303363    2.1156646   0.25127515 0.0061474732 -0.0063937458 -0.019294935    1.3423153    1.3685484   0.70656664  0.066666667    1.3664043        1e-08 1.7664166e-09    5.6611787    2.4842086    30.403515 0.0028843608  -0.18752138  0.013270049   0.19299414  -0.50696671  -0.26560685 
 1716000    4.1845801    1.2672693    2.9173109  -0.21701292    0.8449363   0.99637732   0.75070404   -1.2465374            1     1.656918    2.2469958    2.2697773   0.45398089 -0.010720977 -0.00060127832  0.070408252    1.4984818    1.5258673   0.70488249  0.066666667    1.3804223        1e-08 1.7622062e-09    5.6747047    2.4818773    30.403515 -0.0026332488  -0.15463142 -0.0054012513   0.21850413  -0.59416165    2.8675612 
 1717000    4.1622426    1.2657598    2.8964829  -0.22179091   0.84392987    1.0089356   0.74124384   -1.2465374            1    1.5099415      2.14677    2.1482745   0.23478012  0.010909033  -0.12591162 -0.0016015446    1.3535019    1.3772391   0.70166186  0.066666667    1.3787195        1e-08 1.7541547e-09    5.7007516    2.5132115    30.403515 0.0068642577  -0.19930359 -0.0089110513   0.20113609    1.0655748   0.86979636 
 1718000    4.1683373    1.2766785    2.8916588  -0.22637279    0.8512098   0.99905476   0.75921971   -1.2465374            1    1.6171172    2.2134371    2.2363192   0.40159545  0.028402785   0.10285384 -0.032462819    1.4568838    1.4857144   0.70031713  0.066666667    1.3900851        1e-08 1.7507928e-09     5.711698    2.4906514    30.403515 -0.010721038  -0.16692862 0.0015830316   0.16365079   -1.0123883    1.5246832 
 1719000    4.1693685     1.261729    2.9076395  -0.20639674   0.84124238    1.0141108   0.73365584   -1.2465374            1    1.6027699    2.2194898    2.1977935   0.39102635 -0.00097559898 -0.055823083 -0.030807952    1.4479317    1.4693867   0.71004903  0.066666667    1.4014284        1e-08 1.7751226e-09    5.6334138    2.4875036    30.403515  0.014347755  -0.19248442 -0.0046962901   0.19323954   0.21166139   0.71961306 
 1720000    4.1750783    1.2807083      2.89437  -0.21905527   0.85389661    1.0100971   0.75669977   -1.2465374            1    1.5774872    2.1719604    2.2035431   0.35695802 -0.011393972  0.092515198  0.041013189    1.4177856    1.4446319   0.71024075  0.066666667     1.391377        1e-08 1.7756019e-09    5.6318931    2.5079689    30.403515 0.00070114583  -0.18654447 0.0059264901   0.18932389   0.17249857    1.5669897 
 1721000     4.182931    1.2977492    2.8851818  -0.20608311   0.86525843    1.0226412   0.76732679   -1.2465374            1    1.6437657    2.2571598    2.2621165   0.41202088 -0.0041387688  0.078592498 -0.064863222    1.4818213    1.5092606   0.69575873  0.066666667    1.4194236        1e-08 1.7393968e-09    5.7491194    2.4791964    30.403515 -0.012224921  -0.18863206 -0.010926004   0.16248034  -0.45671322    3.7687427 
 1722000    4.1693198    1.2792535    2.8900663  -0.21115012   0.85292667     1.021724   0.74787925   -1.2465374            1    1.7359939    2.3005075    2.3342518   0.57322236 0.0060928907   0.06960232   0.02017798    1.5781539    1.6016094   0.70237909  0.066666667    1.4051019        1e-08 1.7559477e-09    5.6949303    2.4861612    30.403515 0.0034020493  -0.21186654 -0.018136589   0.21303545  -0.43455825    2.7193018 
 1723000    4.1779678    1.2751878    2.9027799  -0.22229508   0.85021591    1.0304503   0.73804047   -1.2465374            1     1.529339    2.1698664    2.1423955   0.27575517 0.0072762607  0.075259115 -0.011741523    1.3735755    1.3938068   0.71025321  0.066666667    1.3911322        1e-08 1.775633e-09    5.6317944     2.512412    30.403515 -0.0068220972  -0.20575292 0.0028056789   0.18850138  -0.76352611   0.90719741 
 1724000    4.1757241     1.291788    2.8839361  -0.22317081   0.86128383    1.0252812   0.75922922   -1.2465374            1    1.5794021    2.1944752    2.1888522   0.35487901 -0.012010888  0.023919823 -0.020743407    1.4191667    1.4445498   0.70652014  0.066666667    1.3846499        1e-08 1.7663004e-09    5.6615513    2.4803727    30.403515  0.012475941  -0.19208518 0.0022615154   0.17551759  -0.80813374    2.4720239 
 1725000    4.1368699     1.259868    2.8770019  -0.21056059   0.84000162    1.0035993   0.73819244   -1.2465374            1    1.4937574    2.1499083    2.1318822   0.19948175  0.011036808  0.013889077 -0.022935169    1.3379618    1.3617568   0.70229514  0.066666667    1.3909774        1e-08 1.7557379e-09    5.6956111    2.4860467    30.403515 0.00075295331  -0.17945513 -0.0067969013   0.18083118  -0.82389377   -2.8032508 
 1726000    4.1533132    1.2778582     2.875455  -0.22283422   0.85199632    1.0126299   0.75203648   -1.2465374            1    1.6481872    2.2463686    2.2569724   0.44122077 -0.0092754533  0.013196862  0.035408969    1.4894698    1.5149989   0.71050452  0.066666667    1.3981556        1e-08 1.7762613e-09    5.6298023    2.4868244    30.403515 -0.00096420857  -0.19201772 0.00068881737   0.24852993   0.41560876   -1.5711782 
 1727000    4.1695867    1.2806852    2.8889015  -0.21795204   0.85388123    1.0126868   0.75506092   -1.2465374            1      1.60576    2.2282636    2.2075782   0.38143819  0.015508399  -0.10633107 -0.018790066    1.4464043    1.4725642   0.71520493  0.066666667    1.3647781        1e-08 1.7880123e-09    5.5928026     2.491221    30.403515 -0.0027422737  -0.22252162 0.0038634874   0.19655337   0.66323281    1.8951137 
 1728000    4.1580008    1.2756915    2.8823093  -0.22296154   0.85055169    1.0098298   0.75143627   -1.2465374            1    1.6003051    2.2094039    2.2333524   0.35815891  0.008542579  -0.19012589 -0.0034980662    1.4417143     1.467485   0.70376438  0.066666667    1.3676536        1e-08 1.7594109e-09    5.6837205    2.4896549    30.403515 -0.010891359   -0.1910687  -0.00145708   0.18442742    1.3583461    1.1724407 
 1729000    4.1735264    1.2689189    2.9046074  -0.21567292    0.8460362   0.99337379   0.75436141   -1.2465374            1    1.6957973    2.2948804    2.2914843   0.50102702  0.011803489  -0.16893893 0.0055000035    1.5365892    1.5651416   0.70088974  0.066666667    1.3582268        1e-08 1.7522244e-09    5.7070317    2.4932451    30.403515 -0.0054294333  -0.19519667 0.0018833654   0.15166103  -0.16132647    1.5050706 
 1730000    4.1588987    1.2612712    2.8976275  -0.21050868   0.84093716    1.0001932   0.74183389   -1.2465374            1    1.5725116    2.1792032    2.1986752   0.33965653 -0.0065556937  0.036163155 -0.014394556    1.4159475     1.440959    0.7077427  0.066666667    1.3573919        1e-08 1.7693568e-09    5.6517714    2.4848354    30.403515 -7.8381811e-05  -0.18934311 0.0010573816   0.20128395   -1.5121807   0.47198555 
 1731000     4.161576     1.267701    2.8938751  -0.22352475   0.84522413   0.99896282   0.74956001   -1.2465374            1    1.6653307    2.2465542    2.2601607   0.48927712 -0.0033193967  0.058248873  0.025728051    1.5071359    1.5339399   0.70543207  0.066666667      1.38356        1e-08 1.7635802e-09    5.6702837    2.4909533    30.403515 0.0040054365  -0.21149805    0.0161964   0.21849624   -1.3000747    1.7535718 
 1732000     4.114934    1.2482117    2.8667222  -0.22121129   0.83222992    1.0172964   0.71703994   -1.2465374            1    1.6526389    2.2754948    2.2591372   0.42328453 -0.0064533868 -0.093817751 -0.032783398    1.5013075    1.5188367   0.70235076  0.066666667    1.3854954        1e-08 1.7558769e-09      5.69516     2.481005    30.403515 -0.005480994  -0.16971006  0.004159318   0.20360733    1.0871778   -2.0006104 
 1733000    4.1455641     1.265849    2.8797151  -0.21921012   0.84398933    1.0125465   0.73909006   -1.2465374            1    1.5553802    2.1963287    2.1739574   0.29585466 -0.0016929824 -0.020627987 -0.017916291    1.3993952    1.4222028   0.70538111  0.066666667    1.4000097        1e-08 1.7634528e-09    5.6706934    2.4958388    30.403515 0.0021641594  -0.19495436 -0.0027584555   0.18152029  -0.65021492   0.27744685 
 1734000    4.1646967    1.2650293    2.8996674  -0.21746314   0.84344283   0.99486674   0.74922097   -1.2465374            1    1.5849203    2.1935561    2.2239215   0.33728317 -0.0043043046  0.032684647  0.058666668    1.4267971    1.4540682   0.71427639  0.066666667     1.406705        1e-08 1.785691e-09    5.6000731    2.4872869    30.403515 0.0005866122  -0.20465377 0.00057919426   0.21005916   -1.5098688   0.13132027 
 1735000    4.1950777    1.2851124    2.9099653   -0.2101782   0.85683296    1.0212955   0.75448772   -1.2465374            1    1.7181291    2.3058646    2.3083714   0.54015121 0.0062047281  0.061697731 -0.074411668    1.5588943    1.5838009   0.70971152  0.066666667    1.4254337        1e-08 1.7742788e-09    5.6360928    2.4769189    30.403515 -0.0037480742  -0.17405817 -0.014334965    0.2298758   0.22356454    1.1534154 
 1736000    4.1891421    1.2652765    2.9238656   -0.2116443   0.84360766    1.0100633   0.74001803   -1.2465374            1    1.5445255    2.1766371    2.1674163   0.28952307  0.024776767  0.066947682 0.0089096856    1.3883446    1.4116747   0.69693098  0.066666667    1.4106955        1e-08 1.7423275e-09    5.7394493    2.4830663    30.403515 0.0016602135  -0.14613246 0.0029261929   0.16770617   0.45969327    3.6222041 
 1737000    4.1896884    1.2757812    2.9139072  -0.20943108    0.8506115    1.0051784    0.7544322   -1.2465374            1    1.6680484    2.2898823    2.2722312   0.44203163 -0.0016211234   0.11419329   0.03521993    1.5088253    1.5358401   0.70291342  0.066666667    1.3955461        1e-08 1.7572836e-09    5.6906013    2.5000983    30.403515 -0.0021505921  -0.17340433 0.0099275442   0.17395114  -0.81128733    4.4578691 
 1738000    4.1597629    1.2810813    2.8786816   -0.2264355    0.8541453    1.0131647   0.75519179   -1.2465374            1    1.5079523    2.1278517    2.1688431   0.22716222 0.00073908458  0.078507833  0.041552368     1.348569    1.3746936   0.71289345  0.066666667    1.3942027        1e-08 1.7822336e-09    5.6109367    2.4855209    30.403515 -0.0003362026  -0.16665117 0.00060800752   0.20804871   0.74634283    3.6119757 
 1739000    4.1851093    1.2929136    2.8921957  -0.22278091   0.86203435    1.0295454   0.75779013   -1.2465374            1     1.736561    2.3165921    2.3162529   0.57683799 0.0016781965  0.013546245 -0.037479713    1.5766293    1.6011478    0.7098865  0.066666667    1.4011821        1e-08 1.7747162e-09    5.6347036    2.4807179    30.403515 -0.0032668876  -0.17653352 -0.019294293   0.20694118   -1.7768699    3.2073775 
 1740000    4.1642161     1.275365    2.8888511  -0.21671102   0.85033405    1.0082349   0.75207693   -1.2465374            1    1.4748169    2.1152485    2.1286425   0.18055969  0.017749177 -0.043945228 -0.049057823    1.3160909    1.3422066   0.69319028  0.066666667    1.4229431        1e-08 1.7329757e-09    5.7704213     2.484073    30.403515 0.0006013785  -0.15579054 -0.0084485365   0.18409123  -0.42142972  -0.43012066 
 1741000    4.1942852    1.2870991    2.9071861  -0.21700722    0.8581576    1.0123211   0.76223098   -1.2465374            1    1.6566645    2.2698749    2.2556934   0.44442521  0.010259426 -0.044224459  0.034507511    1.4957955    1.5235167   0.69964954  0.066666667    1.4129186        1e-08 1.7491239e-09     5.717148    2.4908797    30.403515 0.0059854481   -0.1905797 -0.0036868509    0.1935308    2.1537485    2.5655052 
 1742000    4.1738821    1.2631343    2.9107478  -0.22603935   0.84217932    1.0032858   0.74192305   -1.2465374            1    1.5756656    2.1916841    2.1650783   0.37023431 0.0013602479  0.013480517 -0.052872413    1.4190826    1.4437062   0.70919166  0.066666667    1.4132924        1e-08 1.7729791e-09    5.6402243    2.4855639    30.403515 -0.011871526  -0.23246478 -0.00073016163   0.21885688    1.4309542    1.6353588 
 1743000    4.1688377    1.2570762    2.9117615  -0.22292445   0.83814019   0.99501518   0.74052028   -1.2465374            1    1.5410314    2.1755017    2.1662469   0.28134568 0.0026367209   0.13315798 -0.021025318    1.3847445    1.4101599   0.70808611  0.066666667    1.4242178        1e-08 1.7702153e-09    5.6490305    2.5012886    30.403515 -0.0053765046   -0.1788204 0.0090366494   0.18372192  -0.77243964    1.5300926 
 1744000    4.1387622     1.250962    2.8878002  -0.21836945   0.83406366     1.007068   0.72639119   -1.2465374            1    1.6680981    2.2456734    2.2882929   0.47032784 0.00010569522 -0.014116244  0.031938291    1.5147931    1.5356412   0.69733243  0.066666667    1.4436268        1e-08 1.7433311e-09    5.7361451    2.4976716    30.403515 0.0087434589  -0.16030036 -0.0030204876   0.16791947  -0.36185659   0.18204421 
 1745000    4.1547269    1.2595994    2.8951274  -0.22210473   0.83982252   0.99480629   0.74338152   -1.2465374            1    1.4936437    2.1100539    2.1389049   0.23197233  0.011416294   0.12441976 -0.054908113    1.3367529    1.3627996   0.70722424  0.066666667    1.4320432        1e-08 1.7680606e-09    5.6559147    2.5018267    30.403515 -0.005606501  -0.20467486 0.0026677473   0.20005914   -1.5657261   -1.8836634 
 1746000     4.138053    1.2642771    2.8737759  -0.22074857   0.84294131    1.0199322    0.7327859   -1.2465374            1    1.5988652    2.2190556    2.2156452   0.36189465 -0.012557206  0.070157696 -0.00034131354    1.4442106    1.4647163   0.70684492  0.066666667    1.4271243        1e-08 1.7671123e-09    5.6589499    2.4875237    30.403515 0.00084705006  -0.18903745 0.0064913931   0.19796877   -0.4128597    1.5532236 
 1747000    4.1482666    1.2821774    2.8660891  -0.21852203   0.85487613    1.0266508   0.74797361   -1.2465374            1    1.5411624    2.1820806    2.1751791   0.26622756  0.012595172  0.045267352 0.0065353064    1.3833025    1.4061299   0.70061778  0.066666667    1.4162046        1e-08 1.7515445e-09     5.709247    2.4733445    30.403515 -0.0031241834  -0.20573408 -0.0049774666   0.16645869   -2.0367211    1.1727815 
 1748000    4.1702509    1.2877411    2.8825098  -0.21728418   0.85858566    1.0181261   0.75930819   -1.2465374            1    1.5716275    2.2030876    2.1881789   0.32361597 -0.0054804281 -0.0070304237 0.0013614126    1.4113754    1.4377162   0.70387343  0.066666667     1.394782        1e-08 1.7596836e-09    5.6828399    2.5049173    30.403515  0.011708921  -0.22297912 0.0047158706   0.20380789  -0.80026963    3.5122614 
 1749000    4.1500196    1.2474981    2.9025214  -0.21964462   0.83175414     1.003117   0.72510423   -1.2465374            1    1.6604054    2.2495608    2.2703853   0.46126999  -0.02235455   0.12928781  0.022071427     1.507372    1.5284682   0.71030595  0.066666667    1.3877493        1e-08 1.7757649e-09    5.6313762    2.4744064    30.403515 0.0026637629  -0.21613619 -0.011462476   0.20742249   -1.8900752   0.38459403 
 1750000    4.1606916     1.274713    2.8859786  -0.22065613   0.84989928    1.0148367    0.7472569   -1.2465374            1    1.6277696    2.2096278    2.2345226   0.43915837 -0.0036370917   0.14639617  0.023350456    1.4700609     1.494291   0.70203227  0.066666667    1.3881651        1e-08 1.7550807e-09    5.6977438    2.4790829    30.403515 -0.0032876298  -0.19312379 0.00069532222   0.16510962   -1.4249357    1.9769453 
 1751000    4.1758503    1.2838576    2.8919927  -0.21071121   0.85599638    1.0027626   0.76467937   -1.2465374            1    1.4895495    2.1448096    2.1448713   0.17896759  0.011051451  0.042181967 -0.010791107    1.3281638    1.3576589   0.70147922  0.066666667    1.3820482        1e-08 1.7536981e-09    5.7022359    2.4990985    30.403515 0.0058058856   -0.1873738 0.0034144111    0.1878098   0.74672027   0.98001777 
 1752000    4.1621342    1.2897054    2.8724287  -0.21480469   0.85989534    1.0339167   0.75159351   -1.2465374            1    1.6909795    2.2942944     2.261818   0.51682608  0.005094698 -0.015496259  0.011133665    1.5323555    1.5549913   0.70613082  0.066666667    1.3951822        1e-08 1.765327e-09    5.6646728    2.5011262    30.403515 0.0039552857  -0.19383612 -0.0065201916    0.1987535    1.7573995    1.4375141 
 1753000     4.154638     1.268673    2.8859649  -0.21544256   0.84587224    1.0039042   0.74753263   -1.2465374            1    1.4943913    2.1520533    2.1597383   0.17138219  0.019269125  0.023876721 -0.038461154    1.3366244    1.3623506   0.71364978  0.066666667    1.3851923        1e-08 1.7841245e-09    5.6049902    2.4896886    30.403515 0.0037173732   -0.1809333 -0.0011966765   0.20581521    2.7810404   -2.2371224 
 1754000     4.172638    1.2818223    2.8908157  -0.21703304   0.85463935    1.0101092     0.757898   -1.2465374            1    1.5650983    2.2112035    2.1849088   0.29918262 -0.0041953133 -0.014648694 -0.017890364    1.4051438    1.4322415   0.71228693  0.066666667    1.3886945        1e-08 1.7807173e-09    5.6157144    2.4903845    30.403515 0.0017646152  -0.19325544 -0.0051165776   0.18883624    0.7606089   -1.5601228 
 1755000    4.1674419    1.2683665    2.8990754  -0.20971731   0.84566787   0.99588417   0.75219898   -1.2465374            1    1.5747618     2.195777    2.2209113   0.30759723 -0.0099358712 -0.0040028568 0.0043948395    1.4160101     1.443776   0.71119167  0.066666667    1.4025632        1e-08 1.7779792e-09    5.6243628    2.4831561    30.403515 -0.0018213667  -0.19358293 0.00041404669   0.19591852  -0.53648091   0.82492009 
 1756000    4.1562497    1.2627158    2.8935339  -0.21140671   0.84190031   0.99897697   0.74415538   -1.2465374            1     1.660933     2.260869    2.2651433    0.4567867 -0.0054967108 -0.017447524  0.035117432    1.5038789    1.5295404   0.71205798  0.066666667    1.4166811        1e-08 1.780145e-09      5.61752    2.4996934    30.403515  0.006590382  -0.17555801 -0.0056831002   0.20429624    1.0883615    3.6386392 
 1757000    4.1638923    1.2681306    2.8957617  -0.21889909   0.84551057    0.9972453   0.75109536   -1.2465374            1     1.552424    2.1611125     2.184377   0.31178237 0.0053370731  0.037920192  0.052225858    1.3939052    1.4212591   0.70721725  0.066666667    1.4182773        1e-08 1.7680431e-09    5.6559706    2.5059946    30.403515 0.0060569709  -0.18077088  0.006242465   0.18233807  -0.39625085    2.2687196 
 1758000     4.169604    1.2905067    2.8790974  -0.22306143   0.86042955    1.0068824   0.76930859   -1.2465374            1    1.5659453    2.1967836    2.1905246   0.31052759 -0.0045981701 -0.045902465 -0.025994306    1.4035826    1.4335128   0.71929909  0.066666667    1.4354293        1e-08 1.7982477e-09    5.5609691    2.4991348    30.403515 0.0020457148  -0.16459808 -0.00039277434   0.21099461    1.0456822    1.3296835 
 1759000     4.151409    1.2692895    2.8821195  -0.22229287   0.84628329    0.9961456   0.75303512   -1.2465374            1    1.5833899    2.2285103    2.1930711   0.32858834   0.01180711  0.054267333 -0.0079798512    1.4244617    1.4523697   0.71080381  0.066666667    1.4216646        1e-08 1.7770095e-09    5.6274318    2.5008977    30.403515 -0.012098413  -0.16996498  0.015589744   0.18825661  0.061933944    2.4242808 
 1760000    4.1787916    1.2780446     2.900747  -0.21697672   0.85212062   0.98103495   0.77192832   -1.2465374            1    1.5105311    2.1604605    2.1450155   0.22611743  0.017794168   0.11809103 -0.017712154    1.3476156    1.3814984   0.70434343  0.066666667     1.431577        1e-08 1.7608586e-09    5.6790478    2.4897251    30.403515 0.00049219502   -0.1971978 -0.003542092   0.16929384   -1.8919879    1.5892961 
 1761000    4.1517445    1.2552253    2.8965192   -0.2205028   0.83690611   0.98983566   0.74174481   -1.2465374            1    1.5451986    2.1581627    2.1955054   0.28192754 -0.0011950505 -0.0034104813  0.011385594    1.3886532    1.4150083   0.70696001  0.066666667      1.41516        1e-08   1.7674e-09    5.6580287     2.502403    30.403515 -0.019026204  -0.21100899  -0.00416054   0.20144665   -1.2209738    4.7496489 
 1762000    4.1801756    1.2783047    2.9018709  -0.21976331   0.85229403   0.99941295   0.76075659   -1.2465374            1    1.5682768    2.1801073     2.197475   0.32724824  0.013595707    0.1216494 -0.024358166     1.407719    1.4368269   0.71397145  0.066666667    1.4209072        1e-08 1.7849286e-09    5.6024649    2.4826251    30.403515 -0.013714513  -0.18880141 0.0086118961   0.22555329   -2.3557836    2.0024209 
 1763000    4.1533869    1.2645644    2.8888224  -0.21715982   0.84313288   0.98152343   0.75703341   -1.2465374            1    1.5950516    2.1954241    2.2317839   0.35794691 -0.0036008539 0.0067663212 -0.0071282762    1.4352796    1.4659546   0.71039884  0.066666667    1.3881542        1e-08 1.7759971e-09    5.6306398    2.4838952    30.403515 -0.015137225  -0.20127737 -0.00078719877    0.2006094   -2.2119575    2.3755937 
 1764000    4.1655292      1.25012    2.9154092  -0.22180993   0.83350223   0.98311946   0.74040458   -1.2465374            1    1.5099258    2.1492254    2.1391112   0.24144074  0.014137453  -0.13991464  0.033895131    1.3536633    1.3806188   0.70257484  0.066666667    1.3838438        1e-08 1.7564371e-09    5.6933437    2.5062857    30.403515 -0.0036208107  -0.15431938 0.00051496604   0.18695657  -0.17173318    2.7353913 
 1765000    4.1428423     1.257731    2.8851113  -0.21603851   0.83857674   0.99375924   0.74201167   -1.2465374            1    1.5721377    2.1918383    2.1910794   0.33349554 -0.010703264 -0.068688878 -0.030908423    1.4155361    1.4414314   0.70753719  0.066666667    1.3943053        1e-08 1.768843e-09    5.6534131    2.5088857    30.403515 -0.011165633   -0.2327597 0.0067125366   0.17892823    1.4059905    1.8356598 
 1766000    4.1557562    1.2710021    2.8847541  -0.23786835   0.84742512    1.0019727   0.75125726   -1.2465374            1    1.5687743    2.1871557    2.1974038   0.32176326 0.0049449008 -0.033849283 -0.024100348    1.4102213    1.4369876    0.7267374  0.066666667    1.4074549        1e-08 1.8168435e-09    5.5040514    2.4913529    30.403515 0.0039076294  -0.21877992   0.01035275   0.19966956  -0.33549591    1.8841439 
 1767000    4.1660114    1.2680486    2.8979628  -0.21182185   0.84545589   0.98479844   0.75876354   -1.2465374            1    1.6183235    2.2143017    2.2365702   0.40409864 0.00037372634   -0.1649144   0.04929677    1.4581864    1.4887958   0.70723972  0.066666667    1.3929823        1e-08 1.7680993e-09     5.655791    2.4816605    30.403515 -0.0016378291  -0.21137248  0.012054426   0.19964534    2.5454643   0.86541988 
 1768000    4.1482162    1.2524479    2.8957683  -0.21556835   0.83505435   0.96817282   0.75223906   -1.2465374            1    1.5952287    2.1898869    2.1982163   0.39758299 -0.0077547026  -0.13844689 -0.053096325    1.4364686    1.4678877   0.70182023  0.066666667    1.3826899        1e-08 1.7545506e-09    5.6994652    2.4992457    30.403515 -0.0024260961  -0.24059704 0.0042749331   0.21307091    2.4806659    0.9688458 
 1769000    4.1605633    1.2810035    2.8795598  -0.21593774   0.85409342   0.98899808   0.77016826   -1.2465374            1    1.5770531    2.2364827    2.1941261   0.30055054 0.0068989859  0.081240904 -0.014482606     1.414509     1.446973   0.70866392  0.066666667    1.3725361        1e-08 1.7716598e-09    5.6444245    2.4933464    30.403515 0.0061758439  -0.21913222 0.0046760379   0.19353165  -0.48631359   0.35743144 
 1770000    4.1520318    1.2571814    2.8948504   -0.2183682   0.83821034   0.98925018   0.74422693   -1.2465374            1    1.5852787    2.2018087    2.2020732   0.35195412 -0.0015094678   0.19462352 -0.050781811    1.4282095    1.4551654   0.71762719  0.066666667    1.3782973        1e-08 1.794068e-09    5.5739248     2.490924    30.403515 -0.0031289819  -0.19463479 -0.012443814   0.21231854   -1.0630327   0.35586768 
 1771000    4.1713868    1.2674186    2.9039682  -0.21758681   0.84503588   0.98274025   0.75936437   -1.2465374            1    1.4038194    2.0748363    2.0443872  0.092234659 -0.0095150521   0.21363394  0.024149105    1.2435554    1.2745623   0.71099006  0.066666667     1.381044        1e-08 1.7774752e-09    5.6259577    2.5173461    30.403515 -0.0040971559  -0.17324187 0.0037317074   0.17377188   -1.9848016    1.4507992 
 1772000    4.1519538    1.2657923    2.8861615  -0.21978713   0.84395154    0.9733531   0.76345418   -1.2465374            1    1.6017409     2.221792    2.2169265    0.3665042  0.027515277   0.14477777 -0.019762064    1.4406138    1.4737185   0.71437341  0.066666667    1.3912384        1e-08 1.7859335e-09    5.5993126    2.5026676    30.403515 0.0018091558  -0.19037805 -0.0027249638   0.23694057  -0.66762181    1.6175238 
 1773000    4.1652167    1.2816635    2.8835532  -0.23448567   0.85453348    1.0038869   0.76160388   -1.2465374            1    1.5565083     2.163907    2.1831907   0.32242729 -0.010864396  0.030102686 -0.0062552605    1.3957717    1.4244699   0.70830335  0.066666667    1.3890563        1e-08 1.7707584e-09    5.6472979    2.4824512    30.403515  0.010357088  -0.21860102 -0.011297232   0.17527513    0.7102762   -0.8716917 
 1774000    4.1716439    1.2943768    2.8772672   -0.2231498   0.86300988    1.0122219   0.77016987   -1.2465374            1    1.6241863    2.2305443    2.2612468    0.3807679 -0.0072577193 -0.076449437 -0.00031203301    1.4616419    1.4910516   0.71249213  0.066666667    1.3982252        1e-08 1.7812303e-09    5.6140971    2.4908858    30.403515 -0.0072602105  -0.15466404 0.0027599334   0.20278387  0.076644697    1.7226739 
 1775000    4.1611015    1.2815775     2.879524  -0.21191949   0.85447613   0.98397773   0.77391825   -1.2465374            1    1.6516454    2.2718135    2.2562453   0.42687734  0.015783242 -0.063318887 -0.0080508647    1.4883098    1.5222255   0.70367762  0.066666667      1.41944        1e-08 1.7591941e-09    5.6844212    2.4823004    30.403515 -0.0058200185  -0.22613945 -0.011512775   0.20280035    1.2696379    1.7927914 
 1776000    4.1611021    1.2752634    2.8858387  -0.21959404   0.85026629   0.99560358   0.75983882   -1.2465374            1    1.5986291    2.2116099    2.2340712    0.3502061 0.0061687495 -0.081035043 -0.054951004     1.438265    1.4676801   0.70655698  0.066666667    1.4328411        1e-08 1.7663925e-09     5.661256    2.5030926    30.403515 -0.0022212331  -0.18624376 -0.0087799874   0.16638305   0.93881807   -1.0351777 
 1777000     4.129566     1.255819     2.873747  -0.21612091   0.83730198   0.98369392     0.746215   -1.2465374            1    1.5659712    2.2019963    2.1916808    0.3042363 0.0065320423  -0.14553923 -0.034613721    1.4084824    1.4365887   0.71072412  0.066666667    1.4332491        1e-08 1.7768103e-09    5.6280628    2.4758731    30.403515 -0.0013493067  -0.19905124 0.0001422383   0.19881856   0.71652058  -0.20571472 
 1778000    4.1475771    1.2611497    2.8864274  -0.21399038   0.84085616   0.99565373   0.74453137   -1.2465374            1    1.6525313    2.2567264    2.2918384   0.40902893 -0.0040453714  -0.08635247 -0.077811826    1.4953978    1.5215757    0.7048302  0.066666667    1.4227301        1e-08 1.7620755e-09    5.6751257     2.472337    30.403515 0.00015275061  -0.16047262 0.0097046626   0.17633285     1.577914   0.76776817 
 1779000    4.1418301    1.2655195    2.8763106  -0.22212067   0.84376965   0.99975486   0.74670523   -1.2465374            1    1.6041907    2.2143209    2.2386847   0.35956658 -0.013481516   0.10658554 -0.064383246    1.4465985    1.4726958   0.71317221  0.066666667     1.418588        1e-08 1.7829305e-09    5.6087435     2.472496    30.403515 -0.0015037601  -0.21505123 -0.0026503688   0.18728503   -1.2196048    1.9224572 
 1780000    4.1694758    1.2847926    2.8846832  -0.22444054   0.85661977    1.0129614   0.75933543   -1.2465374            1      1.50197    2.1738592    2.1555137   0.17653722 -0.0026648442  0.061763249   0.03379312    1.3417122    1.3687381   0.70677773  0.066666667     1.418392        1e-08 1.7669443e-09    5.6594879    2.5018112    30.403515 -0.0086307576  -0.15652565 -0.0021517815   0.14954552  -0.22565756   0.72700633 
 1781000     4.150652    1.2683571    2.8822949  -0.21912352   0.84566157    1.0091084   0.74394738   -1.2465374            1    1.6430223    2.2633648    2.2355545   0.43014764 -0.021414921  -0.10573062  0.052854649    1.4860121    1.5102971    0.7037903  0.066666667    1.4251668        1e-08 1.7594758e-09    5.6835111    2.4999374    30.403515  0.010692293   -0.1792492 -0.00098685766   0.22232434   0.27681799    2.6659279 
 1782000    4.1437794    1.2640824     2.879697  -0.22889376   0.84281148   0.99470756   0.74829526   -1.2465374            1     1.498059    2.1347975    2.1439754   0.21540413  0.012690618 -0.014334453 -0.025388357    1.3401312    1.3672279   0.70643148  0.066666667    1.4227997        1e-08 1.7660787e-09    5.6622618    2.4815579    30.403515 0.0035267339   -0.1857978 0.00037249862   0.21055434  -0.22441604  0.060005906 
 1783000    4.1709134    1.2632011    2.9077123   -0.2018075   0.84222388   0.99188198   0.74910227   -1.2465374            1    1.7179571    2.3314832    2.2962993   0.52608889 0.0031777437 0.0041063268  0.021571954     1.559859    1.5874977   0.70054472  0.066666667    1.4082735        1e-08 1.7513618e-09    5.7098425    2.4870557    30.403515 -0.0081319497  -0.15930173 -0.017421039   0.19991145    2.2653666    1.7825529 
 1784000    4.1737037    1.2794758    2.8942279  -0.21834874   0.85307487    1.0132883   0.75337701   -1.2465374            1    1.4864809    2.1391894    2.1479668   0.17228663 -0.0024658099  0.034134791 -0.031203213    1.3274806     1.353206   0.70193672  0.066666667    1.3826676        1e-08 1.7548418e-09    5.6985193    2.4861521    30.403515  0.010895252  -0.21022226 0.0012939511    0.1745763  -0.71684335   -0.0977393 
 1785000    4.1781097    1.2826815    2.8954282  -0.22208244   0.85521223    1.0096282   0.75912776   -1.2465374            1    1.5202308    2.1524638    2.1551718   0.25305669 0.0078066339 -0.030639955  0.032308927    1.3600167    1.3874372   0.70885437  0.066666667    1.3848757        1e-08 1.7721359e-09     5.642908    2.4921237    30.403515 0.0065803864   -0.1656738 -0.0088651216   0.19944048   0.56193948   0.89569783 
 1786000    4.1578175    1.2837611    2.8740564  -0.21547128   0.85593199    1.0128004   0.75831928   -1.2465374            1    1.6218771    2.2384911    2.2353039   0.39183641 0.0021051579  0.011054853  0.037057436    1.4618337    1.4886663   0.70721323  0.066666667    1.3698344        1e-08 1.7680331e-09    5.6560028     2.503371    30.403515 0.0004364623  -0.21398434  0.002064089     0.204285   0.51190279    2.6948889 
 1787000    4.1752691    1.2617841     2.913485  -0.20371248   0.84127913    1.0098551   0.73636769   -1.2465374            1     1.544846    2.1623799    2.1696401   0.30251805 0.0028172922 -0.052090029  0.077680077    1.3894355    1.4120226   0.70823184  0.066666667    1.3450207        1e-08 1.7705796e-09    5.6478681    2.5073359    30.403515 -0.0060984621  -0.17117102 -0.013634234    0.1640081    -2.098915   0.52236799 
 1788000    4.1443879    1.2745585    2.8698294  -0.22401593   0.84979628    1.0169878   0.74574908   -1.2465374            1     1.699848    2.2920902    2.2917119   0.51574194 0.0023038668 -0.045286394  -0.08094838    1.5424575    1.5660864   0.70536074  0.066666667    1.3586172        1e-08 1.7634019e-09    5.6708572    2.4891447    30.403515 0.00015425641  -0.24994031 -0.0052518803   0.16292707   0.58050838    3.0334628 
 1789000    4.1585443     1.257259    2.9012854  -0.20858422   0.83826205    1.0059369   0.73391168   -1.2465374            1     1.554552     2.177966    2.1677836   0.31790652  0.015626804 -0.00061929287 -0.022226416    1.3996599     1.422244   0.70303686  0.066666667    1.3726547        1e-08 1.7575922e-09    5.6896021    2.4783565    30.403515 0.0020712611  -0.23462719 -0.0029426321   0.22217455  -0.26524546    1.0322587 
 1790000    4.1959359    1.3025832    2.8933526  -0.21487752   0.86848145     1.026289    0.7702856   -1.2465374            1    1.6139433    2.2313915     2.200761   0.40967754 -0.0045663596  -0.01201252  0.025061338    1.4513744    1.4789584   0.69955091  0.066666667    1.3711208        1e-08 1.7488773e-09    5.7179541    2.4896462    30.403515 -0.007659115  -0.18500322 0.0064125979   0.19410562   0.51408189  -0.39821957 
 1791000    4.2009672    1.2786321    2.9223351  -0.21573292   0.85251235    1.0201898   0.74816283   -1.2465374            1    1.5764945     2.190625     2.193601   0.34525762  0.021205692 -0.075801551   0.02350365    1.4185947    1.4423118   0.70287946  0.066666667     1.360595        1e-08 1.7571987e-09    5.6908762    2.4787161    30.403515 0.0083751298  -0.21702905 -0.0080638729   0.17385222    1.2829543   -2.4143501 
 1792000    4.1774914    1.2697544     2.907737  -0.22485544   0.84659324    1.0065036   0.74708316   -1.2465374            1    1.5755659    2.1902412    2.2183959   0.31806075  0.030218986 -0.037710699  0.024178778    1.4178939    1.4431833   0.71048956  0.066666667    1.3479487        1e-08 1.7762239e-09    5.6299209    2.4993135    30.403515 0.0019743802  -0.16764213   0.01067842   0.15177897   -0.6227883    1.6842485 
 1793000    4.1550161    1.2674744    2.8875417  -0.22407343   0.84507307    1.0079585   0.74370862   -1.2465374            1    1.6180557    2.2187347    2.2169712   0.41846107 0.0034066666 -0.022392477 -0.0013596066    1.4610958    1.4854817   0.70596501  0.066666667    1.3731115        1e-08 1.7649125e-09    5.6660032    2.5020905    30.403515 0.0082845968  -0.18491333 0.00063749796   0.18636418   0.63840917    2.0627353 
 1794000    4.1770978    1.2671897     2.909908  -0.20800053   0.84488327    1.0145557   0.73928914   -1.2465374            1    1.5809719     2.205732    2.1847328   0.35245078  0.002939615    0.1044713   0.05390087    1.4249448    1.4475302   0.69187135  0.066666667     1.408972        1e-08 1.7296784e-09    5.7814216    2.4713089    30.403515 -0.0018100833  -0.16149345 -0.0039791146   0.16443615   -1.0673814    3.3022104 
 1795000     4.177103    1.2758077    2.9012952  -0.21481314   0.85062921    1.0166631   0.74730357   -1.2465374            1    1.6044026    2.2423802    2.2052448    0.3655827 0.00013997719   0.12229271  0.006915992     1.446684    1.4706837   0.70771118  0.066666667    1.3822219        1e-08 1.769278e-09    5.6520232    2.4833498    30.403515  0.005995796    -0.180799 0.0080943146   0.18259958    -2.295304   0.95941904 
 1796000    4.1884715     1.270724    2.9177475  -0.22373531   0.84723967    1.0064282   0.74817952   -1.2465374            1    1.6534935    2.2555924     2.255821   0.44906725 -0.00037875119  0.060760851 -0.011848699    1.4955901    1.5211209   0.71494659  0.066666667      1.39514        1e-08 1.7873665e-09    5.5948235     2.494597    30.403515 0.0028355042  -0.19537291 0.0035279934   0.19715578   0.47883589   0.61609877 
 1797000    4.1373809    1.2612869     2.876094  -0.21857577   0.84094764    1.0224196   0.72799933   -1.2465374            1    1.5117936    2.1261496    2.1718367   0.23739441 0.0014077435  0.018643255  0.014214033    1.3581492    1.3773176   0.69518493  0.066666667    1.3994505        1e-08 1.7379623e-09    5.7538647    2.4849536    30.403515 0.00040297717  -0.20641583 0.0016035067   0.18812114   -1.0944047   -2.1596653 
 1798000    4.1876411    1.2896767    2.8979643  -0.21905282   0.85987619    1.0164763   0.76243136   -1.2465374            1    1.6054913    2.2248929    2.2045021   0.38707879 -0.014329137  0.021798302 -0.039781907      1.44458     1.471797    0.6923891  0.066666667    1.3966229        1e-08 1.7309728e-09    5.7770984    2.4828052    30.403515 0.0042205737   -0.1762029 0.0053281326   0.19763572  -0.60541417  -0.72069457 
 1799000    4.1610111    1.2895118    2.8714993  -0.22463137   0.85976621    1.0211413   0.75934557   -1.2465374            1    1.5670221    2.1936236    2.1854906   0.32195222 -0.014349075 -0.046361258  0.070304687    1.4067621    1.4327143   0.71259407  0.066666667    1.4001381        1e-08 1.7814852e-09     5.613294    2.5033332    30.403515 -0.0078486766  -0.21646332 -0.0046155437   0.23876214    1.3899748  -0.62682482 
 1800000    4.2034219    1.2820518    2.9213701  -0.20558617   0.85479237    1.0146266   0.75533112   -1.2465374            1    1.6079282     2.229146    2.2289882   0.36565032 -0.013697012 -0.015539885 -0.0085374809    1.4485154    1.4744772   0.71470901  0.066666667    1.3833772        1e-08 1.7867725e-09    5.5966833    2.4978042    30.403515  -0.00670317  -0.17174936 -0.0031425873   0.22383637   -0.9713177   0.31181046 
 1801000    4.1608433    1.2661652    2.8946782  -0.21765779   0.84420015   0.99240721   0.75198317   -1.2465374            1    1.5374363    2.1749807     2.158532   0.27879616 -0.0091714382 -0.050306971   0.10481775    1.3787301    1.4069077   0.69581929  0.066666667    1.3995926        1e-08 1.7395482e-09     5.748619    2.4729611    30.403515 0.0034967041  -0.18137964 -0.0028846546   0.17887217   0.71827702    1.8855729 
 1802000    4.1387301    1.2525952    2.8861349  -0.21770624   0.83515255   0.98982929   0.73890209   -1.2465374            1    1.5868933    2.2027138    2.2045524    0.3534138 -0.00055156664  -0.05952057  0.041658856    1.4309479    1.4567039   0.70341957  0.066666667    1.3990438        1e-08 1.7585489e-09    5.6865066     2.493477    30.403515 -0.0025470015  -0.20673396 -0.0088861062   0.18811183     1.559081   0.48367463 
 1803000    4.1607136    1.2797249    2.8809887  -0.22500052   0.85324092    1.0102761   0.75552383   -1.2465374            1    1.5545951     2.197422    2.1901447   0.27621866 0.0081593359    0.1265082  0.098972675    1.3951417    1.4217163   0.71252725  0.066666667    1.3718605        1e-08 1.7813181e-09    5.6138204     2.507208    30.403515 -0.0075251174  -0.18748801 0.0041735214   0.19965784   -1.1057982  -0.97070779 
 1804000    4.1786467    1.2794005    2.8992462  -0.21891419   0.85302465     1.012471   0.75380481   -1.2465374            1    1.5632378    2.1958846     2.173699   0.32012984   0.02048485  0.093976981   0.03221729    1.4041472    1.4300704   0.70570555  0.066666667    1.3992252        1e-08 1.7642639e-09    5.6680863    2.4918054    30.403515 0.0048588513  -0.21758009 -0.0070950325   0.18679204   0.87669412    1.6463472 
 1805000    4.1738493    1.2505291    2.9233203  -0.20648238   0.83377496   0.98765326   0.73802185   -1.2465374            1    1.5993794    2.1839741    2.2360931   0.37807112 0.0041624295   0.11337584  0.013705892    1.4436198    1.4694762   0.69650422  0.066666667    1.4068754        1e-08 1.7412605e-09    5.7429659    2.4863765    30.403515  0.011332766  -0.20002473 0.0084571584   0.19303328    -1.915363   0.22843337 
 1806000    4.1631482    1.2386257    2.9245225  -0.21522231   0.82583852   0.98720413   0.72541792   -1.2465374            1    1.4117844    2.0767164       2.0789  0.079736796 0.0079244808  0.071974165  0.013255472    1.2586848    1.2819402   0.70025483  0.066666667    1.3852865        1e-08 1.7506371e-09    5.7122063    2.4969437    30.403515 -0.0059001237  -0.17213043 0.0035229262   0.16789575   -1.8766305   0.45715748 
 1807000    4.2046699    1.2967815    2.9078884  -0.21636966   0.86461319     1.013384   0.77204844   -1.2465374            1    1.6437763    2.2745445    2.2452983   0.41148615  0.018739596  -0.06364197  0.064404654    1.4808354    1.5104888   0.70589862  0.066666667    1.4002276        1e-08 1.7647466e-09    5.6665361    2.4783944    30.403515 0.00074240173  -0.12893522   0.00715026   0.19333919    1.9602515  -0.79022965 
 1808000      4.18609    1.2790149    2.9070751  -0.22624497   0.85276757    1.0054312   0.75777475   -1.2465374            1    1.5995332    2.2249039    2.2019091    0.3717865 -0.0061414489  -0.13150454 0.0088815194    1.4396047    1.4672916   0.70963276  0.066666667    1.4013566        1e-08 1.7740819e-09    5.6367183    2.4922143    30.403515 0.0054611288  -0.20767927 0.0013502763   0.18695977  -0.48473758   -1.5206468 
 1809000    4.1965473    1.2783911    2.9181562  -0.21248634   0.85235166   0.99810755   0.76166368   -1.2465374            1    1.6696761    2.2893429    2.2555429   0.46414254  0.014118349 -0.031472151 0.0068175951    1.5089269    1.5383978   0.70353221  0.066666667    1.3895239        1e-08 1.7588305e-09    5.6855961     2.495577    30.403515 -0.0023398025  -0.22092785 0.0063395723   0.20713008  -0.46000425  0.071000312 
 1810000    4.1851255    1.2618829    2.9232426  -0.20597718   0.84134501    1.0077903    0.7377614   -1.2465374            1    1.5813573    2.2340457    2.1902764   0.31974987 -0.0026241296  -0.08070301 -0.042453567    1.4256526    1.4488055   0.70109044  0.066666667    1.4154662        1e-08 1.7527261e-09     5.705398     2.485289    30.403515 0.0014159129  -0.18973689 0.0078336529   0.22163396    1.0083384    2.5541918 
 1811000    4.1768091    1.2656607    2.9111484  -0.21545824   0.84386377    1.0166636   0.73632047   -1.2465374            1    1.5961622    2.2115897    2.2308778   0.34601894 -0.00031028735  0.011055135  0.031642918    1.4407616    1.4624433   0.70310359  0.066666667    1.4339094        1e-08 1.757759e-09    5.6890621    2.4907888    30.403515 -0.0074971829  -0.16597253 -0.0067645679   0.18572618   -1.4833382   0.85413388 
 1812000    4.1754437    1.2817042    2.8937396  -0.21459931    0.8545606    1.0270149   0.74723449   -1.2465374            1    1.4079206    2.0674176    2.0854245  0.070919653 -0.009098692 -0.032712523     0.103541    1.2502166    1.2728402   0.71039068  0.066666667    1.4155439        1e-08 1.7759767e-09    5.6307045     2.494261    30.403515 0.0091147743  -0.18423808 -0.0030901272   0.17386371    0.2933014   0.12803216 
 1813000    4.1870313    1.2833249    2.9037064  -0.21837793   0.85564121    1.0227322   0.75165769   -1.2465374            1    1.6221921    2.2171677    2.2442655   0.40514308 0.0023583378 -0.010582911 -0.032423864    1.4635546     1.487675   0.70363493  0.066666667    1.4018598        1e-08 1.7590873e-09    5.6847661    2.5000623    30.403515 0.0031815308  -0.19608708 -0.0081410672   0.19907872    1.1186831    4.0950297 
 1814000    4.1577976    1.2579164    2.8998812  -0.21340615   0.83870037   0.99646322   0.74052724   -1.2465374            1    1.6500337     2.250089     2.234814   0.46519822 -0.0073112964   0.02635392   0.01203463    1.4937453    1.5189717   0.69471052  0.066666667    1.4076022        1e-08 1.7367763e-09    5.7577939    2.4910434    30.403515 -0.0012434158  -0.21098461 0.0083529848   0.16884455    0.3589478    2.7662464 
 1815000    4.1744938    1.2880374    2.8864564  -0.21711068   0.85878322    1.0213038   0.75764852   -1.2465374            1    1.4779541    2.1224434    2.1356807   0.17573806 -0.021672845 -0.0048306428  0.020870285    1.3180522    1.3436248   0.70596669  0.066666667    1.3921539        1e-08 1.7649167e-09    5.6659897    2.4901976    30.403515 -0.013007611  -0.17821992 -0.010746232   0.18303393   0.22637467    3.9114405 
 1816000    4.1442768    1.2675747     2.876702  -0.21949152   0.84513996    1.0135406   0.74033845   -1.2465374            1    1.6954228      2.30023    2.2941437    0.4918946 -0.022108189  0.080237153 -0.018054205    1.5391742    1.5621146   0.71503428  0.066666667    1.3920967        1e-08 1.7875857e-09    5.5941374    2.5030653    30.403515 -0.014047334  -0.17790156  0.020474822   0.20535037   -1.7488984    1.9736391 
 1817000    4.1820604    1.2761636    2.9058968  -0.21975347   0.85086648   0.99350922   0.76211836   -1.2465374            1    1.5811547    2.1717914    2.2016224   0.37005026 0.0073677719  -0.10289835   0.06231753    1.4203095    1.4504812   0.70580216  0.066666667    1.4133567        1e-08 1.7645054e-09    5.6673105    2.5147381    30.403515 0.0041470912  -0.18903548 0.0071125293   0.21292242  0.010111184    5.4148456 
 1818000    4.1846947     1.288435    2.8962598  -0.21118537   0.85904827   0.99664588   0.77344571   -1.2465374            1    1.5616401    2.1786744    2.1901507   0.31609506  0.013844139   0.03552485 -0.031109523    1.3984042     1.430554   0.70889691  0.066666667    1.4129377        1e-08 1.7722423e-09    5.6425694    2.5090841    30.403515 -0.0027590478  -0.21842819 -0.0057383591   0.19339816   -1.6173542    1.7370039 
 1819000    4.1495064     1.264894    2.8846125  -0.21804205    0.8433526    1.0024154   0.74437015   -1.2465374            1    1.6899006     2.285894    2.2718496   0.51195808 -0.00038488376  0.063971641  0.019429041    1.5328011    1.5580557   0.71261624  0.066666667    1.4088194        1e-08 1.7815406e-09    5.6131193    2.4925703    30.403515 -0.0062874586  -0.18688196 -0.011250049   0.21343544   -1.7686271    1.2536285 
 1820000    4.1787951     1.279851    2.8989441  -0.22091949   0.85332499    1.0011182   0.76136751   -1.2465374            1    1.4540034    2.0985211    2.0925693   0.17091982 -0.00093293215 -0.030757301  0.043053401    1.2933167    1.3223291   0.71215262  0.066666667    1.3814117        1e-08 1.7803815e-09    5.6167736    2.4883849    30.403515  0.019611951  -0.22638764 -0.011129696   0.17938872 -0.071144881   0.55732789 
 1821000    4.1425635    1.2612556     2.881308  -0.22174079   0.84092672   0.99521208   0.74492117   -1.2465374            1    1.5578003    2.1889317    2.1731311   0.31133798 -0.0014984266  -0.03106183 0.0054483833    1.4005845    1.4269028   0.69989554  0.066666667     1.396993        1e-08 1.7497388e-09    5.7151386    2.4837532    30.403515 -0.0063378385  -0.18985696 -0.0051743736   0.18854199   -1.0710835    3.0068863 
 1822000    4.1570028    1.2668722    2.8901307  -0.21616579   0.84467153    1.0018486   0.74686451   -1.2465374            1    1.5986296    2.2316565    2.2025805   0.36165173 0.00042637936  -0.04445302  0.017854811    1.4410037    1.4668592   0.70105767  0.066666667    1.3867548        1e-08 1.7526442e-09    5.7056647    2.4875428    30.403515 -0.0082825752  -0.19318527 0.00017123967   0.18455133  -0.20276206    2.6748829 
 1823000    4.1839305    1.2687082    2.9152223  -0.21398801   0.84589567   0.99302856   0.75434841   -1.2465374            1    1.4980982    2.1379482    2.1360058   0.22034069 -0.014647929  0.046453944 0.0027505275    1.3388928    1.3674879   0.71537434  0.066666667    1.3666528        1e-08 1.7884358e-09    5.5914782    2.4917677    30.403515 -0.0086085519  -0.22322591 0.0036495932   0.18286728   -1.3825369   0.55946005 
 1824000    4.1650174    1.2657249    2.8992925  -0.20895817   0.84390661   0.98078287   0.75875099   -1.2465374            1    1.5175837    2.1570333    2.1458527   0.24986532 -0.00015714499  0.042215258 -0.014603643    1.3574492    1.3885841   0.70598769  0.066666667    1.3831477        1e-08 1.7649692e-09    5.6658212    2.4759483    30.403515 -0.0087258976  -0.19921442 -0.011015047   0.15882104   -0.3901993   0.41155589 
 1825000    4.1497405    1.2714777    2.8782628  -0.20662274   0.84774224   0.99317454   0.75725511   -1.2465374            1    1.5999747    2.2114867    2.2184413   0.36999615 -0.019785825  0.038511752 0.0066088757    1.4401559    1.4693453   0.69684609  0.066666667    1.3998897        1e-08 1.7421152e-09    5.7401485    2.4995413    30.403515 5.3664714e-05  -0.15914258 -0.008052842   0.21690293  -0.67983231    1.0378976 
 1826000    4.1568808    1.2560847     2.900796  -0.21425331   0.83747915   0.98014233   0.74871598   -1.2465374            1     1.610351     2.201229    2.2263731   0.40345083 0.0017892161 -0.044538999  0.046838982    1.4523343    1.4814356   0.69853885  0.066666667    1.3973202        1e-08 1.7463471e-09    5.7262384    2.4945445    30.403515 -0.0036773656  -0.22857712 0.0050290781   0.19696196   0.69206068    2.2856394 
 1827000    4.1602016    1.2765995    2.8836021  -0.22637332    0.8511571    1.0099821   0.75232422   -1.2465374            1    1.5749122      2.19248    2.2033824   0.32887419 0.0013406575 -0.069112183 -0.044677485    1.4161341    1.4420721   0.70999724  0.066666667    1.3933751        1e-08 1.7749931e-09    5.6338247    2.4815944    30.403515 -0.002013186  -0.16046668 -0.0045385213   0.19092632   0.78234544    2.5548301 
 1828000    4.1387127    1.2580242    2.8806885  -0.20709331   0.83877225   0.98594067   0.74720162   -1.2465374            1    1.6861417    2.2693311    2.2806793   0.50841455  0.011730079 -0.063901453  0.039781969    1.5284446    1.5564637    0.7109077  0.066666667    1.3899135        1e-08 1.7772693e-09    5.6266095    2.5071242    30.403515 -0.0097109832  -0.19843061 0.0041399992   0.19666809   0.21715688    3.9543483 
 1829000    4.1538561    1.2525549    2.9013012  -0.20604105   0.83512564   0.97573903    0.7476395   -1.2465374            1    1.7227408    2.3120808    2.3056013   0.55054041 0.0036706028 0.0048988303 -0.045104008    1.5649514    1.5944046   0.69405889  0.066666667    1.4151448        1e-08 1.7351472e-09    5.7631998    2.4737204    30.403515 -0.0084836821  -0.19585444 -0.00012692806   0.19201693    -1.115373    3.3828319 
 1830000    4.1352383    1.2370224    2.8982159  -0.20839152   0.82476955   0.97277088   0.73267743   -1.2465374            1    1.5347633    2.1845795    2.1727513   0.24695896 -0.017663008  0.067635835  0.008222073    1.3801316    1.4068175   0.69931744  0.066666667    1.4098937        1e-08 1.7482936e-09    5.7198631    2.5023317    30.403515 0.0080323007  -0.15936479 -0.011152774   0.22058787  -0.61079055  -0.44992925 
 1831000    4.1485607     1.275043    2.8735177  -0.21895105   0.85011932     1.006258   0.75296034   -1.2465374            1     1.652275    2.2661951    2.2412724   0.44935757 -0.0059296983  0.033189312  0.025310495    1.4933626    1.5199247    0.7106449  0.066666667    1.3798329        1e-08 1.7766123e-09    5.6286902    2.4804807    30.403515  -0.01005461  -0.22742138 -0.0031922245   0.20609423  -0.02061432    1.4032333 
 1832000    4.1570894    1.2600558    2.8970336  -0.21600233    0.8401268    1.0021801   0.73928012   -1.2465374            1    1.6286955    2.2356648     2.239185   0.41123671 -0.001054486  0.099125606  -0.03241607    1.4726703    1.4968816   0.70980971  0.066666667    1.4018737        1e-08 1.7745243e-09    5.6353132    2.4855127    30.403515 -0.0038482388  -0.18384867 0.0063951122   0.20121618   0.67627172    0.2129038 
 1833000    4.1464978    1.2624633    2.8840345  -0.21661259   0.84173197   0.97977914   0.75584625   -1.2465374            1    1.4249587    2.0870578    2.0836381   0.10418014 -0.013916149   0.16399019  0.027200907    1.2654372    1.2960911   0.69823494  0.066666667    1.4014877        1e-08 1.7455874e-09    5.7287308    2.4956221    30.403515 -0.0067285011  -0.20191352  -0.01259959   0.19255458   -1.5611518   0.86485094 
 1834000      4.14392    1.2549725    2.8889474  -0.21822758    0.8367376   0.98770572   0.74279863   -1.2465374            1     1.564669    2.1886588    2.1647851   0.34056317   0.02180866  0.059714307  0.038600045    1.4079012    1.4347589   0.70334168  0.066666667    1.4127438        1e-08 1.7583542e-09    5.6871363    2.4950625    30.403515 -0.0029059254  -0.20500233 -0.014001575   0.19405233  -0.66570867    2.1870731 
 1835000    4.1563898     1.265353    2.8910369  -0.21964766   0.84365863   0.99235468   0.75113683   -1.2465374            1    1.6266789    2.2393337    2.2246538   0.41604926 -0.0029434967   0.06182123  0.049029837    1.4681514    1.4961573   0.70881669  0.066666667    1.4129116        1e-08 1.7720417e-09     5.643208    2.4910178    30.403515 -0.008228088  -0.18655694  0.001171708   0.23512737   -1.6591934   0.76633242 
 1836000    4.1753793     1.265356    2.9100233  -0.21510323   0.84366066   0.98873726    0.7533945   -1.2465374            1    1.6345707    2.2288783    2.2457566   0.42907708 -0.0040121026  0.017035623  0.020237038    1.4755666    1.5045248   0.70411124  0.066666667    1.3970359        1e-08 1.7602781e-09    5.6809205    2.4779161    30.403515 0.00045671591   -0.1862809 0.00057095751   0.22477136   -1.1481035    3.1919555 
 1837000    4.1447301    1.2582245    2.8865056   -0.2241226   0.83890583    1.0064027   0.73466649   -1.2465374            1    1.5424445    2.1843676    2.1490614   0.29390452  0.016760001  0.038840478 -0.016206856     1.387393    1.4100752   0.70386423  0.066666667    1.4101971        1e-08 1.7596606e-09    5.6829142    2.5149935    30.403515 0.0075070467  -0.17687562  0.013782153   0.18442301   -1.2168855    1.9347974 
 1838000    4.1366713    1.2397291    2.8969422   -0.2150961   0.82657422   0.99391894   0.72242754   -1.2465374            1    1.6063962    2.1995197    2.2338437   0.38582534 -0.010232643 -0.035025585 -0.001520191    1.4539278    1.4756689   0.70992618  0.066666667     1.438913        1e-08 1.7748154e-09    5.6343887    2.5031137    30.403515  0.006296878  -0.18531622  -0.01723412   0.17452896    -1.452409    2.9463047 
 1839000    4.1499325    1.2729919    2.8769405  -0.22744008   0.84875181    1.0038699   0.75222866   -1.2465374            1    1.4821717    2.0970512    2.1196209    0.2298431 0.0028089369  0.058507762  0.010788501    1.3234138    1.3501355   0.70865256  0.066666667    1.4600012        1e-08 1.7716314e-09     5.644515    2.4726832    30.403515 0.0029238403  -0.20995902 -0.0086111064   0.23561705   -1.7646249   0.14809895 
 1840000    4.1562675    1.2574054    2.8988621  -0.20849908   0.83835965   0.98319494   0.74824297   -1.2465374            1    1.7446273    2.3198423    2.3063864    0.6076532 -0.0028783119 0.0042086442 -0.015776618    1.5867105    1.6153104   0.70974259  0.066666667    1.4443542        1e-08 1.7743565e-09    5.6358461    2.5012148    30.403515    0.0143573   -0.2009837 -0.012594785   0.20450632  -0.34298315    3.6133908 
 1841000    4.1531641    1.2735668    2.8795973  -0.21978117    0.8491351   0.99507022   0.75833487   -1.2465374            1    1.5250055    2.1454032     2.177909   0.25170439  0.016116367  0.090345875 -0.035837708    1.3649588    1.3941267   0.70396903  0.066666667    1.4363411        1e-08 1.7599226e-09    5.6820681    2.4887496    30.403515 0.0087901642  -0.21683664 0.0084967089   0.19866641   0.19879686   0.13107643 
 1842000    4.1486108    1.2570454    2.8915654  -0.21492207   0.83811965   0.98312919   0.74789434   -1.2465374            1    1.5832839    2.2019866    2.2049255   0.34293958 0.0033194093  0.069220195  0.044861748    1.4254407    1.4539757   0.71153762  0.066666667    1.4463051        1e-08 1.778844e-09    5.6216283    2.4931669    30.403515 -0.0037829182  -0.23305315 -0.0094805695   0.18199181  0.089621234   0.48252127 
 1843000    4.1675434    1.2797959    2.8877475  -0.21067097    0.8532883    1.0061776   0.75815489   -1.2465374            1    1.5370349    2.1729138    2.1718266   0.26636432 -0.0035364771  0.040368448 -0.061618047    1.3770262    1.4046952   0.70827595  0.066666667    1.4622255        1e-08 1.7706899e-09    5.6475163    2.4883723    30.403515 -0.0031436726  -0.18424315  0.001871526   0.16999753   0.48080546  -0.31214751 
 1844000    4.1705022    1.2653859    2.9051163  -0.21177841    0.8436806   0.97681938   0.76085414   -1.2465374            1    1.6655742    2.2640333    2.2614039   0.47128524 -0.0068678737 -0.0046227477   0.03898231    1.5049958    1.5370958   0.71031148  0.066666667    1.4599255        1e-08 1.7757787e-09    5.6313324    2.5077727    30.403515 -0.012329552  -0.19171313 0.0024509007   0.19573698   0.87472768    1.7446027 
 1845000    4.1402983    1.2633085    2.8769898  -0.22111465   0.84229549   0.98790716   0.75169565   -1.2465374            1    1.5614631    2.1890914    2.1745936   0.32070423 0.00058796112  -0.02052901 -0.028011712    1.4028176    1.4315264   0.71286663  0.066666667     1.459087        1e-08 1.7821666e-09    5.6111478    2.5268263    30.403515 -0.012166097  -0.16186543 0.0038036018   0.20300999   0.14080586  -0.69253836 
 1846000    4.1350869    1.2523985    2.8826885   -0.2187477   0.83502139   0.98094516   0.74422578   -1.2465374            1    1.5544521    2.1753303    2.1809235   0.30710239   0.00999487  -0.13891485 -0.031943868    1.3973831    1.4254311    0.7130737  0.066666667    1.4734837        1e-08 1.7826843e-09    5.6095183    2.5140717    30.403515 -0.015750421  -0.16292325 0.0097921888   0.17606346    2.5956237     1.572438 
 1847000    4.1361277    1.2414556    2.8946721  -0.21971951   0.82772533   0.97780953   0.73433567   -1.2465374            1    1.7094215    2.2897132    2.3062816   0.53226956 -0.016634601 -0.020286885 -0.071603107    1.5544398    1.5808129   0.71096769  0.066666667    1.4946616        1e-08 1.7774192e-09    5.6261347     2.502964    30.403515 0.0020323281  -0.19864659 -0.008576747   0.19103556  -0.34680937    2.8965135 
 1848000    4.1559622     1.263925    2.8920372  -0.21613838   0.84270654   0.99729107   0.74651485   -1.2465374            1    1.5473805    2.1825311    2.1818473   0.27776295 -0.019143197  0.063051993  0.023953071    1.3898284    1.4162096   0.71133192  0.066666667    1.4984115        1e-08 1.7783298e-09    5.6232539     2.482368    30.403515 -0.0069415634  -0.20111949 -0.0018856845   0.17094322  -0.69514152   0.70035283 
 1849000    4.1765541    1.2715914    2.9049626  -0.22132356   0.84781805   0.98638094   0.76161199   -1.2465374            1    1.6261654    2.2455787    2.2035438    0.4293738  0.014317265    0.1121753 0.0063937386    1.4654271    1.4964295   0.71442582  0.066666667    1.4772993        1e-08 1.7860645e-09    5.5989018    2.5007569    30.403515  0.018160657  -0.19748531 0.0028976988   0.20092904  -0.47252705   -0.2106029 
 1850000    4.1399414    1.2632935    2.8766478  -0.21939633   0.84228553   0.99263842   0.74873094   -1.2465374            1    1.5480686    2.1737018    2.1839223    0.2865817 0.0049960811 0.0012609436   0.01554939    1.3900488    1.4175097   0.71002582  0.066666667    1.5021912        1e-08 1.7750646e-09    5.6335979    2.4965413    30.403515 0.0026643508  -0.19635197 0.0047864803   0.19493987    1.1116156   -1.9835584 
 1851000    4.1454215    1.2644282    2.8809933  -0.22514551   0.84304203    1.0007931     0.744877   -1.2465374            1    1.6038551    2.2168114    2.2404245   0.35432951 -0.0014614244 -0.0086723504 -0.019664494    1.4466487    1.4722236   0.70831905  0.066666667    1.4863225        1e-08 1.7707976e-09    5.6471727    2.5227843    30.403515 0.0064691835  -0.17658781 -0.010517434   0.19211174   0.65699757  -0.66489617 
 1852000     4.175296    1.2837138    2.8915822  -0.21273224   0.85590049    1.0045942   0.76338226   -1.2465374            1    1.6508095    2.2432411    2.2566256    0.4525619 0.0004494532  0.028209365 -0.041783252    1.4896976    1.5186781   0.70686432  0.066666667    1.4805434        1e-08 1.7671608e-09    5.6587946    2.4908515    30.403515 -0.00071897263  -0.20845521  0.009838568   0.18312246  -0.20582717  -0.58912876 
 1853000    4.1552603    1.2725879    2.8826725  -0.20491947    0.8484824    1.0080392   0.74919298   -1.2465374            1    1.5160273    2.1333976    2.1839413   0.23074304 -0.022566078 -0.0012287659  0.055441387      1.35791    1.3834427   0.71239765  0.066666667    1.4726909        1e-08 1.7809941e-09    5.6148416    2.4965073    30.403515 0.0044447799  -0.20315335 0.0078670111   0.22876246   0.55427593   -2.5357436 
 1854000    4.1458657    1.2683082    2.8775576  -0.21754328   0.84562897   0.99846859   0.75052521   -1.2465374            1    1.4910969    2.1129637    2.1735052   0.18682164 -0.010460424 -0.070625148 0.0013483444    1.3326984    1.3597711   0.71122921  0.066666667    1.4909904        1e-08 1.778073e-09     5.624066    2.5017013    30.403515 -0.0032524108  -0.19110058  0.003652258   0.20445753   0.48447668  -0.88965899 
 1855000    4.1276166    1.2612718    2.8663449  -0.22435911   0.84093753    1.0043453   0.73924689   -1.2465374            1    1.5514068    2.1708705    2.1807012   0.30264861 -0.0006183272  -0.10846182 -0.0064969337    1.3953886     1.419308   0.70962464  0.066666667    1.5054751        1e-08 1.7740616e-09    5.6367828    2.4985444    30.403515    0.0104116  -0.20012881 -0.013217154   0.17283575   0.51955045   -2.6738131 
 1856000    4.1454644    1.2481072    2.8973572  -0.22298376   0.83216022   0.99156087   0.73296528   -1.2465374            1    1.6167452    2.2232047    2.2406637   0.38636711 -8.0037989e-05   -0.1164691 -0.069751897    1.4620527    1.4863279   0.71257746  0.066666667    1.4761835        1e-08 1.7814437e-09    5.6134248    2.4980684    30.403515 -0.0082561153  -0.18133443  0.010870067     0.198576    1.0321891    1.3860758 
 1857000    4.1405065    1.2534097    2.8870967  -0.22596841   0.83569561   0.97769745   0.74734429   -1.2465374            1    1.6294581    2.2535245    2.2173125   0.41753726 -0.0063110047 -0.082763933 -0.074424171     1.471731    1.5008643   0.71158395  0.066666667    1.4641133        1e-08 1.7789599e-09    5.6212622    2.5110825    30.403515 0.00076393665  -0.17710127 -0.0055825727   0.21683486  -0.10906711   0.17214882 
 1858000    4.1588825    1.2715676    2.8873149  -0.21763641   0.84780215   0.99597022    0.7556101   -1.2465374            1    1.5203875    2.1523594    2.1647455   0.24405762 -0.0088359733 -0.0065931972  0.027255598    1.3609159    1.3893903   0.70359119  0.066666667    1.4346069        1e-08 1.758978e-09    5.6851195    2.4815416    30.403515 -0.011984817  -0.17368684 -0.006483205   0.18338227    0.5360755   -1.8123947 
 1859000    4.1290385    1.2567233    2.8723152  -0.21866654    0.8379049   0.97885837    0.7502073   -1.2465374            1    1.7757807    2.3544926    2.3532711   0.61957837 -0.0040805987 -0.026561064 -0.015750182    1.6174493    1.6470342   0.70766131  0.066666667    1.4294086        1e-08 1.7691533e-09    5.6524215     2.496135    30.403515 -0.0088003565  -0.17871008 -0.012078026   0.23356634    1.4741384    3.0409917 
 1860000     4.144454    1.2685098    2.8759443  -0.22258006   0.84576339    1.0098852   0.74362854   -1.2465374            1    1.5485565    2.1839372    2.1770566   0.28467566 0.0020961282   0.10008253 -0.026526688    1.3916135    1.4157291     0.704355  0.066666667    1.4235999        1e-08 1.7608875e-09    5.6789545    2.4807026    30.403515  0.013261413  -0.20324227 0.0023959837    0.1673306   -0.2288236  -0.35075026 
 1861000    4.1544502    1.2491819    2.9052683  -0.20965063    0.8328768   0.98740839   0.73671639   -1.2465374            1    1.5324932    2.1869629    2.1412803   0.26923659 -0.0091089364  0.040086323  0.017817469    1.3770091    1.4026222   0.70271912  0.066666667    1.4209884        1e-08 1.7567978e-09    5.6921747    2.5143647    30.403515 0.0043677196  -0.25604596 -0.017307968   0.15978403   0.96738676   0.62244271 
 1862000     4.140668     1.255756     2.884912  -0.20850987   0.83725998    0.9857279   0.74487924   -1.2465374            1    1.7413088     2.337923     2.336295   0.54970854 -0.0028974372   0.14311676 0.0068419302     1.584102    1.6116588   0.69982214  0.066666667    1.4010342        1e-08 1.7495553e-09     5.715738    2.4770399    30.403515 0.0070753799  -0.20148042  0.010608747   0.17508937  -0.97565352    2.6793823 
 1863000    4.1553729    1.2657699    2.8896031   -0.2164938   0.84393659    1.0102395   0.74044216   -1.2465374            1    1.6035835    2.2177896     2.205081   0.38788009 0.0012245759  0.036271934 -0.014307946    1.4473131    1.4707096   0.71006795  0.066666667    1.3855737        1e-08 1.7751699e-09    5.6332637    2.5103869    30.403515 0.0069461286   -0.1873171 -0.0030174121    0.1831192   -1.4129226    1.0673998 
 1864000    4.1480131    1.2576935    2.8903196  -0.21951147   0.83855177   0.98626606   0.74664092   -1.2465374            1    1.4979495    2.1353898    2.1392202   0.21923854 -0.00045006285 -0.093647301 -0.0034916259    1.3403708    1.3682287    0.7055373  0.066666667    1.3879377        1e-08 1.7638432e-09     5.669438    2.4837132    30.403515 0.0043216793  -0.16637904 -0.0068439093   0.19025723  -0.89337191  -0.51477314 
 1865000    4.1816293    1.2769018    2.9047276  -0.21588915   0.85135864   0.98438327   0.76860465   -1.2465374            1    1.5939126    2.1892639     2.245667   0.34680682 -0.016022483 -0.054293519 0.0032367684    1.4316984    1.4644394   0.70515924  0.066666667    1.3960345        1e-08 1.7628981e-09    5.6724776    2.5108446    30.403515 0.0018422536  -0.21287387 0.0085290668   0.19121978    -1.166973    1.5846428 
 1866000    4.1812505    1.2812749    2.8999756  -0.21875277   0.85427435    1.0021706   0.76225282   -1.2465374            1     1.652955    2.2636412    2.2346398   0.46058409   0.01131808 -0.069810109 -0.044019572    1.4920815    1.5211424    0.7100975  0.066666667    1.4163821        1e-08 1.7752438e-09    5.6330293    2.4794029    30.403515 0.0020294092  -0.20825824 -0.0021503628   0.18560667  -0.77613505    4.2916107 
 1867000    4.1664769    1.2587678    2.9077092  -0.21616584   0.83926802    0.9938142   0.74309964   -1.2465374            1    1.5700401    2.1861398    2.1763001   0.34768028 -0.001817101  -0.05825573  0.024618739    1.4132088    1.4393265   0.70962901  0.066666667    1.4203029        1e-08 1.7740725e-09    5.6367481    2.4954151    30.403515 0.0035831128  -0.20157829 -0.0042281739   0.22115614    1.2642148    -0.463962 
 1868000    4.1640837    1.2806647     2.883419  -0.22926656   0.85386755    1.0069345   0.75862353   -1.2465374            1    1.5944987    2.1924381    2.2068062   0.38425181 -0.0018453408  0.082138205  0.006381703    1.4343911    1.4620594    0.6984923  0.066666667    1.4167591        1e-08 1.7462308e-09      5.72662    2.4865379    30.403515 0.0020089167  -0.16929243  0.013093499   0.20708581     1.545331    1.8754953 
 1869000    4.1789085    1.2710807    2.9078277  -0.21142215   0.84747755   0.99212111   0.75748193   -1.2465374            1     1.582839    2.1911902    2.1897768   0.36754999 -0.017439478   0.11873662  0.024179927    1.4229723    1.4523481   0.69870463  0.066666667    1.4127102        1e-08 1.7467616e-09    5.7248797     2.490634    30.403515 0.0086085259  -0.19770123 -0.019805792   0.23038807    1.0220183    3.6906338 
 1870000    4.1760052    1.2748547    2.9011505  -0.22730667   0.84999377   0.97968753   0.76931535   -1.2465374            1    1.7013981    2.2835895    2.2851849   0.53542005 0.0016764628   0.17709393 -0.020859151     1.539034    1.5725426   0.71374508  0.066666667    1.4286484        1e-08 1.7843627e-09    5.6042418    2.5041504    30.403515 -0.0088406672  -0.18587104  0.009928309   0.19901582   0.66002941   0.99627438 
 1871000    4.1683319    1.2619631    2.9063688  -0.21785789   0.84139846   0.99954285   0.74298802   -1.2465374            1    1.6360249    2.2376835    2.2561279   0.41426335   0.01737075  0.021380809 -0.0035606058    1.4792171    1.5045578   0.71895823  0.066666667    1.4043994        1e-08 1.7973956e-09    5.5636056    2.4990422    30.403515  0.014807434   -0.2172101 -0.010371687   0.19975956   0.43502205    2.0843098 
 1872000    4.1358233    1.2600039    2.8758194  -0.22156954   0.84009221    0.9939753    0.7443372   -1.2465374            1    1.4690003    2.1187113    2.1116265   0.17666318 -0.0047172332 -0.0046243699 -0.072625882    1.3119078    1.3382655   0.70574729  0.066666667    1.4152167        1e-08 1.7643682e-09    5.6677511    2.4945309    30.403515 0.0053586616  -0.18075546 0.0083335092   0.15933381    1.3000834   -1.0303978 
 1873000    4.1510474    1.2646542    2.8863932  -0.21782696   0.84319271   0.98125376   0.75729859   -1.2465374            1    1.6031662    2.2110614    2.2203564   0.37808078 0.0007880056  0.056655653 -0.033694653    1.4433382    1.4741046   0.70218466  0.066666667    1.4453512        1e-08 1.7554616e-09    5.6965072    2.5042631    30.403515 -0.014434863    -0.187974 -0.0011503227   0.18622097   -1.2406901  -0.38208533 
 1874000    4.1511589    1.2612635    2.8898954   -0.2151976   0.84093202   0.98995409   0.74820656   -1.2465374            1    1.5503712    2.1977651    2.1562157   0.29713283 0.0088998922 0.0076024929 -0.021397504    1.3924621    1.4201653   0.71774234  0.066666667    1.4475847        1e-08 1.7943559e-09    5.5730305    2.4705888    30.403515 0.0023500589    -0.204464 0.0031603284   0.22993538    -1.653262    3.2111686 
 1875000    4.1370305    1.2531972    2.8838334  -0.23039902   0.83555389   0.98396737   0.74320678   -1.2465374            1    1.6755556     2.273968    2.2569554   0.49574345  0.012276647  0.051360599 -0.044045747    1.5187017    1.5461372    0.7146649  0.066666667    1.4569023        1e-08 1.7866622e-09    5.5970288    2.5035864    30.403515  -0.01884401  -0.18247231 -0.0077696313   0.19385526   -1.7816758     2.555263 
 1876000    4.1612853    1.2750279    2.8862574  -0.21551123   0.85010928   0.99157362   0.76209542   -1.2465374            1    1.5983827    2.2144554    2.1960556   0.38463693  0.017683783 -0.055134236  0.020226586    1.4375423    1.4679638    0.6941395  0.066666667    1.4646207        1e-08 1.7353488e-09    5.7625304    2.4935868    30.403515 -0.0053583998  -0.17158666  0.011555428   0.21565793   -1.5151169    1.1837468 
 1877000    4.1640856    1.2726399    2.8914457  -0.22971574   0.84851708   0.98331417   0.76465799   -1.2465374            1    1.4509844    2.1077001    2.0897947   0.15545828 -0.00061749829  0.010532813 -0.0093112873    1.2896032    1.3216518   0.70356665  0.066666667     1.434542        1e-08 1.7589166e-09    5.6853178    2.4969983    30.403515 0.00082575239  -0.17345374 0.0081773491   0.17613286   0.10166567  -0.34308633 
 1878000    4.1499345    1.2516222    2.8983122  -0.21686783   0.83450384   0.98188647   0.74279897   -1.2465374            1    1.7682396    2.3297102     2.323059   0.65194953 -0.011505944   0.15085662 -0.058785101    1.6114718    1.6390948   0.71761197  0.066666667    1.4291427        1e-08 1.7940299e-09     5.574043    2.4805314    30.403515 -0.0075854913  -0.24250638 0.0027942964   0.18307642  -0.78601724    2.1450422 
 1879000      4.13667    1.2473208    2.8893491  -0.22693909   0.83163593   0.97295263   0.74371088   -1.2465374            1    1.5902922      2.19419     2.201549    0.3751375  0.014390287 -0.073905561  0.025973562    1.4333319    1.4623225   0.70144941  0.066666667    1.4027797        1e-08 1.7536235e-09    5.7024782    2.4874736    30.403515 0.0074453435  -0.17984016 -0.010179288   0.17560429   0.38180721 -0.048585876 
 1880000    4.1806506    1.2588009    2.9218497  -0.21497602   0.83929013   0.97766383   0.75320049   -1.2465374            1    1.5009492      2.13364    2.1343986   0.23480911  0.010035013  -0.09956588 -0.027455167    1.3419861    1.3723598   0.69390593  0.066666667    1.4205231        1e-08 1.7347648e-09    5.7644701    2.4664235    30.403515  -0.00827182  -0.17431631 -0.0022266152   0.19704324   0.65146595    4.8230056 
 1881000    4.1631486    1.2582823    2.9048664   -0.2254862   0.83894432   0.98787851   0.74627328   -1.2465374            1     1.679831    2.2700157    2.2576536   0.51182351 -0.0045481107  -0.18430007 0.0021652548    1.5223299    1.5498981   0.70873579  0.066666667    1.3943405        1e-08 1.7718395e-09    5.6438521    2.4880413    30.403515  0.006295272  -0.19248592 -0.0049145758   0.21392553   0.32455968   0.76001318 
 1882000     4.159293    1.2741693    2.8851237  -0.21624376   0.84953683     1.002404   0.75441657   -1.2465374            1    1.5274008    2.1520623    2.1774791   0.25266095  0.012805321 -0.069389827 -0.012346608     1.368181    1.3955574   0.71045822  0.066666667    1.3793547        1e-08 1.7761456e-09    5.6301692    2.4788258    30.403515 0.0031045623  -0.19755787 0.0023617104   0.20021542   0.27302464   -1.3435011 
 1883000    4.1670474    1.2791367    2.8879107  -0.22075083   0.85284876    1.0028041   0.75954376   -1.2465374            1    1.5991334    2.2052734    2.2198002   0.37232651 0.0025897771  0.017781588 -0.0046788309    1.4388316    1.4672374   0.69701833  0.066666667    1.4108491        1e-08 1.7425458e-09      5.73873    2.4878643    30.403515 -0.0040500648  -0.18377194  0.007838462    0.2101603    1.1618215    2.3745172 
 1884000    4.1391909    1.2694113    2.8697796  -0.20970931    0.8463645    1.0048659   0.74773246   -1.2465374            1    1.6615579    2.2537287    2.2925128   0.43843229 -0.014204322  0.089568532 -0.014978365    1.5037489    1.5293908   0.69595403  0.066666667    1.3899175        1e-08 1.7398851e-09     5.747506    2.4739945    30.403515 0.0023736726  -0.19772222 -0.0035611995   0.21613556    1.0929794    1.6266084 
 1885000    4.1817456     1.270239    2.9115065  -0.21679635   0.84691636    1.0060974   0.74786084   -1.2465374            1    1.6291121    2.2191834    2.2399412   0.42821163  0.002174913   0.14014144 -0.018702628    1.4712759    1.4967829   0.70804974  0.066666667     1.385253        1e-08 1.7701243e-09    5.6493207    2.4911531    30.403515 -0.0013981537  -0.23341805 0.0093976476   0.19709151  -0.14898547  -0.18563392 
 1886000    4.1412674    1.2580958    2.8831717  -0.21083818   0.83881998      1.01336   0.73019128   -1.2465374            1    1.5465436    2.1820367    2.1691737   0.28842027 -0.00038457837  0.048851723 0.0064004564    1.3924366    1.4132592    0.7022532  0.066666667    1.3708836        1e-08 1.755633e-09    5.6959513    2.4886045    30.403515 -0.00028487495   -0.1956561 -0.0075552616   0.18187397   0.48158855   0.11280404 
 1887000    4.1591402    1.2582328    2.9009074    -0.211181   0.83891133    1.0103941   0.73218792   -1.2465374            1    1.5828772    2.1803906    2.1831791    0.3850618 -0.021387484 -0.056414933 -0.0027970411    1.4283488    1.4499829    0.6987671  0.066666667    1.3959791        1e-08 1.7469178e-09    5.7243679    2.4760318    30.403515 0.0082384596  -0.22308316 -0.0050655793   0.19213721  -0.30114996  0.095869468 
 1888000    4.1595294     1.269381    2.8901484  -0.22349597   0.84634429    1.0157503   0.74091645   -1.2465374            1     1.544074    2.1860639    2.1618987   0.28425952  0.009323037 -0.029490363 -0.035197398    1.3877035    1.4104752   0.70188787  0.066666667    1.3865628        1e-08 1.7547197e-09     5.698916    2.4805817    30.403515 0.0086355595  -0.18386469 -0.0090306356   0.17340558   0.38123153  -0.36861742 
 1889000     4.182622    1.2757549    2.9068671  -0.21764576   0.85059397    1.0104677   0.75110738   -1.2465374            1    1.6170022    2.2314482    2.2367865    0.3827721 -0.0018585821 0.0058786833  0.024501376    1.4584809    1.4840983   0.70477095  0.066666667    1.3985671        1e-08 1.7619274e-09    5.6756028     2.488796    30.403515 -0.007166211  -0.20269246 0.0028707678    0.1921125   0.83274673  -0.66629296 
 1890000    4.1761026    1.2777258    2.8983768  -0.21446163   0.85190803    1.0221891   0.74593577   -1.2465374            1    1.5846045    2.2079956    2.2119921   0.33382577 0.0029706424  0.033673137  0.022209275    1.4271746    1.4501588   0.69930948  0.066666667    1.3946719        1e-08 1.7482737e-09    5.7199281    2.4742718    30.403515 0.0035433538  -0.16923474 -0.0076797162   0.18962989    1.0252931  -0.92798554 
 1891000    4.1960857    1.3004574    2.8956283  -0.21542204   0.86706408    1.0069588   0.78003132   -1.2465374            1    1.5842889    2.1904207    2.2327442    0.3297017  0.010288282 -0.079661091  0.019055435    1.4196631    1.4518464   0.70041776  0.066666667    1.4036321        1e-08 1.7510444e-09    5.7108774    2.4869207    30.403515  0.007299059  -0.18227193 0.00065663629   0.18442123 0.0020167189   0.66322455 
 1892000    4.1622611    1.2603183    2.9019428  -0.21526814   0.84030181    1.0123578   0.73322142   -1.2465374            1    1.6191349    2.2103987    2.2447248   0.40228126  0.012411954    0.1350383  0.007191735    1.4643884    1.4859824   0.69750323  0.066666667    1.4281721        1e-08 1.7437581e-09    5.7347404    2.4800868    30.403515 -0.019853124   -0.1922105 -0.010971181   0.19197103   -3.0743977    2.4703101 
 1893000    4.1746592    1.2642097    2.9104495  -0.21431019   0.84289639    1.0060633   0.74135617   -1.2465374            1    1.4214743     2.073526    2.0826618   0.10823529 -0.0071159212  0.014297241   0.01888366     1.265011    1.2891497   0.70047786  0.066666667    1.4295614        1e-08 1.7511946e-09    5.7103875    2.4801292    30.403515 0.0062033058  -0.16608213 -0.0045824916   0.22019526  -0.95871882  -0.67365023 
 1894000    4.1656731    1.2777382    2.8879348  -0.22396033   0.85191635    1.0021938   0.75841042   -1.2465374            1    1.5494224    2.1588388    2.1770824   0.31234605  0.037510707  0.050559838 -0.013827244    1.3893598    1.4176067   0.70900917  0.066666667    1.4380312        1e-08 1.7725229e-09    5.6416759     2.482484    30.403515 -0.0082677903  -0.23738516 -0.0047172894   0.19511509   -3.0309768   0.89888252 
 1895000    4.1632856    1.2629651    2.9003205  -0.21351597   0.84206653   0.99576929   0.74642425   -1.2465374            1    1.6174737    2.2326042    2.2536621   0.36615496  0.021418196  -0.14583397  0.066227404    1.4599408     1.486503   0.69970773  0.066666667     1.419271        1e-08 1.7492693e-09    5.7166726    2.4851411    30.403515  0.013343339  -0.18603058 -0.00062387524   0.16542059  -0.98370031    2.0756902 
 1896000    4.1761117    1.2696759    2.9064358  -0.21397278   0.84654086    1.0023803   0.74956779   -1.2465374            1    1.5224953    2.1498766    2.1633096   0.25429967  0.013736363 -0.021923376 -0.048665443    1.3642989     1.390655   0.69945805  0.066666667    1.4381447        1e-08 1.7486451e-09    5.7187132      2.49724    30.403515 0.0049552084  -0.21818621 -0.017237987   0.24208604 -0.045717329    1.3099751 
 1897000    4.1664825    1.2741983    2.8922842  -0.22224193   0.84955617    1.0144004   0.74697176   -1.2465374            1    1.6300914    2.2230753    2.2473186   0.41988028  0.017734789   0.02488718 -0.051003382    1.4724429    1.4966702   0.70289951  0.066666667    1.4143474        1e-08 1.7572488e-09    5.6907138    2.4711567    30.403515 -0.010163301  -0.16421403 0.0038298624   0.17333338   -1.5093728    2.5012927 
 1898000    4.1737116    1.2530565    2.9206551   -0.2114854   0.83546008    1.0024194    0.7315551   -1.2465374            1    1.5771149    2.1877777    2.1992765   0.34429041 -0.0016950848 -0.022442314  -0.11124367      1.42272    1.4452694   0.70698396  0.066666667    1.4163681        1e-08 1.7674599e-09     5.657837     2.483858    30.403515 -0.0052226025  -0.21096248 -0.011852299   0.17645098   -1.6498731   0.70813847 
 1899000     4.187003    1.2794054    2.9075976  -0.21153654   0.85302789   0.99895752   0.76223175   -1.2465374            1     1.578541    2.1946556    2.1900032   0.35096431 -0.017170829 -0.010909917 0.0073808385    1.4176719    1.4471509   0.70300271  0.066666667     1.410036        1e-08 1.7575068e-09    5.6898785     2.485558    30.403515  0.014355878  -0.17237577 -0.0057166638   0.21689589   -1.9331531   -1.2948897 
 1900000    4.2058333    1.2918797    2.9139536   -0.2050792   0.86134498    1.0134209   0.76671988   -1.2465374            1    1.6069514    2.2436402    2.2252984   0.35191558 -0.0043904058  0.016604879  0.015069126     1.445135     1.473659   0.70329735  0.066666667    1.4249968        1e-08 1.7582434e-09    5.6874948    2.4846271    30.403515 -0.0025485196  -0.19178503 -0.0012541394   0.20885725   0.16157199    2.7317632 
 1901000    4.1757389      1.28592    2.8898189  -0.21986374   0.85737146    1.0185402   0.75707901   -1.2465374            1    1.6700324    2.2735026    2.2611731   0.47542136 0.0063818823  0.086948703 -0.023654845    1.5102507    1.5360666   0.70605127  0.066666667    1.4279016        1e-08 1.7651282e-09     5.665311    2.5116502    30.403515 0.0042788598  -0.19222017 -0.0014840352   0.18124523   -1.1786142 0.0018162667 
 1902000    4.1709803     1.262321    2.9086593  -0.21140225   0.84163708      1.02119   0.72988483   -1.2465374            1      1.58594    2.2044021    2.1963103   0.35710769 -0.0085385353 -0.011798352 -0.0070411025    1.4318977    1.4516258   0.70598981  0.066666667     1.425683        1e-08 1.7649745e-09    5.6658042    2.4975778    30.403515 0.00060359241  -0.18102066 -0.0024296493    0.1764179   0.13962045    1.8983261 
 1903000    4.1765998    1.2713483    2.9052515  -0.21121236   0.84765593    1.0147191   0.74368839   -1.2465374            1    1.5748294    2.2061626    2.1965635   0.32176199 0.0089343836 -0.030580217 0.0070451562    1.4178738    1.4413662   0.71770975  0.066666667    1.4292022        1e-08 1.7942744e-09    5.5732836    2.4948718    30.403515 0.0029780464  -0.19172928 -0.0053278525   0.20737126    1.2069554    1.9296231 
 1904000    4.1817888    1.2829393    2.8988495  -0.22734005   0.85538408   0.99652547    0.7675724   -1.2465374            1    1.7520924    2.3137819     2.317631   0.62486434 -0.0047019698 0.0078963011 -0.0036821381    1.5900961    1.6210222   0.70226133  0.066666667    1.4451095        1e-08 1.7556533e-09    5.6958853     2.505424    30.403515 0.0036101036    -0.194003 0.0018350626   0.22263365    1.0491496    2.5926712 
 1905000    4.1701524     1.266991    2.9031614  -0.21970954   0.84475077   0.98649175   0.75656358   -1.2465374            1    1.6053573     2.211971    2.2099498   0.39415121 -0.012977744 0.0087940795 -0.054933011    1.4456845    1.4756068   0.68947984  0.066666667      1.43795        1e-08 1.7236996e-09    5.8014749    2.4714643    30.403515 -0.0088211131  -0.18941066  0.012222157   0.18002248     1.003805    1.9304138 
 1906000    4.1767759    1.2788047    2.8979712   -0.2080265   0.85262741    1.0178764   0.74979131   -1.2465374            1    1.5662855    2.2099033    2.1892389   0.29971422   0.01075369 -0.059191023 -0.040418047    1.4080419    1.4324071   0.70017443  0.066666667    1.4195247        1e-08 1.7504361e-09    5.7128621    2.4902677    30.403515  -0.00258334  -0.21454947  0.016791969   0.19909853   0.49196843   -1.5828165 
 1907000    4.2103299    1.2897384    2.9205915   -0.2104422   0.85991733    1.0260153   0.75655342   -1.2465374            1    1.5956381    2.2118482    2.2641884   0.31087774 -0.033907066    0.1549396 -0.052744207    1.4359674    1.4606892   0.71198689  0.066666667    1.4187522        1e-08 1.7799672e-09     5.618081     2.484745    30.403515 -0.0001796777  -0.17210026  0.011554791   0.18611144   -1.3636792     2.303066 
 1908000    4.2085968    1.2818495    2.9267473  -0.20934335   0.85465748    1.0168252   0.75374201   -1.2465374            1    1.6671982    2.2824571    2.2581829   0.46095461 -0.031820435   0.10617368  0.053346995    1.5081208    1.5334581   0.70781138  0.066666667    1.4181544        1e-08 1.7695284e-09    5.6512231    2.4938708    30.403515 -0.013639251  -0.23318305 -0.0087977144   0.17411225   0.24516728    1.6643479 
 1909000    4.1698249    1.2551244    2.9147005  -0.20909781   0.83683888    1.0020772   0.73400667   -1.2465374            1    1.5336696    2.1508663    2.1793648   0.27077786 -0.0087950822  0.036798525  0.067957138    1.3787574    1.4018692   0.69497089  0.066666667    1.4546031        1e-08 1.7374272e-09    5.7556367     2.480043    30.403515  0.021159478  -0.19170154 -0.0053485567   0.18572007   0.81486189    2.6008326 
 1910000    4.1602016    1.2660868    2.8941148  -0.22091228   0.84414792    1.0154096   0.73756323   -1.2465374            1     1.575754    2.1777149    2.2279464   0.32160073 0.0071673847  0.076659247   0.05736658    1.4200912       1.4422   0.69650195  0.066666667    1.4418999        1e-08 1.7412549e-09    5.7429846    2.4882996    30.403515 -0.012469784  -0.18780065 -0.005821985     0.203013   0.70179508    3.0057486 
 1911000    4.1896706    1.2702237    2.9194469  -0.21457972   0.84690613    1.0017692   0.75054158   -1.2465374            1    1.5517481    2.1969121     2.180619   0.27771326 -0.0081873152  0.010902605 -0.037892324    1.3933462    1.4199882   0.70083458  0.066666667     1.452127        1e-08 1.7520864e-09     5.707481    2.4802218    30.403515 -0.0042474736  -0.20869615 0.0045084331   0.21430977   0.41173843    2.4872034 
 1912000    4.1767974    1.2725805    2.9042168  -0.21057733   0.84847753    1.0044833   0.75140111   -1.2465374            1    1.5327404    2.1849272    2.1770594   0.23623475 0.00025157102  0.029515863 -0.0081404473    1.3741571    1.4006236   0.70160115  0.066666667    1.4395901        1e-08 1.7540029e-09    5.7012449    2.4901958    30.403515  0.012174574  -0.17876381   0.01299611   0.17810662   0.44530733    4.1005251 
 1913000    4.2077799     1.277924    2.9298559  -0.22152709    0.8520402    1.0137824   0.75138947   -1.2465374            1    1.5849435    2.2136172    2.1924648   0.34874847 0.00013628964  -0.08698887  0.020150484    1.4263626    1.4516035   0.70373856  0.066666667    1.4143701        1e-08 1.7593464e-09     5.683929    2.4820131    30.403515 0.0078086957  -0.19783534 0.0053040937   0.20839702   0.37173296    2.1139789 
 1914000    4.1571608    1.2532426    2.9039181  -0.21856377   0.83558421    0.9899038   0.73955639   -1.2465374            1    1.6001679     2.204605    2.1874154   0.40848337 -0.018918338 -0.067323609 -0.014844771    1.4440844    1.4699687   0.69526056  0.066666667    1.4188246        1e-08 1.7381514e-09    5.7532388    2.4806544    30.403515 0.0040287566  -0.17818682 0.00046359636   0.20426451  -0.56162702   0.14617665 
 1915000    4.1832261    1.2732797    2.9099464  -0.21559983   0.84894368   0.98462652   0.76453267   -1.2465374            1     1.610637    2.2148985    2.2478642   0.36914837  0.019758464 -0.034220512 -0.0014697407    1.4492823    1.4811319   0.69706148  0.066666667    1.3866951        1e-08 1.7426537e-09    5.7383747     2.492857    30.403515 -0.014111931  -0.17210128 0.0034213194   0.22446637    -1.147181    2.3728175 
 1916000    4.1581731    1.2574403    2.9007328  -0.21801872   0.83838296    1.0043827   0.73507652   -1.2465374            1     1.595012     2.207073      2.19933   0.37863311 -0.019621664 -0.061514051  0.012834345     1.439874    1.4629084   0.70342671  0.066666667     1.400173        1e-08 1.7585668e-09    5.6864488    2.4898962    30.403515 0.0032942182  -0.18767629 -0.013562086   0.19667199   -1.0261492    1.7125634 
 1917000    4.1646829    1.2815065    2.8831763   -0.2212209   0.85442881    1.0170681   0.75321938   -1.2465374            1    1.6275197    2.2481604    2.2465164   0.38788242 -0.0015503095 -0.073788841  0.079893713    1.4685527    1.4937476   0.70680521  0.066666667     1.411363        1e-08 1.767013e-09    5.6592678    2.4981858    30.403515 -0.0014887932  -0.20887853 0.0051718669   0.18343948    0.6611654    3.3837417 
 1918000    4.1654934    1.2621904     2.903303  -0.22632129   0.84155003   0.99402743   0.74667131   -1.2465374            1    1.6775101    2.2841695    2.2732805   0.47508027 -0.006850162  0.013683353 -0.046775426     1.519925    1.5467684   0.70980134  0.066666667    1.4363872        1e-08 1.7745034e-09    5.6353796    2.5067636    30.403515 0.0043109312   -0.2189201 0.0091793096   0.16904799    1.6216904     3.774319 
 1919000    4.1483871    1.2659481     2.882439  -0.20949595   0.84405543   0.99630281   0.74932049   -1.2465374            1    1.4560958    2.1039617    2.1151236   0.14920194 -0.0078956517 -0.055030896 -0.022528024    1.2979516    1.3250549   0.69806107  0.066666667    1.4317253        1e-08 1.7451527e-09    5.7301577    2.4866818    30.403515 0.0072134792   -0.2142507  0.010425218   0.22419917    1.8516073   0.37054122 
 1920000    4.1545119    1.2608836    2.8936283  -0.21720295   0.84067874   0.99514044   0.74456325   -1.2465374            1     1.603709    2.2270745    2.2114813    0.3725713 0.0067759807 -0.0038836562 -0.064457744    1.4465688     1.472821   0.70219153  0.066666667    1.3966843        1e-08 1.7554788e-09    5.6964515     2.496745    30.403515 0.00046591219  -0.14801198  0.017401154   0.15943613  0.028100682    4.2439241 
 1921000    4.1458797    1.2577349    2.8881448  -0.22480274   0.83857938   0.99831661    0.7391758   -1.2465374            1    1.3254002    2.0081127    2.0395194 -0.071431529 -0.017462011 -0.064503511  0.036827675     1.169397    1.1940944   0.70851893  0.066666667    1.3631969        1e-08 1.7712973e-09    5.6455795     2.477507    30.403515  0.010724912  -0.19680386 0.0013154138   0.17254212     1.209969   -0.8855488 
 1922000    4.1571083    1.2582332    2.8988751  -0.23085885   0.83891159   0.99197383   0.74366794   -1.2465374            1    1.6364971    2.2468583    2.2340856   0.42854751 -0.010683996 -0.070303592  0.067472287    1.4795459    1.5060256   0.71467617  0.066666667    1.3649016        1e-08 1.7866904e-09    5.5969405    2.5234789    30.403515 0.0052468792  -0.20217605 -0.0017015655   0.19160884  -0.20064636    3.9074523 
 1923000    4.1484646    1.2534487    2.8950159  -0.21250106    0.8357216   0.98343538   0.74381058   -1.2465374            1    1.5765957     2.188697    2.2116426   0.32944749  -0.02515901  -0.17209792 0.0011435819    1.4196144    1.4472472   0.70185863  0.066666667    1.3833733        1e-08 1.7546466e-09    5.6991534    2.5090063    30.403515 -0.014954453  -0.19520289 -0.0074970809   0.17081042    2.2191792     1.292586 
 1924000    4.1456132    1.2491852     2.896428   -0.2143108   0.83287898   0.97245725   0.74603754   -1.2465374            1    1.5165102    2.1655216    2.1529528   0.23105617 -0.013176277  0.025554286 -0.0054758859    1.3590589    1.3886056   0.69654344  0.066666667    1.3638288        1e-08 1.7413586e-09    5.7426426    2.4838984    30.403515 -0.011152928  -0.24461351 0.00016278219   0.17480366   0.63768606    2.7576938 
 1925000    4.1270583    1.2362924    2.8907659  -0.21565554   0.82428284   0.96286738    0.7380592   -1.2465374            1    1.7774961    2.3493781     2.340009   0.64310109 -0.015317404  -0.10035871 -0.0087832797    1.6217286    1.6508528   0.70222143  0.066666667    1.3662124        1e-08 1.7555536e-09     5.696209    2.4783406    30.403515  0.003135739  -0.20500292 -0.0047779333   0.22183016   0.73970485    3.4194959 
 1926000    4.1472114     1.255029    2.8921825  -0.21465726   0.83677522   0.99822469   0.73630424   -1.2465374            1    1.5910799    2.2166113    2.2137859   0.34284244  0.010310717 -0.095668466 -0.045407396    1.4356828    1.4597862   0.71074095  0.066666667    1.3719579        1e-08 1.7768524e-09    5.6279295    2.5118312    30.403515 0.0069742418  -0.22347756  0.005636063   0.20741358    1.7156832   -1.2936932 
 1927000    4.1776607     1.260098    2.9175627  -0.22077504   0.84015494   0.98723368   0.74864044   -1.2465374            1     1.524128    2.1340982    2.1723158   0.26596987  0.016931645 -0.0065054079 -0.040247009    1.3661273    1.3942799   0.70310029  0.066666667    1.3734686        1e-08 1.7577507e-09    5.6890888    2.5020389    30.403515 -0.00095033363  -0.21494375 0.0047187941   0.18257578   0.49783684 -0.015901758 
 1928000    4.1741638    1.2641738      2.90999  -0.21052936   0.84287245   0.99742807   0.74669881   -1.2465374            1    1.5892725     2.229431    2.1964144   0.34197225 0.0053210528  0.049829995  0.035056363    1.4316816    1.4580836   0.69645156  0.066666667    1.3813893        1e-08 1.7411289e-09    5.7434001    2.4868619    30.403515 0.0092225526  -0.17394019 -0.0011078856   0.20013189     1.387105   0.30918665 
 1929000    4.1741784    1.2839125    2.8902659  -0.22015244   0.85603299    1.0160593   0.75645224   -1.2465374            1    1.6744989    2.3034248    2.2685031   0.45156892  0.011653959   0.02650477 -0.025231354    1.5148496    1.5408595   0.70859065  0.066666667    1.3840716        1e-08 1.7714766e-09    5.6450081     2.499385    30.403515 -0.0042870137  -0.19278012 -0.0056229515   0.17114893   0.73288146    4.9419828 
 1930000     4.190022    1.2882022    2.9018198  -0.22201523   0.85889308    1.0183887   0.75964359   -1.2465374            1    1.5641179    2.1969882    2.1847439    0.3106217  0.017644714   0.15081937 -0.019575727     1.403795    1.4301721    0.7115915  0.066666667    1.4024844        1e-08 1.7789788e-09    5.6212026    2.4870841    30.403515 -0.0036287151  -0.22133344  -0.01036016   0.21053383   -1.2117082    1.8220936 
 1931000     4.163868    1.2608318    2.9030362  -0.22864562   0.84064419   0.98966803   0.74791759   -1.2465374            1    1.5790625    2.1933993    2.1852504   0.35853765  0.019169903  0.016048747 -0.011548485    1.4212143    1.4488942   0.70213822  0.066666667    1.3809624        1e-08 1.7553455e-09     5.696884    2.5078222    30.403515 0.0024025053  -0.19309245   0.01547463   0.19267557    1.2248101   0.15587854 
 1932000    4.1551929    1.2814286    2.8737643  -0.22507101   0.85437685    1.0233287   0.74923339   -1.2465374            1    1.5967517    2.2152169    2.2143723   0.36066591 -0.0029032394  0.026341618 -0.049959793    1.4386259    1.4621561   0.70524771  0.066666667     1.396765        1e-08 1.7631193e-09    5.6717661    2.4968496    30.403515 0.0037923287  -0.17375843 -0.0030086389   0.17526603  0.033462706    2.3995216 
 1933000    4.1618266    1.2725056     2.889321  -0.22779469   0.84842754    1.0162221   0.74400428   -1.2465374            1    1.6475457    2.2441345    2.2654591   0.43304355 -0.0011752127  0.026641637 -0.016716122    1.4905235    1.5138849   0.71311493  0.066666667    1.4035979        1e-08 1.7827873e-09     5.609194    2.4943245    30.403515 0.0054031421  -0.17837466   0.01046935   0.18160461   -1.4361654      2.89958 
 1934000    4.1628785     1.258243    2.9046355  -0.21061803   0.83891817   0.99335137   0.74282012   -1.2465374            1    1.5791225    2.2014138    2.2181865   0.31776721 0.0030070671  0.049416633 0.0054658091    1.4223502    1.4484698   0.70395875  0.066666667    1.3970783        1e-08 1.7598969e-09    5.6821511    2.4886528    30.403515 0.0029130436  -0.16462494 0.0049827985   0.19576313   -1.7069339    1.4507424 
 1935000    4.1712778    1.2680891    2.9031886  -0.22285407   0.84548293    0.9959455   0.75186055   -1.2465374            1    1.5007273    2.1192133     2.152636   0.23033275 0.00081626702   0.00413582  0.027306191    1.3420471    1.3697334   0.69709146  0.066666667    1.4124458        1e-08 1.7427286e-09     5.738128    2.4910186    30.403515  0.013735812  -0.18028641  0.002149894   0.16860918   -4.0269863    2.3923803 
 1936000    4.1743703    1.2668572    2.9075132  -0.21365037   0.84466154   0.99545552   0.75083247   -1.2465374            1    1.6542199    2.2639809    2.2796152   0.41906361 -0.008387612   0.10294848   0.05191238    1.4957566    1.5232904   0.70962339  0.066666667    1.3821812        1e-08 1.7740585e-09    5.6367927    2.5002421    30.403515 0.00046015633  -0.17162555 0.0030028708   0.18972977   -3.1462392    2.0273903 
 1937000    4.1304279    1.2729307    2.8574972  -0.22109497   0.84871098    1.0189281   0.74277806   -1.2465374            1    1.6712385    2.2658636    2.3167151   0.43113684  0.026750074   0.15785356  0.032672278    1.5144751    1.5372218   0.70824811  0.066666667    1.3864149        1e-08 1.7706203e-09    5.6477383     2.485584    30.403515 -0.00081773949  -0.20837763 0.0022433189   0.19554937   -1.6912705    2.7901036 
 1938000    4.1441639    1.2600852    2.8840787  -0.22558787   0.84014641   0.99400793   0.74440485   -1.2465374            1      1.35136    2.0121942    2.0319921 0.0098935677 0.0094754624  0.052844745  0.071041564    1.1942532    1.2206209   0.70576702  0.066666667    1.3840532        1e-08 1.7644176e-09    5.6675927    2.5168823    30.403515 0.0012361433  -0.19293424 0.0039524377    0.2323841  -0.38644134   -1.1038088 
 1939000    4.1478772    1.2564844    2.8913928  -0.21488037   0.83774565   0.99642259   0.73900269   -1.2465374            1    1.5652299    2.1962184    2.2150769   0.28439434 0.0085235895 0.00018818836 -0.0022292833    1.4092633    1.4341732   0.69844993  0.066666667    1.3985447        1e-08 1.7461248e-09    5.7269675     2.513714    30.403515 -0.0057187504  -0.15235561   0.01435618   0.17244498    2.0318254    2.6664829 
 1940000    4.1840951     1.288338    2.8957571  -0.22819354   0.85898359   0.99410096   0.77492673   -1.2465374            1    1.5545047    2.1411268    2.2055934   0.31679391 -0.0020385839   0.15581463 0.0099147062    1.3909563    1.4237534   0.71416274  0.066666667    1.4117636        1e-08 1.7854068e-09    5.6009643    2.4949792    30.403515 0.0042762618  -0.20940481 -0.0029829191   0.19856978   0.74912903    2.0871751 
 1941000    4.1925069    1.3011057    2.8914012  -0.22095047   0.86749632    1.0268873   0.76831355   -1.2465374            1    1.5093026    2.1434688    2.1479628   0.23647622 -0.011686919  0.079829053 -0.017891483    1.3471499     1.374239   0.72125808  0.066666667    1.4392111        1e-08 1.8031452e-09    5.5458651    2.5061808    30.403515 -0.013973101  -0.17685487  0.004146424    0.2017303   0.29538528  -0.49868053 
 1942000    4.1764848    1.2848904    2.8915944   -0.2171132   0.85668499   0.99601603   0.77000174   -1.2465374            1    1.5315667    2.1557336    2.1687835   0.27018292 0.0099480518     0.082041  0.029071266    1.3690577    1.4005635   0.69587943  0.066666667    1.4324649        1e-08 1.7396986e-09    5.7481222    2.4898685    30.403515 -0.019407833  -0.20877637 0.0063632827   0.14808959   -1.3126293  -0.75890364 
 1943000    4.1616043    1.2645999    2.8970044  -0.22137549   0.84315653   0.98464333   0.75512746   -1.2465374            1    1.6492994    2.2471886    2.2500194   0.45069028 -0.0069738886 -0.082363512  0.026807979    1.4899296     1.519792    0.7033046  0.066666667    1.4089668        1e-08 1.7582615e-09    5.6874361    2.4900403    30.403515 -0.0046362011  -0.19853196  0.003146061    0.1932504     0.206194    2.8819159 
 1944000    4.1740022    1.2819359    2.8920662  -0.21648672   0.85471511    1.0172501   0.75357074   -1.2465374            1     1.540973    2.1850705     2.160461   0.27738735  0.015339906 -0.083641533 0.0077376542    1.3819317    1.4071769   0.71410446  0.066666667     1.398479        1e-08 1.7852611e-09    5.6014214    2.4840636    30.403515 -0.0055901106  -0.23130155 0.0064088582   0.19553264   0.72874335   0.98537404 
 1945000    4.1597847    1.2580798    2.9017049  -0.21381995   0.83880933   0.98573192   0.74739191   -1.2465374            1    1.5612294    2.1774125    2.2076023   0.29867347 0.0057947661 -0.036345605  0.042775265    1.4034922    1.4315789    0.7139793  0.066666667    1.3952429        1e-08 1.7849483e-09    5.6024033    2.4867609    30.403515 -0.0046032184  -0.20655579 -0.0024186296    0.1955411  -0.32726108   -0.5857614 
 1946000    4.1879693    1.2690396    2.9189297  -0.21169851   0.84611666    1.0041995   0.74774539   -1.2465374            1    1.7305995    2.3249961    2.3238204     0.542982 0.0018553869 -0.073078107 -0.016796435    1.5727877      1.59852   0.70384827  0.066666667    1.3832525        1e-08 1.7596207e-09    5.6830431    2.4922649    30.403515  0.015958598  -0.18744298 0.0068674905   0.20163913   0.51955436    2.5615295 
 1947000    4.1562969    1.2778261    2.8784708   -0.2116382   0.85197491    1.0036413   0.75760339   -1.2465374            1    1.6163322    2.2363479    2.2171362   0.39551265  0.014137049 -0.058020698  0.037716337    1.4564399    1.4843261   0.70451654  0.066666667    1.4133654        1e-08 1.7612914e-09    5.6776523    2.5044343    30.403515 -0.00043344622   -0.1860448 0.0056694853   0.15992465    1.2251307    2.1641925 
 1948000    4.1683092      1.27122    2.8970892  -0.22324834   0.84757037    1.0048193   0.74971906   -1.2465374            1    1.5678971    2.2018131    2.1616559   0.34022244 0.0056085032  0.097742673 -0.049357508    1.4096688    1.4357361   0.70767255  0.066666667    1.3994943        1e-08 1.7691814e-09    5.6523317    2.4893777    30.403515 -0.011176891  -0.20185992  0.002797165   0.17999488   0.22181156    1.9076825 
 1949000    4.1596963    1.2680435    2.8916527  -0.22226438   0.84545252   0.99973716    0.7494482   -1.2465374            1    1.5182251    2.1431715    2.1329018   0.27860215 0.0082839558   0.15888808  0.090669166     1.360054    1.3867325   0.70412426  0.066666667    1.4084351        1e-08 1.7603107e-09    5.6808155    2.5011753    30.403515 -0.0027858011  -0.19924978 0.0087062482   0.19051635  -0.10276379   -1.7773204 
 1950000    4.1465461    1.2518447    2.8947013  -0.21228567   0.83465216    1.0038661   0.72934195   -1.2465374            1    1.5403138    2.1729913    2.1702547   0.27769553 -0.022018459   0.12780551 -0.014882925    1.3863861    1.4082781   0.70628463  0.066666667    1.3897778        1e-08 1.7657116e-09    5.6634391    2.4959264    30.403515 -0.0048299198  -0.18360209 0.0093509338    0.1784082 -0.043485754    0.2407497 
 1951000    4.1809011    1.2790499    2.9018512   -0.2150826   0.85279088   0.98770923   0.76885697   -1.2465374            1    1.7080507     2.306231    2.3144932    0.5034279 -0.014462413    0.0874676 -0.015734835    1.5457833    1.5781401    0.7041394  0.066666667    1.3787416        1e-08 1.7603485e-09    5.6806934    2.4979524    30.403515 -6.2950795e-05  -0.20846284 0.0049562739    0.1960563  -0.53172126    1.9756322 
 1952000    4.1551982    1.2634153    2.8917829  -0.21242341   0.84236674   0.98181438   0.75560835   -1.2465374            1    1.4592014    2.1193232    2.1025425   0.15573845  0.017008665 0.0053244477 0.0048387645    1.2997301    1.3300661   0.70965653  0.066666667    1.3660514        1e-08 1.7741413e-09    5.6365296    2.5243002    30.403515 -0.0080247738   -0.1614913 -0.0041000012    0.2031649   -1.1861513      -2.2606 
 1953000    4.1534535    1.2790652    2.8743882  -0.22567837   0.85280112    1.0200037   0.74874755   -1.2465374            1    1.6668213    2.2582232    2.2553872   0.48685345 -0.015782437   0.05352249  0.046745173     1.508798    1.5326631   0.70472196  0.066666667    1.3845991        1e-08 1.7618049e-09    5.6759974    2.4850531    30.403515 -0.0076323297  -0.16272747  0.003079566   0.20289335   -1.2180014    0.9300428 
 1954000    4.1892045    1.2927883    2.8964163  -0.22290431   0.86195078    1.0173647   0.76524556   -1.2465374            1    1.6653079    2.2641548     2.258508    0.4732609 -0.0092827294   0.10509369 -0.042944517    1.5038027    1.5314968   0.71506319  0.066666667    1.3942903        1e-08 1.787658e-09    5.5939112    2.4949014    30.403515  0.017313201  -0.22160973 0.0039849615   0.20888023   -2.4565953   0.71786282 
 1955000    4.1455895    1.2604547    2.8851348  -0.21634643   0.84039276    1.0083797   0.73584823   -1.2465374            1    1.5301723    2.1545749    2.1563399   0.27960214 -0.005373734 -0.014423592 -0.0069620691    1.3748714     1.397543   0.70953274  0.066666667    1.3917024        1e-08 1.7738319e-09    5.6375129    2.5170945    30.403515 0.0026547337  -0.20556187 0.0054054425    0.1900756   0.31057602   -1.3534693 
 1956000     4.140624    1.2509027    2.8897214  -0.21183515   0.83402405   0.97150825   0.74848785   -1.2465374            1    1.6015831    2.2109862    2.2264436   0.36731963  0.012848605  0.065735739  0.041439756    1.4436147    1.4738034   0.70170187  0.066666667     1.385732        1e-08 1.7542547e-09    5.7004266    2.4756891    30.403515 -0.00077600124  -0.21550844 -0.00094684165   0.17083664    1.6574531  -0.14209435 
 1957000    4.1331195    1.2469355     2.886184   -0.2171896     0.831379   0.98551241   0.73546649   -1.2465374            1    1.6562353     2.284735    2.2462389   0.43773198 -0.014796861 -0.069138686  0.037956733     1.501015    1.5266136    0.7100749  0.066666667    1.3800597        1e-08 1.7751873e-09    5.6332085    2.4822802    30.403515  0.011601142  -0.20925033 0.0083552509   0.19067455    2.7638352    2.1057167 
 1958000    4.1727433    1.2876637    2.8850796  -0.21525179   0.85853405    1.0003211   0.77032056   -1.2465374            1    1.5659029    2.1930443    2.1879653   0.31669924  0.025997904  -0.10375514  0.028698921    1.4033267    1.4343335   0.71998112  0.066666667    1.3780328        1e-08 1.7999528e-09    5.5557013    2.5009453    30.403515 0.0075185587  -0.17105284 -0.0027329742   0.16550882    1.7359978   0.99722115 
 1959000    4.1546952    1.2814586    2.8732366  -0.22196938   0.85439685   0.99590417   0.76635694   -1.2465374            1    1.6700541    2.2501958    2.2796552   0.48031132 0.0017307121   0.10742574 -0.038433782    1.5083143    1.5390656   0.71021568  0.066666667    1.3672115        1e-08 1.7755392e-09    5.6320919     2.476512    30.403515  0.016492934  -0.18538524 -0.0093130914    0.2118411   -1.3496821    1.6511237 
 1960000    4.1603785    1.2722012    2.8881772  -0.21438189   0.84822462    1.0062763   0.74987311   -1.2465374            1    1.6429922    2.2647446    2.2414339   0.42279819  0.015074198  0.051814196 0.0069825483    1.4847314    1.5106395   0.70598728  0.066666667    1.4008938        1e-08 1.7649682e-09    5.6658245    2.5048691    30.403515  0.014792061  -0.18591318 0.0042022176   0.17540301   -1.7048101    4.1222854 
 1961000    4.1589583    1.2438637    2.9150947  -0.21580867   0.82933091   0.97735326   0.73722647   -1.2465374            1    1.4547528    2.0954774    2.0714041   0.19737702 0.0023916678 -0.033695929  0.023495098    1.2991611    1.3262043   0.70996667  0.066666667    1.3968817        1e-08 1.7749167e-09    5.6340673    2.5073884    30.403515 -0.0034324463  -0.20025297 -0.0050915167   0.22176061   -1.8861998   0.32503591 
 1962000    4.1686603    1.2721244    2.8965359  -0.22272272   0.84817337    1.0041388   0.75112202   -1.2465374            1    1.6089168     2.205797    2.2324787   0.38847474 0.0068066408 -0.069953781 -0.018456687    1.4503924    1.4768452   0.70424286  0.066666667    1.3859961        1e-08 1.7606071e-09    5.6798588    2.4836775    30.403515 -0.0042559958  -0.17635274 -0.0073975477   0.20070361   -3.7515483    1.8744026 
 1963000    4.1701381    1.2807456    2.8893924  -0.22215815    0.8539215    1.0069008   0.75873217   -1.2465374            1    1.5016768    2.1457484    2.1229628   0.23631911 -0.0052631998 -0.067350253 0.0076061471    1.3415462    1.3692419   0.70903218  0.066666667    1.3721253        1e-08 1.7725804e-09    5.6414929    2.5256559    30.403515 0.00066840323  -0.18003994  0.012173513   0.20183339   -0.9476864    1.7754618 
 1964000    4.1390227    1.2613957     2.877627  -0.22724782   0.84102017    1.0036181   0.73983424   -1.2465374            1     1.621141     2.212063    2.2325233   0.41883663  0.015011917 -0.0070838118  0.024337389    1.4649988    1.4891379   0.70310138  0.066666667    1.3645703        1e-08 1.7577534e-09      5.68908    2.5057253    30.403515 -0.0049576166  -0.18757438 -0.0037747917   0.19315604   -1.5012146    4.3868067 
 1965000    4.1370856    1.2462791    2.8908065  -0.22094102   0.83094134   0.99797086   0.72699185   -1.2465374            1    1.4376914     2.077917    2.1153961   0.11976099 -0.010540069 -0.059292391  0.033175819    1.2842596    1.3064311    0.7049415  0.066666667    1.3432192        1e-08 1.7623538e-09    5.6742297    2.5065659    30.403515 -0.0096289826  -0.20368378 -0.0078349019   0.18224653 -0.025498684 -0.047423385 
 1966000    4.1581506    1.2758288    2.8823219  -0.22310228   0.85064323     1.012941   0.74964602   -1.2465374            1    1.6446032    2.2468244    2.2419712   0.44501409    0.0127003 -0.088632671  0.033073618    1.4863903    1.5113739   0.71070645  0.066666667    1.3541774        1e-08 1.7767661e-09    5.6282028     2.492478    30.403515 0.0034944232   -0.1708326 0.0068091372   0.22827955    2.9333272    1.7968086 
 1967000    4.1634084    1.2666183    2.8967901  -0.21288903   0.84450228   0.99609642   0.75017452   -1.2465374            1    1.6119759    2.1980402    2.2350285   0.40285887 0.0095322493 -0.034748141  -0.02070098    1.4536514    1.4809621    0.7034339  0.066666667    1.3475335        1e-08 1.7585848e-09    5.6863907    2.4760693    30.403515  0.018089978  -0.19206033  0.012044131   0.18983791    1.1590932    2.3456343 
 1968000    4.1607368    1.2643146    2.8964222  -0.22356839   0.84296634    1.0038854   0.74282698   -1.2465374            1    1.6254179    2.2256611    2.2151844   0.43540822 0.0049327183  0.049902448  0.014177542    1.4686441    1.4933797   0.70415804  0.066666667    1.3614231        1e-08 1.7603951e-09    5.6805429    2.5087538    30.403515 -0.0082999686  -0.19147291 -0.00037788152   0.21705416    1.6761157   0.68825207 
 1969000    4.1505683    1.2516164    2.8989519  -0.21711744   0.83449996   0.98342334    0.7418349   -1.2465374            1    1.5778467    2.2038762    2.1965989   0.33306499  0.012979995  0.050123547 -0.0046762533    1.4212823    1.4484998   0.71140553  0.066666667    1.3383323        1e-08 1.7785138e-09    5.6226721    2.4874664    30.403515 0.0077303324  -0.16876611 -0.0093535731   0.19734921    1.7896672  -0.84234567 
 1970000    4.1470004    1.2749222    2.8720781  -0.22190421   0.85003882   0.99767311   0.75817982   -1.2465374            1    1.6699012    2.2818502    2.2480812   0.47977208 -0.0097044406  0.067784263 0.0059250304    1.5098872      1.53868    0.7172278  0.066666667    1.3480954        1e-08 1.7930695e-09    5.5770287    2.4876102    30.403515 0.0026854046  -0.18381935 -0.00031526714    0.2247661  -0.94609986    2.7361701 
 1971000    4.1707999     1.274561    2.8962389  -0.21295093   0.84979796   0.99118511   0.76183214   -1.2465374            1    1.6637983    2.2569861    2.2677317   0.46667705   0.01175553   0.10565041  0.019457509    1.5030135    1.5334305   0.71251219  0.066666667    1.3521677        1e-08 1.7812805e-09    5.6139391    2.4883949    30.403515 -0.0065282386  -0.19156286 0.0062909579   0.18088081  -0.62519834    2.5911648 
 1972000    4.1608061    1.2613207    2.8994854   -0.2169039   0.84097015   0.98479215   0.75148541   -1.2465374            1    1.5500139    2.1817132     2.162046   0.30628256 0.0039487987  0.014807902  0.038966436    1.3914128     1.420487   0.70172341  0.066666667    1.3374818        1e-08 1.7543085e-09    5.7002516    2.5025551    30.403515 -0.0044144772  -0.19796747  0.015687113   0.19743573   -2.3879717  -0.12268722 
 1973000    4.1721888      1.27941    2.8927788  -0.21718159   0.85303096   0.99078294   0.76733117   -1.2465374            1    1.5854319      2.18622    2.2256557   0.34442013 -0.0047008157 -0.042358278  0.022611823    1.4234866     1.455117   0.70512882  0.066666667    1.3423477        1e-08 1.762822e-09    5.6727223    2.4808663    30.403515 -0.013945418  -0.20730712 -0.0084473499   0.19904595   -2.0177772   0.73373622 
 1974000    4.2005722    1.2926542     2.907918  -0.23052696   0.86186137   0.99183924   0.78100794   -1.2465374            1    1.7132262    2.2661397    2.3101688   0.56337023  0.023828187 -0.017964298 -0.016998333    1.5483944    1.5827724   0.71195918  0.066666667    1.3751411        1e-08 1.7798979e-09    5.6182997    2.4791595    30.403515 0.0078920456  -0.19495048 -0.0073786862   0.21668413  -0.60835777    2.0826812 
 1975000    4.1865401     1.282921    2.9036191  -0.21721365    0.8553719   0.99718578   0.76714111   -1.2465374            1    1.6632626      2.25648    2.2647544   0.46855347 -0.012758272  0.030642558    0.0211929    1.5013574    1.5321056   0.70956147  0.066666667     1.353581        1e-08 1.7739037e-09    5.6372847    2.4931273    30.403515 0.0012205226  -0.19874663 -0.0045741405   0.20268666  0.016105167  -0.12054073 
 1976000    4.1574825    1.2566253    2.9008572  -0.21069875   0.83783953    0.9844436   0.74662044   -1.2465374            1    1.6012872    2.2479495     2.214432   0.34148007 0.0070418598  0.068375562  0.015378511    1.4437128    1.4718061   0.70603247  0.066666667    1.3772453        1e-08 1.7650812e-09    5.6654618    2.5179354    30.403515 0.0032225391  -0.19162941 0.0049962841   0.18515969   0.66944966     2.193541 
 1977000    4.1427397    1.2637988    2.8789409  -0.22211283   0.84262242   0.99848821   0.74563223   -1.2465374            1    1.5408568    2.1649935     2.198715   0.25886191 0.0016133052  0.084002275  0.019798982     1.383491    1.4095285   0.71168472  0.066666667    1.3666937        1e-08 1.7792118e-09    5.6204663    2.5061087    30.403515 -0.010966297  -0.16681459 -0.0014076654   0.20596867    2.1624376    1.4464723 
 1978000    4.1541601    1.2551041     2.899056  -0.21688205   0.83682535   0.99452968   0.73868836   -1.2465374            1    1.6464454    2.2480246    2.2460205   0.44529102 -0.026019113 -0.055927285 -0.046933002    1.4905451    1.5156377   0.71391793  0.066666667    1.3857936        1e-08 1.7847948e-09    5.6028849    2.5002199    30.403515 -0.003896194   -0.1975638 -0.0022679722   0.18299269    1.5875984    2.5707687 
 1979000    4.1273153    1.2438603     2.883455  -0.22012221   0.82932866    1.0040817   0.72056555   -1.2465374            1    1.4984438     2.140788    2.1150932   0.23945022 0.0012162227  0.063537166 0.0040898139    1.3463683    1.3663798   0.70397886  0.066666667    1.4062944        1e-08 1.7599471e-09    5.6819888    2.4886293    30.403515 -0.0067558094  -0.18964292 0.0068133648   0.17081203    0.2573445    1.7718275 
 1980000    4.1433776    1.2754344    2.8679432  -0.22654371   0.85038027    1.0236398   0.74255161   -1.2465374            1    1.4934955    2.1385989    2.1426562   0.19923133 -0.0077216835  0.033458854  0.027308428    1.3367798     1.358859    0.7043879  0.066666667    1.4044867        1e-08 1.7609698e-09    5.6786893    2.4765221    30.403515   0.01073083  -0.18103025 -0.0053369112    0.1657723  -0.04633675    2.7720449 
 1981000    4.1534641    1.2640972    2.8893669  -0.21576609   0.84282137   0.98934799   0.75165142   -1.2465374            1    1.6144934     2.238174    2.2297763   0.37552983 -0.0097852868 -0.085046694 -0.040131469    1.4558572    1.4843672   0.70884995  0.066666667    1.4127381        1e-08 1.7721249e-09    5.6429432    2.4984573    30.403515 0.00075590435  -0.16446482 0.0033492394   0.19913247 -0.082985085    3.0114513 
 1982000     4.159753    1.2707058    2.8890472  -0.21799523   0.84722757    1.0031304   0.75021508   -1.2465374            1    1.5694803    2.2323456    2.1675991   0.30849615 0.0090798852 0.0044726439   0.03678235    1.4111473    1.4375414   0.70596751  0.066666667    1.4238223        1e-08 1.7649188e-09    5.6659831    2.4791662    30.403515 -0.010548608  -0.21044072 0.0061420897   0.18985853  -0.82650043    3.8005912 
 1983000     4.160278    1.2628037    2.8974743  -0.22522456   0.84195896   0.99812854   0.74477933   -1.2465374            1    1.5550651    2.1806219    2.1711574   0.31341613 -0.0053543039  -0.03288855  0.082193597    1.3978793    1.4237841   0.71267665  0.066666667    1.4159957        1e-08 1.7816916e-09    5.6126435    2.5066696    30.403515  0.010482394  -0.18959473  -0.01089578   0.20145683   -1.2473186   -0.3355245 
 1984000    4.1583186    1.2606903    2.8976283  -0.21099416   0.84054984   0.98446775   0.75100525   -1.2465374            1    1.4641688    2.1264508    2.1161604   0.14989527 -0.0030768429  0.025082015 -0.041080069     1.305669    1.3346845   0.70541264  0.066666667     1.415494        1e-08 1.7635316e-09      5.67044    2.4937579    30.403515 -0.0087123893  -0.21334529 -0.0074763115   0.18552713  -0.28661282   0.58980561 
 1985000    4.1371187    1.2440528    2.8930659  -0.22216087     0.829457   0.99280955   0.72779876   -1.2465374            1    1.5810117    2.2162064    2.2135789   0.31324962 -0.021048037  0.016021868 -0.028331116    1.4274096    1.4504302   0.70138923  0.066666667    1.4130458        1e-08 1.7534731e-09    5.7029675    2.4912524    30.403515 -0.0084720082  -0.16296815 0.0099610491   0.21077203   -1.8666939    2.5396596 
 1986000    4.1578528    1.2602991    2.8975537  -0.21900543   0.84028899   0.99837676   0.74191366   -1.2465374            1    1.6386616    2.2636031    2.2355407   0.41684104 -0.015602072  0.011888149 0.0089915644    1.4820806    1.5073479   0.71291082  0.066666667    1.3914914        1e-08 1.782277e-09       5.6108     2.512135    30.403515   0.01521725  -0.22494257 0.0022111671   0.19612475   -1.4816272     3.126255 
 1987000    4.1692212    1.2811974    2.8880237  -0.22279222   0.85422272    1.0115617   0.75631644   -1.2465374            1     1.571369    2.2077746    2.1771538   0.32917879 -0.011967311  0.007048634 -0.010919048    1.4117483    1.4383212   0.71504658  0.066666667    1.3691463        1e-08 1.7876164e-09    5.5940412    2.4989386    30.403515 -0.0029948979  -0.21515926 -0.010322216   0.21928363  -0.67744473  -0.89868257 
 1988000     4.192891    1.2773252    2.9155659  -0.20776079   0.85164095   0.99241367   0.76405838   -1.2465374            1    1.6690519    2.2549859    2.2693053   0.48286466 0.0090102682  0.036125651 -0.005868842    1.5077973    1.5385226   0.70058808  0.066666667    1.3561231        1e-08 1.7514702e-09    5.7094891    2.5165378    30.403515 0.0069229109  -0.19445331 -0.0086805675   0.17381685 -0.0034622983  -0.15604924 
 1989000    4.1790911    1.2741073    2.9049839  -0.21101535   0.84949545    1.0075809   0.75112315   -1.2465374            1    1.4932134    2.1172524    2.1294044   0.23298346 0.0059897483 -0.028902398  0.011905382    1.3346888    1.3606891   0.70108054  0.066666667    1.3699599        1e-08 1.7527013e-09    5.7054786      2.47239    30.403515  0.010110196  -0.23255988 0.00029782844   0.22140719    1.8556117  0.052360272 
 1990000    4.1724513    1.2552187    2.9172326  -0.21526189   0.83690174    1.0005202   0.73507909   -1.2465374            1    1.7256565    2.2970016    2.3017396   0.57822815 0.0011063531  0.062382219 -0.023397981    1.5705179    1.5940609    0.7030999  0.066666667    1.3774619        1e-08 1.7577498e-09     5.689092    2.4794297    30.403515 -0.014731384  -0.21109291 -0.0026139816    0.1986464    1.9288679     2.241872 
 1991000    4.1984758    1.2813826    2.9170932  -0.21369555   0.85434618    1.0143558   0.75477557   -1.2465374            1    1.5292577    2.1464099    2.1692393   0.27212392 -0.001831086 -0.0024345159 0.0062821131    1.3699622    1.3958423   0.70172461  0.066666667     1.377755        1e-08 1.7543115e-09    5.7002419    2.4830915    30.403515 -0.0067477314  -0.19862371 -0.0099968614   0.19805107  -0.48563482    3.1420629 
 1992000    4.1668319    1.2701737    2.8966582  -0.21455926   0.84687281    1.0179358   0.74041239   -1.2465374            1    1.6281074    2.2440633    2.2214158   0.41884315  0.022995014 -0.027229346 -0.024833786    1.4718433    1.4942212   0.70444626  0.066666667    1.3932384        1e-08 1.7611156e-09    5.6782188    2.4994588    30.403515 -0.010135508  -0.17998549 -0.023056342   0.21597651  -0.92039591    1.2272072 
 1993000    4.1953575    1.2662431    2.9291144  -0.20338174    0.8442521    1.0159652   0.73738609   -1.2465374            1    1.5733585    2.1818297    2.1993033   0.33894236  0.019828262  0.079718407   0.01284223     1.417733    1.4397314   0.69789415  0.066666667    1.3802915        1e-08 1.7447354e-09    5.7315282    2.4846711    30.403515 -0.0010843794  -0.18037683 -0.011837843   0.24185466  -0.23415306   0.71237632 
 1994000     4.202911    1.3035909    2.8993201  -0.22167376   0.86915328    1.0359286   0.76536884   -1.2465374            1    1.5279932    2.1536313    2.1497587   0.28058972 -0.010869053  -0.08461585   0.08247236     1.366462    1.3917405   0.70516873  0.066666667     1.414303        1e-08 1.7629218e-09    5.6724013    2.5075155    30.403515 -0.00087866512  -0.20007559 0.0055204798   0.18957794  -0.47318299   -1.9149546 
 1995000    4.2036214    1.2785628    2.9250586   -0.2179022   0.85246614    1.0137837   0.75208007   -1.2465374            1    1.6692511    2.2548731    2.2722737   0.48060665 -0.006837769 -0.071484786 -0.035208408    1.5105245     1.535911   0.70837503  0.066666667    1.4121021        1e-08 1.7709376e-09    5.6467264    2.4906377    30.403515 -0.0014696974  -0.20110708 0.0014003753   0.20101016    1.1468161 -0.026992422 
 1996000    4.1942857    1.2766733    2.9176124  -0.21716906   0.85120631    1.0040153   0.75612259   -1.2465374            1    1.5370729    2.1430497     2.164869   0.30330004 -0.0016409812  -0.16765256  0.030656338    1.3774931    1.4050176   0.69911788  0.066666667    1.4113694        1e-08 1.7477947e-09    5.7214958    2.4769164    30.403515 -0.0014438281  -0.18474988 -0.0090112994   0.16326623   0.46080894 -0.092242439 
 1997000     4.161591    1.2841004    2.8774906  -0.21828671   0.85615828     1.013482   0.75826187   -1.2465374            1    1.5105484    2.1655179    2.1343253   0.23180208  0.005120759  -0.10901822  0.048148095    1.3505171     1.377248   0.70075809  0.066666667    1.4090155        1e-08 1.7518952e-09    5.7081039    2.4800879    30.403515 -0.0022552279  -0.17360221 -0.00078442247   0.21093765   0.42873622   0.64716264 
 1998000    4.1725791    1.2724243    2.9001549  -0.21339481   0.84837333    1.0166592   0.74364387   -1.2465374            1    1.6936152    2.2951651    2.2862268   0.49945372  0.022110088 -0.073405507 -0.048365435    1.5366691    1.5598969   0.70531776  0.066666667    1.4183755        1e-08 1.7632944e-09    5.6712027    2.4824982    30.403515 -3.6744431e-05  -0.19218857 0.0050535739   0.18156107   0.59874119    1.3194166 
 1999000    4.1641196    1.2659661    2.8981535  -0.20665717   0.84406745    1.0068613   0.74275993   -1.2465374            1    1.6212669    2.2425436    2.2123545   0.40890265 -0.0042890137  0.026935275 -0.043828017    1.4645073    1.4888373   0.70964236  0.066666667    1.4398133        1e-08 1.7741059e-09    5.6366421    2.4926297    30.403515  0.011671609  -0.19624833 0.0030538431   0.19326925  -0.30974741    4.5777746 
 2000000    4.1817116    1.2804771    2.9012345  -0.21964215   0.85374246    1.0241303   0.74770404   -1.2465374            1    1.6068876    2.2137451    2.2239353   0.38298249 -0.0062322126  0.052391647  0.035236516    1.4490846    1.4721866   0.70703886  0.066666667    1.4477526        1e-08 1.7675971e-09    5.6573977    2.4915853    30.403515 0.0075921067  -0.24099575 -0.0029839157   0.20309936    3.7113721    0.4931071 
Loop time of 1355.31 on 1 procs for 1000000 steps with 9376 atoms

Performance: 318745.591 tau/day, 737.837 timesteps/s
99.4% CPU use with 1 MPI tasks x 1 OpenMP threads

MPI task timing breakdown:
Section |  min time  |  avg time  |  max time  |%varavg| %total
---------------------------------------------------------------
Pair    | 155.38     | 155.38     | 155.38     |   0.0 | 11.46
Bond    | 335.18     | 335.18     | 335.18     |   0.0 | 24.73
Neigh   | 477.88     | 477.88     | 477.88     |   0.0 | 35.26
Comm    | 26.035     | 26.035     | 26.035     |   0.0 |  1.92
Output  | 1.3865     | 1.3865     | 1.3865     |   0.0 |  0.10
Modify  | 331.18     | 331.18     | 331.18     |   0.0 | 24.44
Other   |            | 28.27      |            |       |  2.09

Nlocal:    9376 ave 9376 max 9376 min
Histogram: 1 0 0 0 0 0 0 0 0 0
Nghost:    1628 ave 1628 max 1628 min
Histogram: 1 0 0 0 0 0 0 0 0 0
Neighs:    13492 ave 13492 max 13492 min
Histogram: 1 0 0 0 0 0 0 0 0 0

Total # of neighbors = 13492
Ave neighs/atom = 1.43899
Ave special neighs/atom = 6.92833
Neighbor list builds = 138031
Dangerous builds = 0
