next          Wall_v
jump          main.in sim

include        ecs.in
# This is an input script that creates a mono disperse polymer brush bilayer
# A coarse grained bead-spring model is used for the polymers which are end
# grafted to the surfaces of 2 opposing FCC walls at random sites.

clear
OMP_NUM_THREADS environment is not set. Defaulting to 1 thread. (src/comm.cpp:88)
  using 1 OpenMP thread(s) per MPI task


#--- Read in the Restart file ---#

read_restart    MDPBB.rst
  restoring atom style bond from restart
  orthogonal box = (0 0 0) to (56.5685 56.5685 70.1)
  1 by 1 by 1 MPI processor grid
  restoring pair style lj/cut from restart
  restoring bond style hybrid from restart
  35136 atoms
  119224 bonds
  14 = max # of 1-2 neighbors
  14 = max # of special neighbors
  special bonds CPU = 0.0146239 secs
  read_restart CPU = 0.0488502 secs
reset_timestep  0

#--- Redefine the bond coeffs ---#

bond_coeff    1 fene 30.0 1.5 0.0 0.0      # Values obtained from literature [Grest, Galushcko]
bond_coeff    2 fene 30.0 1.5 0.0 0.0       # This is the grafting bond between the polymer and the wall atom
bond_coeff    3 harmonic 800.0 $(1.5874 * sqrt(2)/2)
bond_coeff    3 harmonic 800.0 1.1224613044555256103

neigh_modify   every 1 delay 0 check yes

#--- Define variables ---#

# for dimensional values: eps = 4.14e-21 J at T = 300K and sigma = 0.5nm

#--- Moved to main.in ---#
#variable       Temp       equal ${Tstr} #[Grest96]
#variable       Tstep     equal 0.005                       # Timestep in Tau (default = 0.005)
#variable       Nequil    equal 10000                       # Number of timesteps to equilibrate
#variable       Ncomp     equal 200000                      # Number of timesteps to compress - until no more occilation of walls
#variable       Nshear    equal 1000000                     # Number of timesteps to shear - use approx 4ns for 10m/s
#variable       Nthermo   equal 1000                        # Number of timesteps between thermo data prints
#variable       Ndump_e   equal 10000
#variable       Ndump_c   equal 10000                       # Number of timesteps per dump file (compression)
#variable       Ndump_s   equal 10000                       # Number of timesteps per dump file (shear)
#variable       Wall_v    equal 0.0002                      # Wall velocity (A/fs) - equal to 10 m/s
#variable       Pcomp     equal 1
variable        Pcomp2    equal ${Pcomp}
variable        Pcomp2    equal 1
variable        Wall_v2   equal ${Wall_v}
variable        Wall_v2   equal 1.8

# For Equilibration - density profiles (10 for entire run)
variable       Nfreqe   equal ${Nequil}/10                  # Calculate bin averages every this many timesteps
variable       Nfreqe   equal 300000/10                  
variable       Neverye  equal 100                           # Use input values every this many timesteps
variable       Nrepeate equal ${Nfreqe}/${Neverye}          #s Number of times to use input values
variable       Nrepeate equal 30000/${Neverye}          
variable       Nrepeate equal 30000/100          


# For compression - density profiles (10 for entire run)
variable       Nfreqc   equal ${Ncomp}/10                  # Calculate bin averages every this many timesteps
variable       Nfreqc   equal 700000/10                  
variable       Neveryc  equal 100                          # Use input values every this many timesteps
variable       Nrepeatc equal ${Nfreqc}/${Neveryc}         # Number of times to use input values
variable       Nrepeatc equal 70000/${Neveryc}         
variable       Nrepeatc equal 70000/100         

# For Shear - density profiles (10 for entire run)
variable       Nfreqs   equal ${Nshear}/10                  # Calculate bin averages every this many timesteps
variable       Nfreqs   equal 4000000/10                  
variable       Neverys  equal 100                          # Use input values every this many timesteps
variable       Nrepeats equal ${Nfreqs}/${Neverys}         # Number of times to use input values
variable       Nrepeats equal 400000/${Neverys}         
variable       Nrepeats equal 400000/100         


variable       binres   equal  0.001                       # Giving 1000 data points across the sim. box


variable       bwzmin  equal bound(bwall,zmin)
variable       bwzmax  equal bound(bwall,zmax)
variable       twzmin  equal bound(twall,zmin)
variable       twzmax  equal bound(twall,zmax)
variable       c       equal count(gbeads)
variable       surfcov equal $(v_M/(lx*ly))
variable       surfcov equal 0.075000000000000011102
variable       D       equal v_twzmin-v_bwzmax
variable       Dout    equal v_twzmax-v_bwzmin
variable       srate   equal (v_Wall_v/v_D)


#--- Define regions and groups ---#

print        "bwzmin = ${bwzmin}"
bwzmin = 0
print        "bwzmax = ${bwzmax}"
bwzmax = 2.3811015779523
print        "twzmin = ${twzmin}"
twzmin = 67.6188984220477
print        "twzmax = ${twzmax}"
twzmax = 70

region         bwallb  block  INF INF INF INF ${bwzmin} $(v_bwzmin + 0.4) units box
region         bwallb  block  INF INF INF INF 0 $(v_bwzmin + 0.4) units box
region         bwallb  block  INF INF INF INF 0 0.4000000000000000222 units box
region         bwallm  block  INF INF INF INF $(v_bwzmin + 0.35) $(v_bwzmax - 0.35) units box
region         bwallm  block  INF INF INF INF 0.3499999999999999778 $(v_bwzmax - 0.35) units box
region         bwallm  block  INF INF INF INF 0.3499999999999999778 2.0311015779522998415 units box
region         bwallt  block  INF INF INF INF $(v_bwzmax - 0.7) $(v_bwzmax) units box
region         bwallt  block  INF INF INF INF 1.6811015779522999747 $(v_bwzmax) units box
region         bwallt  block  INF INF INF INF 1.6811015779522999747 2.3811015779522999303 units box
region         bmelt   block  INF INF INF INF $(v_bwzmax) $(v_twzmax / 2) units box
region         bmelt   block  INF INF INF INF 2.3811015779522999303 $(v_twzmax / 2) units box
region         bmelt   block  INF INF INF INF 2.3811015779522999303 35 units box
region         tmelt   block  INF INF INF INF $(v_twzmax / 2)  $(v_twzmin - 0.1) units box
region         tmelt   block  INF INF INF INF 35  $(v_twzmin - 0.1) units box
region         tmelt   block  INF INF INF INF 35  67.518898422047712415 units box
region         twallb  block  INF INF INF INF $(v_twzmin - 0.1) $(v_twzmin + 0.35) units box
region         twallb  block  INF INF INF INF 67.518898422047712415 $(v_twzmin + 0.35) units box
region         twallb  block  INF INF INF INF 67.518898422047712415 67.968898422047701047 units box
region         twallm  block  INF INF INF INF $(v_twzmin + 0.35) $(v_twzmax - 0.35) units box
region         twallm  block  INF INF INF INF 67.968898422047701047 $(v_twzmax - 0.35) units box
region         twallm  block  INF INF INF INF 67.968898422047701047 69.650000000000005684 units box
region         twallt  block  INF INF INF INF $(v_twzmax - 0.35) $(v_twzmax) units box
region         twallt  block  INF INF INF INF 69.650000000000005684 $(v_twzmax) units box
region         twallt  block  INF INF INF INF 69.650000000000005684 70 units box

group          bwsurf  region bwallt
2592 atoms in group bwsurf
group          bwbulk  region bwallm
5184 atoms in group bwbulk
group          bwout   region bwallb
2592 atoms in group bwout
group          bbeads  region bmelt
7200 atoms in group bbeads
group          tbeads  region tmelt
7200 atoms in group tbeads
group          abeads  union  bbeads tbeads
14400 atoms in group abeads
group          twsurf  region twallb
2592 atoms in group twsurf
group          twbulk  region twallm
5184 atoms in group twbulk
group          twout   region twallt
2592 atoms in group twout
group          rest4bot union abeads twall
24768 atoms in group rest4bot
group          rest4top union abeads bwall
24768 atoms in group rest4top
group          walls    union bwall twall
20736 atoms in group walls
group          alltop   union twall tbeads
17568 atoms in group alltop
# Other groups are: gbeads fbeads bwall twall

info system
info coeffs

#--- Exclude wall-wall interactions ---#

#neigh_modify exclude type 1 1
#neigh_modify exclude type 1 4
#neigh_modify exclude type 4 4


############
# Computes #
############

#compute         sysTemp   all    temp/deform                       # Calculate the temperature without translational velocities
#compute         sysPress  all    pressure sysTemp                  # Calculate the pressure of the entire system of atoms
compute         melTemp   abeads temp
compute         melPress  all    pressure melTemp
compute         wallTemp  walls  temp
compute         wallPress all    pressure wallTemp
variable        melDens   equal  $(mass(abeads))/(lx*ly*v_D)
variable        melDens   equal  14400/(lx*ly*v_D)

#--- Forces and Energies ---#

compute         fbwall  bwall group/group rest4bot
compute         ftwall  twall group/group rest4top
compute         fwalls  bwall group/group twall

#--- Like done in comp_shear.in ---#
group           rest_bot union abeads bwall
24768 atoms in group rest_bot
group           rest_bot2 subtract all bwsurf
32544 atoms in group rest_bot2
compute         ggbot bwsurf group/group rest_bot
compute         ggbot2 bwsurf group/group rest_bot

group           rest_top union abeads twall
24768 atoms in group rest_top
group           rest_top2 subtract all twsurf
32544 atoms in group rest_top2
compute         ggtop twsurf group/group rest_top
compute         ggtop2 twsurf group/group rest_top2


#--- Calculate the applied force on each atom for the pressure applied---#
variable Fcomp equal (${Pcomp}*lx*ly)
variable Fcomp equal (1*lx*ly)
variable Fcatom equal (-${Fcomp})/(count(twout))
variable Fcatom equal (-3200)/(count(twout))


#compute	        peratom   all   stress/atom NULL
#compute	        p_all     all   reduce sum c_peratom[1] c_peratom[2] c_peratom[3]
#variable	      press_all equal -(c_p_all[1]+c_p_all[2]+c_p_all[3])/(3*v_volume)



info groups variables                              # For diagnostics


#################
# Equilibration #
#################

#--- Number Density profiles (Equil) ---#
compute         eabeads abeads chunk/atom bin/1d z lower ${binres} units reduced # Check bound keyword to maybe only bin melt area
compute         eabeads abeads chunk/atom bin/1d z lower 0.001 units reduced 
fix             abeads_edz abeads ave/chunk ${Neverye} ${Nrepeate} ${Nfreqe} eabeads density/number file abeads_edz
fix             abeads_edz abeads ave/chunk 100 ${Nrepeate} ${Nfreqe} eabeads density/number file abeads_edz
fix             abeads_edz abeads ave/chunk 100 300 ${Nfreqe} eabeads density/number file abeads_edz
fix             abeads_edz abeads ave/chunk 100 300 30000 eabeads density/number file abeads_edz
compute         ebbeads bbeads chunk/atom bin/1d z lower ${binres} units reduced # Check bound keyword to maybe only bin melt area
compute         ebbeads bbeads chunk/atom bin/1d z lower 0.001 units reduced 
fix             bbeads_edz bbeads  ave/chunk ${Neverye} ${Nrepeate} ${Nfreqe} ebbeads density/number file bbeads_edz
fix             bbeads_edz bbeads  ave/chunk 100 ${Nrepeate} ${Nfreqe} ebbeads density/number file bbeads_edz
fix             bbeads_edz bbeads  ave/chunk 100 300 ${Nfreqe} ebbeads density/number file bbeads_edz
fix             bbeads_edz bbeads  ave/chunk 100 300 30000 ebbeads density/number file bbeads_edz
compute         etbeads tbeads chunk/atom bin/1d z lower ${binres} units reduced # Check bound keyword to maybe only bin melt area
compute         etbeads tbeads chunk/atom bin/1d z lower 0.001 units reduced 
fix             tbeads_edz tbeads  ave/chunk ${Neverye} ${Nrepeate} ${Nfreqe} etbeads density/number file tbeads_edz
fix             tbeads_edz tbeads  ave/chunk 100 ${Nrepeate} ${Nfreqe} etbeads density/number file tbeads_edz
fix             tbeads_edz tbeads  ave/chunk 100 300 ${Nfreqe} etbeads density/number file tbeads_edz
fix             tbeads_edz tbeads  ave/chunk 100 300 30000 etbeads density/number file tbeads_edz

#--- Radius of gyration of the bottom brush chains ---#
compute         chunk_bot bbeads chunk/atom molecule
compute         rgbbeads bbeads gyration/chunk chunk_bot
variable        aveRg    equal  (ave(c_rgbbeads))


#--- Fixes (Equil) ---#

#velocity       abeads create ${Temp} 290842 dist gaussian
#fix             nvt_melt    abeads nvt temp ${Temp} ${Temp} 100.0

# NVE for all and langevin thermostat for melt
fix             nve_melt abeads nve
fix             lang_melt abeads langevin ${Temp} ${Temp} 0.1 798753
fix             lang_melt abeads langevin 1 ${Temp} 0.1 798753
fix             lang_melt abeads langevin 1 1 0.1 798753
fix             nve_walls  walls nve

#--- Langevin thermostat the bulk of the walls in y ---#
# Only thermostat the bulk of the wall not the surface or the outer layer
compute         Tempyt     twbulk temp/partial 0 1 0
fix             lang_tbulk twbulk langevin ${Temp} ${Temp} 0.1 87239 zero yes
fix             lang_tbulk twbulk langevin 1 ${Temp} 0.1 87239 zero yes
fix             lang_tbulk twbulk langevin 1 1 0.1 87239 zero yes
fix_modify      lang_tbulk temp Tempyt
compute         Tempyb     bwbulk temp/partial 0 1 0
fix             lang_bbulk bwbulk langevin ${Temp} ${Temp} 0.1 87239 zero yes
fix             lang_bbulk bwbulk langevin 1 ${Temp} 0.1 87239 zero yes
fix             lang_bbulk bwbulk langevin 1 1 0.1 87239 zero yes
fix_modify      lang_bbulk temp Tempyb

#--- Freeze the outer layer of the walls ---#
fix             freeze_bout bwout setforce 0.0 0.0 0.0
fix             freeze_tout twout setforce 0.0 0.0 0.0

variable        sbot equal  f_freeze_bout[1]/(lx*ly)
variable        pbot equal -f_freeze_bout[3]/(lx*ly)
#--- Thermo output ---#

thermo_style  custom step etotal ke pe epair temp c_melTemp c_wallTemp v_Fcatom v_Pcomp2 press pxx pyy pzz pxy pxz pyz c_melPress c_wallPress v_melDens v_surfcov v_aveRg v_Wall_v2 v_srate v_D v_bwzmax zhi c_fbwall[1] c_fbwall[3] c_ftwall[1] c_ftwall[3] v_sbot v_pbot #c_ggbot[1] c_ggbot[3] c_ggtop[1] c_ggtop[3]
thermo        ${Nthermo}
thermo        1000
thermo_modify flush yes

#--- Dumps ---#
#dump           eq all image ${Ndump_e} stg1.*.jpg type type zoom 2 view 60 120 bond none none


#--- Run Equilibration ---#
timestep    ${Tstep}
timestep    0.005
run         ${Nequil}
run         300000
Neighbor list info ...
  update every 1 steps, delay 0 steps, check yes
  max neighbors/atom: 2000, page size: 100000
  master list distance cutoff = 1.42246
  ghost atom cutoff = 1.42246
  binsize = 0.711231, bins = 80 80 99
  8 neighbor lists, perpetual/occasional/extra = 1 7 0
  (1) pair lj/cut, perpetual
      attributes: half, newton on
      pair build: half/bin/newton
      stencil: half/bin/3d/newton
      bin: standard
  (2) compute group/group, occasional, copy from (1)
      attributes: half, newton on
      pair build: copy
      stencil: none
      bin: none
  (3) compute group/group, occasional, copy from (1)
      attributes: half, newton on
      pair build: copy
      stencil: none
      bin: none
  (4) compute group/group, occasional, copy from (1)
      attributes: half, newton on
      pair build: copy
      stencil: none
      bin: none
  (5) compute group/group, occasional, copy from (1)
      attributes: half, newton on
      pair build: copy
      stencil: none
      bin: none
  (6) compute group/group, occasional, copy from (1)
      attributes: half, newton on
      pair build: copy
      stencil: none
      bin: none
  (7) compute group/group, occasional, copy from (1)
      attributes: half, newton on
      pair build: copy
      stencil: none
      bin: none
  (8) compute group/group, occasional, copy from (1)
      attributes: half, newton on
      pair build: copy
      stencil: none
      bin: none
WARNING: Inconsistent image flags (src/domain.cpp:784)
Per MPI rank memory allocation (min/avg/max) = 26.56 | 26.56 | 26.56 Mbytes
Step TotEng KinEng PotEng E_pair Temp c_melTemp c_wallTemp v_Fcatom v_Pcomp2 Press Pxx Pyy Pzz Pxy Pxz Pyz c_melPress c_wallPress v_melDens v_surfcov v_aveRg v_Wall_v2 v_srate v_D v_bwzmax Zhi c_fbwall[1] c_fbwall[3] c_ftwall[1] c_ftwall[3] v_sbot v_pbot 
WARNING: One or more chunks do not contain all atoms in molecule (src/compute_chunk_atom.cpp:1161)
       0    9.6537566            0    9.6537566 -0.067104296            0            0            0   -1.2345679            1   0.80295769    1.5201326    1.5201589  -0.63141848 -1.1145611e-06 -4.2264767e-07 -2.1042834e-08   0.80295769   0.80295769  0.068978418        0.075    3.6802714          1.8  0.027591367    65.237797    2.3811016         70.1            0            0            0            0 -1.5099033e-16    20.836802 
    1000    9.9229275     1.677642    8.2452855 -0.031872505    1.1184598    1.0028465    1.1987991   -1.2345679            1  -0.29809624   0.65174902   0.66250261   -2.2085404 -0.00098382207 -0.0055890844 0.0013040784  -0.40890713  -0.36246851  0.069885131        0.075    3.3660787          1.8  0.027954052    64.391379    2.8028327         70.1 -0.00046448402 -0.0007588172 7.5201244e-05 0.00042949121   0.14242318    2.7994121 
    2000    9.2549753    1.5893643     7.665611 -0.037584167    1.0596064    1.0231932    1.0849439   -1.2345679            1 -0.0095183783   0.72130603   0.82127285    -1.571134 0.0003497007 -0.023101141 -0.0054664276  -0.10980507 -0.075196691  0.069791228        0.075    3.1545138          1.8  0.027916491    64.478017    2.7556363         70.1 2.8308229e-05 -0.000660007 3.8009827e-05 0.0011310977   0.85206866    1.4159026 
    3000     8.668691    1.5609787    7.1077124 -0.045418492    1.0406821    1.0007444    1.0684662   -1.2345679            1   0.21457649   0.87128206   0.90740501   -1.1349576 -0.0016407417 -0.0021417622  0.011379887   0.11581291   0.15033916    0.0698593        0.075    2.9796723          1.8   0.02794372    64.415189    2.7865175         70.1 0.00076884538 -0.0033562177 -7.2977829e-05 0.0013513967   0.30999685   -3.2466065 
    4000    8.2307122    1.5134227    6.7172895 -0.052773817    1.0089772    1.0101201    1.0082322   -1.2345679            1   0.22456423   0.85074233   0.86604302   -1.0430927 0.00062296623 0.0084007681 -0.011768384   0.13136837   0.15972508  0.069799982        0.075     2.842297          1.8  0.027919993    64.469931    2.7655688         70.1 -0.00028320336 -0.0027261326 0.0012259131 0.0019904061  -0.40087025    1.6467214 
    5000    7.8413108    1.4419784    6.3993324 -0.062109148   0.96134632   0.99175281   0.94027751   -1.2345679            1   0.23696176   0.82705316   0.84990578  -0.96607364 -0.00089380999 0.0067303333 -0.0026050592   0.15004729    0.1733016  0.069880636        0.075     2.719628          1.8  0.027952254    64.395522    2.8037972         70.1 0.00011973714 -0.0038309392 -0.00052446362 0.0033206251  -0.67992535  -0.96984612 
    6000    7.5188412    1.4178955    6.1009456 -0.071353973    0.9452906    1.0014221   0.90635683   -1.2345679            1   0.31799565   0.83809186   0.87630892  -0.76041383 -0.00034466145  0.009128273 -0.0046944012   0.23421663   0.25371481  0.069841944        0.075    2.6073251          1.8  0.027936777    64.431197    2.7790947         70.1 -1.0184829e-06 -0.0035773914 0.0029632683 0.0093504546  -0.77839248   -8.0793625 
    7000    7.2844853    1.3988773     5.885608 -0.084192356   0.93261141    1.0024637   0.88414891   -1.2345679            1   0.36846027   0.84838654   0.89020025  -0.63320598 -0.00076556002 -0.026199859 0.0051139748   0.28673404   0.30411258  0.069840189        0.075    2.5206336          1.8  0.027936076    64.432815    2.8060518         70.1 -0.0024568803 -0.0099257294 -0.0023423023  0.011151028   -0.1549518  -0.76500013 
    8000    7.0343323     1.385111    5.6492214    -0.101874   0.92343359   0.99890876   0.87106593   -1.2345679            1   0.38850652   0.85128557   0.87632998  -0.56209599 0.00084536175 -0.0083291142 0.0023299562   0.30798961   0.32438701  0.069861883        0.075     2.437962          1.8  0.027944753    64.412808    2.7972824         70.1 0.00048766056  -0.01724343 -0.0021971564  0.014786935   0.22218152    -3.545285 
    9000    6.8664109    1.3774533    5.4889576  -0.11436252   0.91832834   0.99890945   0.86241472   -1.2345679            1   0.45505174   0.88063616   0.90116694  -0.41664787 0.0027755507 -0.010538948 0.0015632661   0.37533451    0.3909322  0.069863174        0.075    2.3771521          1.8   0.02794527    64.411617    2.8100247         70.1 8.084856e-05 -0.021878738 -0.0021001534  0.020382339   0.52273313   -2.6727829 
   10000    6.7103906    1.3848994    5.3254912  -0.13037059   0.92329252   0.99940834   0.87047996   -1.2345679            1   0.44570252   0.85236951   0.86817632  -0.38343829 -0.00044916849 -0.011092497 -0.0061103051   0.36523978   0.38155094  0.069895471        0.075    2.3162064          1.8  0.027958188    64.381854    2.8099499         70.1 0.0004992823 -0.030584501 0.0029197419  0.044483526   0.75740064   -1.4098549 
   11000    6.6215517    1.3658043    5.2557474  -0.14005061   0.91056209    1.0055152   0.84466772   -1.2345679            1   0.48838323   0.88195189   0.88290301  -0.29970521 -0.0020008902 -0.0052981916  0.017371913   0.41030644   0.42383966  0.069853747        0.075     2.272496          1.8  0.027941499     64.42031     2.783665         70.1 -0.0033915484 -0.041183922 0.0027009454  0.041559176  -0.39968174 -0.062126542 
   12000    6.5582241    1.3469263    5.2112978  -0.14296935   0.89797641    1.0012963    0.8262713   -1.2345679            1   0.56056545   0.92883762   0.91543349  -0.16257474 0.00058068475 0.0074269425 -0.011187433   0.48418914   0.49629269  0.069843399        0.075    2.2266537          1.8   0.02793736    64.429854     2.780963         70.1 0.0017562594 -0.059937769 -0.0023243485    0.0631399  0.032124729    1.5737069 
   13000    6.4932689     1.339091     5.154178  -0.15288537   0.89275271    1.0075416   0.81308297   -1.2345679            1   0.50979348   0.87172781   0.87878157  -0.22112893 0.0005649222  0.029977989 -0.0051002697   0.43463623   0.44511984  0.069836742        0.075    2.1915717          1.8  0.027934697    64.435995    2.7728924         70.1 -0.00080033541  -0.06624559 -0.00018526393  0.066447347  -0.89733248   0.90843816 
   14000    6.4634087    1.3280059    5.1354028  -0.15458759   0.88536246     1.013686   0.79629347   -1.2345679            1   0.57634546    0.9285523   0.91147994  -0.11099586 0.00011679283  0.026909158 -0.0078337387   0.50274014   0.51127741  0.069836619        0.075    2.1567971          1.8  0.027934648    64.436109    2.7888169         70.1 -0.0029547158 -0.075629908 -0.002796751  0.074053194  -0.53822941  -0.30045263 
   15000      6.44152    1.3210173    5.1205026  -0.15153726   0.88070329    1.0041472   0.79502264   -1.2345679            1   0.54225965   0.88154724   0.88698654  -0.14175483 0.00059064575 0.0091544387 0.0051482028    0.4687718   0.47780389    0.0698728        0.075    2.1316411          1.8   0.02794912    64.402743    2.8047795         70.1 0.0010770011  -0.08596379 -0.00094428438  0.076413778 -0.074169214  0.027860115 
   16000     6.424421    1.3079707    5.1164503  -0.15052638   0.87200531    1.0008011   0.78260773   -1.2345679            1   0.52328399   0.85546198   0.86634686  -0.15195687  0.001467306 -0.0034964328 0.0040721101   0.45094371   0.45904302  0.069844319        0.075    2.1059626          1.8  0.027937727    64.429006    2.8062286         70.1 0.0040225319 -0.085454411  0.005996583  0.093062395  -0.52261551   0.98819857 
   17000    6.3947108     1.311476    5.0832348  -0.15878322   0.87434223    1.0075853   0.78185644   -1.2345679            1   0.57393596   0.90698583   0.89685253  -0.08203047 0.0030129635 0.0053416982 -0.010899213   0.50166513   0.50925951   0.06980795        0.075    2.0895311          1.8   0.02792318    64.462572    2.7674989         70.1 0.0020538186 -0.083604788 0.0015459586  0.085819903 -0.023038832     1.168827 
   18000    6.3844177    1.2941291    5.0902886  -0.15609115   0.86277729   0.99974349   0.76770551   -1.2345679            1   0.54716679   0.88552058   0.87731195  -0.12133215 -0.0024877428 -0.00029568562 0.0065641699     0.476204   0.48299371  0.069908335        0.075    2.0713755          1.8  0.027963334    64.370006    2.8344029         70.1 0.0018102065 -0.089114723  0.003414445  0.089070177  -0.26502033   -1.4486406 
   19000    6.3918032    1.3123189    5.0794843   -0.1579985   0.87490417    1.0062215   0.78375568   -1.2345679            1   0.51488878   0.85692452   0.85725832  -0.16951649 0.0017669317  0.030351332 0.0066246107   0.44244239   0.45029987  0.069865489        0.075    2.0549814          1.8  0.027946196    64.409483    2.7917592         70.1 -0.0051193087  -0.08707883 0.0030433784  0.091570465   -1.6279563   0.36458546 
   20000    6.3656061     1.295011    5.0705951  -0.15892026   0.86336527   0.99635908   0.77105205   -1.2345679            1   0.54172423   0.85855216   0.88125917  -0.11463864 0.0021100788   0.02857792 -0.0019300241    0.4704521   0.47776839  0.069859543        0.075    2.0406213          1.8  0.027943817    64.414965    2.7867234         70.1 0.0061441323 -0.086432141 -0.0023801974  0.089951449   0.18694583   -0.6090584 
   21000    6.3776083    1.2923859    5.0852225   -0.1549193    0.8616151   0.99290049   0.77048817   -1.2345679            1   0.60062066   0.91683638   0.90570286 -0.020677253 0.0027520742  0.011264667 -0.0014006677   0.52940065   0.53688682  0.069846908        0.075    2.0273127          1.8  0.027938763    64.426617    2.7824576         70.1 -0.0022315483 -0.084230574 0.0016791478  0.094574262    1.3592724   0.72589722 
   22000    6.3596874    1.2923044     5.067383  -0.15773232   0.86156078    1.0031237   0.76329682   -1.2345679            1   0.56245584   0.88565992   0.88533702 -0.083629422 -0.0012246188 -0.012443222 -0.0034994058   0.49190056   0.49806578   0.06985173        0.075    2.0136095          1.8  0.027940692    64.422169     2.785568         70.1 -0.0027613994  -0.10565591 -0.0030929425   0.09099077   0.21352899  -0.73403076 
   23000    6.3547264    1.2857042    5.0690223  -0.15450459    0.8571605   0.99901376   0.75869472   -1.2345679            1    0.5679095    0.8889047   0.89200043 -0.077176618 0.00072348509 -0.0082400241 -0.0049605502   0.49777962   0.50378326  0.069841554        0.075    2.0089812          1.8  0.027936621    64.431556     2.791558         70.1 -0.0048468227  -0.10507053 0.0056429005   0.10123008  -0.61713318   0.08435383 
   24000    6.3553811    1.2811698    5.0742114  -0.15588548   0.85413749   0.99382539   0.75717526   -1.2345679            1   0.56304492   0.89382405   0.88178989  -0.08647919 -0.0011166256 -0.0062772093 -0.0071736804   0.49305549   0.49925171  0.069825375        0.075    1.9977376          1.8   0.02793015    64.446486    2.7941864         70.1 0.0047372188  -0.10072051 0.0035669157  0.092244674  -0.96573051   0.12373159 
   25000    6.3647566    1.2936658    5.0710908  -0.15473553   0.86246839   0.99341164   0.77157911   -1.2345679            1   0.58820411   0.90089839   0.90504197 -0.041328038 -0.00038655838     0.022556 -0.0057237809   0.51688326   0.52443746  0.069850144        0.075    1.9855213          1.8  0.027940057    64.423633    2.7976899         70.1 0.0040204794 -0.089037744 0.0064316424  0.099190831   -0.5616492 -0.057974796 
   26000    6.3519701    1.2918412    5.0601289  -0.16025649   0.86125196    1.0028847   0.76293953   -1.2345679            1   0.55922651   0.87747518   0.88174879 -0.081544422 0.00084682546  0.013871381 0.0047468865   0.48870426    0.4948518  0.069824794        0.075    1.9717598          1.8  0.027929918    64.447021    2.7791388         70.1 0.0054048508 -0.092199147 0.0017199024  0.099395054   0.10686824  -0.38173906 
   27000      6.36441    1.2916476    5.0727624  -0.15544954   0.86112293   0.99630958   0.76728684   -1.2345679            1    0.5711496   0.89131166   0.88957826 -0.067441106 0.00032276799 -0.0080508475 0.0084236446   0.50022551   0.50719694  0.069861076        0.075    1.9728251          1.8   0.02794443    64.413552    2.7972244         70.1 -0.0014195424 -0.096728367 0.0041023919  0.095935134   0.51072363  -0.35142032 
   28000    6.3404634    1.2789825    5.0614809  -0.15266561   0.85267928   0.99451127   0.75422806   -1.2345679            1   0.58586493   0.89669916   0.89451404 -0.033618414 -0.0024498513 -0.051595249 -0.0034375026   0.51614792    0.5220277  0.069866522        0.075    1.9598581          1.8  0.027946609    64.408531    2.8151874         70.1 0.0026834193  -0.10217851 -0.005236397   0.10220479    2.2825354   0.64615376 
   29000    6.3433923    1.2779427    5.0654496  -0.15934684   0.85198603    1.0038471   0.74657028   -1.2345679            1   0.56215893   0.87778518   0.88377411 -0.075082488 0.0021044477 -0.024355821 0.0008693597   0.49314977   0.49772244  0.069866745        0.075     1.956254          1.8  0.027946698    64.408325    2.7937565         70.1 0.00089619845  -0.11071601 0.0043807371  0.093681695  0.015151396   -1.0867818 
   30000    6.3275756    1.2798445    5.0477311  -0.15571037   0.85325393   0.99426834   0.75537049   -1.2345679            1   0.58030984   0.89206247   0.89323631  -0.04436927    0.0024289  -0.01171545 -0.012812905   0.51048723    0.5164882   0.06986226        0.075    1.9364757          1.8  0.027944904     64.41246    2.7932775         70.1 -0.0042664797 -0.096492548 0.0011413845   0.11000447 -0.069211081   -1.1794397 
   31000    6.3466962    1.2796632     5.067033  -0.15378215   0.85313306   0.99716257   0.75315582   -1.2345679            1   0.58699377   0.89423261   0.89811129 -0.031362581 -0.003433648 0.0085975346 -0.019044113   0.51737588   0.52298636  0.069829576        0.075    1.9316996          1.8  0.027931831    64.442608    2.7828253         70.1 0.0011279895 -0.094407967 -0.0011833117  0.099218613   -0.0451772  -0.21605874 
   32000    6.3344562    1.2738367    5.0606195  -0.15643754   0.84924865   0.99086538   0.75094675   -1.2345679            1   0.56058948   0.88094394   0.87301969 -0.072195197 0.00098551205  0.022482751 0.0060378276   0.49117578   0.49698627  0.069830666        0.075    1.9306828          1.8  0.027932266    64.441602    2.7490524         70.1 0.0036308958  -0.10233488 -0.0010629955  0.097349663  -0.10612937  -0.15316438 
   33000    6.3497409    1.2891463    5.0605946  -0.15266292   0.85945531    1.0126012    0.7531477   -1.2345679            1   0.57263714   0.89087842   0.88641684 -0.059383828 0.0017083114  0.011122729 -0.0087609293      0.50302   0.50763873  0.069873077        0.075    1.9233521          1.8  0.027949231    64.402488    2.8064522         70.1 -0.00057157906 -0.099564922 0.0025634879   0.11919797  -0.12623512   0.51897345 
   34000     6.326569    1.2805425    5.0460265  -0.15828481    0.8537193   0.99986832   0.75227026   -1.2345679            1   0.60559472   0.90911322   0.91082482 -0.0031538885 0.00076700248 -0.011600833 0.0075735141   0.53605868   0.54141362  0.069851414        0.075    1.9196444          1.8  0.027940566    64.422461    2.8067383         70.1 0.00048391833  -0.10791885 -0.00027100412   0.08730704  0.095947401  0.089505061 
   35000     6.349461     1.284565     5.064896  -0.15698365   0.85640106   0.99070369   0.76317862   -1.2345679            1   0.58971937   0.89451156   0.89658968 -0.021943115 0.0025989674 -0.025755106 0.0075759042   0.51917502   0.52612655  0.069869252        0.075    1.9163511          1.8  0.027947701    64.406013    2.7916347         70.1 -0.0023265249   -0.1050207 0.0021781515  0.091675162    0.4874056   0.70274303 
   36000    6.3348642    1.2831126    5.0517516  -0.15460313   0.85543278   0.99785409   0.75657244   -1.2345679            1   0.59061452   0.89350223   0.90110757 -0.022766229 -0.00037340961 -0.045014379 0.0028193774   0.52068081   0.52656272  0.069852609        0.075     1.909637          1.8  0.027941043    64.421359    2.7747832         70.1 0.00059023707  -0.10345557 -0.0045433194   0.10502523    1.0110987   0.72555549 
   37000    6.3236172    1.2764975    5.0471197    -0.155073   0.85102258   0.99685621   0.74979241   -1.2345679            1   0.58566152   0.89015464   0.90085682 -0.034026912 -0.00033017915 -0.019320654  0.010669554   0.51635452   0.52167377  0.069892192        0.075    1.9068526          1.8  0.027956877    64.384875     2.788419         70.1 -0.0002593624 -0.098501752 -0.0061754732  0.090701515 -0.0022490684 -0.067411519 
   38000     6.323617    1.2784564    5.0451607  -0.15746148   0.85232852   0.98965903   0.75700324   -1.2345679            1   0.57014325   0.87928571   0.88412467 -0.052980646 -0.0039162399 -0.0027485472  0.013075308   0.50016972   0.50661748  0.069864166        0.075    1.8967315          1.8  0.027945666    64.410702    2.7870599         70.1 0.0025352898  -0.10658945 -0.0024409216  0.096554921 -0.001146521  -0.95153804 
   39000    6.3357073     1.280251    5.0554563  -0.15647426   0.85352493    1.0020668   0.75041417   -1.2345679            1   0.58545335   0.89323757   0.90027948 -0.037157005 -0.00028350814 -0.0076196994 0.0010539974   0.51608888   0.52113113  0.069872936        0.075    1.8930248          1.8  0.027949175    64.402618    2.7924847         70.1 0.00077757156 -0.097470682 -0.0023882412   0.10300222   0.59897163   -0.3104664 
   40000    6.3245688     1.268096    5.0564728  -0.15720552    0.8454214   0.99263382    0.7432335   -1.2345679            1   0.57011627   0.88232066   0.88740099 -0.059372842 0.0018323888  0.011777716  0.015407946   0.50141555   0.50639955  0.069876801        0.075    1.8793978          1.8  0.027950721    64.399055    2.8219697         70.1 0.00083981296  -0.10158537 0.0059919978   0.10367355   0.28696019  -0.88483907 
   41000    6.3293454    1.2683379    5.0610075  -0.15626782   0.84558265   0.98186211   0.75098692   -1.2345679            1    0.5869895   0.89845382   0.89878718 -0.036272487 0.0010544236  0.024101825 0.0072318693   0.51757209   0.52396421   0.06985205        0.075    1.8778545          1.8   0.02794082    64.421875    2.7896862         70.1 -0.0051265646 -0.088287044 -0.0093502478   0.10309769   0.47503448  -0.74627222 
   42000    6.3445244    1.2799892    5.0645352  -0.15653877   0.85335042   0.99263734   0.75666659   -1.2345679            1   0.59050838   0.89799021   0.89870168 -0.025166745 0.0058998443  0.027987648 -0.014822125   0.52056597   0.52679144   0.06989085        0.075    1.8751906          1.8   0.02795634    64.386111    2.8107511         70.1 0.0011020525 -0.094938439 -5.9865936e-05   0.11149635   -1.1247189   0.33032528 
   43000    6.3281628    1.2800877    5.0480751  -0.15664557   0.85341609    1.0127802   0.74279011   -1.2345679            1   0.59601746   0.90396387   0.90819718 -0.024108666 0.0021393296  0.031012282  0.019989148   0.52735772   0.53100756  0.069860075        0.075    1.8796777          1.8   0.02794403    64.414475     2.804715         70.1 -0.0010341265  -0.10665132 -0.00038475841  0.085741595   -2.3269144   -1.3427844 
   44000    6.3372512    1.2828113      5.05444  -0.16001572   0.85523185    1.0059723   0.75059444   -1.2345679            1   0.59272189   0.90516833   0.89564011 -0.022642784 -0.0020527143 0.0025764948 -0.00050891422   0.52334075   0.52814898   0.06988358        0.075    1.8710745          1.8  0.027953432    64.392809    2.8115533         70.1 0.00073356689 -0.092854324 -0.0031785311  0.085837969  -0.81259205    1.8607402 
   45000    6.3325807    1.2770715    5.0555092  -0.15645082   0.85140523    1.0007651   0.74772638   -1.2345679            1    0.5727755   0.88064974   0.89045443 -0.052777652 3.1896358e-05 -0.0033238711 0.0076815429   0.50365948   0.50853684   0.06984089        0.075     1.872735          1.8  0.027936356    64.432169    2.7986792         70.1 0.0094335058  -0.11271425 -0.0019697853  0.087889619 -0.038232448   -1.1001141 
   46000    6.3364943    1.2746807    5.0618136  -0.15648083   0.84981131   0.99932958   0.74602236   -1.2345679            1   0.57534943   0.88593592   0.88617175 -0.046059376 -0.00035998282 -0.036348945  0.026642251   0.50639092   0.51120291   0.06989139        0.075    1.8652511          1.8  0.027956556    64.385613    2.7897603         70.1  0.004554203  -0.10221212 -0.0017378594  0.097870775     1.292152    1.3915209 
   47000     6.309156      1.27403     5.035126  -0.15822905   0.84937749   0.98940905   0.75217639   -1.2345679            1   0.60511604   0.91059271   0.90630761 -0.0015522043 -0.0022711592 -0.022312053   0.01499202   0.53558868   0.54160632  0.069890472        0.075    1.8587494          1.8  0.027956189    64.386459    2.8170864         70.1 -0.0025901543 -0.098520289 0.00055106232   0.10415054    0.1519132   -1.5396794 
   48000    6.3412724    1.2799329    5.0613395  -0.15268485   0.85331286   0.99453907   0.75528234   -1.2345679            1   0.56832792   0.88224278   0.88265913 -0.059918151 0.0030204187  0.011814935 0.0018805889   0.49851346   0.50448891  0.069818935        0.075    1.8497183          1.8  0.027927574     64.45243    2.7857263         70.1 0.0030030859 -0.093231413 0.00020798015  0.088334744  -0.48845309   0.17046285 
   49000    6.3183397    1.2696761    5.0486636  -0.15661415   0.84647479   0.99908343   0.74053964   -1.2345679            1   0.59130711   0.90595815   0.89716213 -0.029198959 -0.00092329255 -0.0084454755 0.0012682211   0.52285539   0.52717639  0.069863128        0.075    1.8495259          1.8  0.027945251    64.411659    2.7951287         70.1 -0.006557915  -0.10355647 -0.0013067721   0.10280997  -0.50034387    1.6861433 
   50000    6.3319919    1.2865055    5.0454864   -0.1627484   0.85769473    1.0136883   0.74940953   -1.2345679            1   0.61810337   0.91632088   0.92033261  0.017656608 -0.00089837421  0.020516746 -0.003640226   0.54883176   0.55303517  0.069831491        0.075     1.849867          1.8  0.027932597    64.440841    2.7922619         70.1 -0.0091004653  -0.10910701 0.0028151529   0.10234011  -0.28975383 -0.054979573 
   51000    6.3528723    1.2917048    5.0611675  -0.15352933   0.86116104    1.0093993   0.75826149   -1.2345679            1    0.5924901   0.89461306   0.90131824 -0.018460995 0.00028233636  0.014928036 0.0034200229   0.52240026   0.52769721  0.069873734        0.075    1.8428803          1.8  0.027949494    64.401883    2.7866045         70.1 -0.0036715576  -0.11974185 0.0032542848  0.098972295 -0.073176235  -0.65634515 
   52000     6.332898    1.2837392    5.0491588  -0.15173954   0.85585049    1.0035591   0.75331849   -1.2345679            1   0.56784539   0.87455573   0.88184643 -0.052865988 -0.0013931141 0.0022758269 -0.0014749442   0.49821246   0.50342738  0.069865655        0.075    1.8361414          1.8  0.027946262    64.409329     2.796305         70.1 0.00094302193  -0.11138121 0.0013351114   0.09631643  -0.42938817  -0.98649796 
   53000    6.3428016    1.2864324    5.0563693  -0.15805188   0.85764599    1.0080761   0.75322419   -1.2345679            1   0.60665482   0.91670394   0.90822111 -0.0049605901 0.00076557606  -0.01498269 0.00028031533   0.53703061   0.54194687  0.069898178        0.075    1.8307066          1.8  0.027959271    64.379361    2.8108636         70.1 0.0043854404 -0.093091636 -0.0047077856  0.096094959  0.023810278    0.5877638 
   54000    6.3341717    1.2893927     5.044779  -0.16133355   0.85961961    1.0053547   0.75845831   -1.2345679            1   0.59886668   0.90400842   0.90182863 -0.0092370089 -0.0025921225 -0.016798884 -0.0061395504   0.52875865   0.53433342  0.069834934        0.075    1.8226921          1.8  0.027933973    64.437664    2.7752047         70.1 -0.000299279 -0.095271383 -0.00068907157    0.1121952   0.74633237   0.61377285 
   55000    6.3311751    1.2826496    5.0485255   -0.1573369   0.85512405    1.0026114   0.75274569   -1.2345679            1   0.59627152   0.90427665   0.89666698 -0.012129055 0.0035782751 -0.0098348133 0.0069207211   0.52669154   0.53191435  0.069843188        0.075    1.8201858          1.8  0.027937275    64.430048     2.780713         70.1 -0.0054941026  -0.10611584  0.002967409   0.10219964   0.40842586 -0.0058186854 
   56000    6.3248767    1.2788504    5.0460264  -0.15421403   0.85259119    1.0068363   0.74551994   -1.2345679            1   0.58201113   0.88793533   0.88812821 -0.030030139 -8.119584e-05 0.0017559072  0.011073681   0.51309906   0.51738276  0.069893857        0.075    1.8168584          1.8  0.027957543    64.383341    2.8033511         70.1 -0.00063875856   -0.1102006 0.00057815588   0.10485885   0.72457705  -0.24304833 
   57000    6.3247395    1.2778843    5.0468552   -0.1563008   0.85194712   0.99397618     0.753359   -1.2345679            1   0.62000321   0.92048603   0.92162439  0.017899201 -0.00054133175 -0.0099474855 0.0057142162   0.55036653   0.55620032  0.069841921        0.075    1.8147297          1.8  0.027936769    64.431217    2.7836559         70.1 0.0031120661  -0.11863391 -0.0051693794    0.1031348   0.73709624   0.34983152 
   58000    6.3338054    1.2810758    5.0527296  -0.16006973   0.85407486    0.9927124   0.75784203   -1.2345679            1   0.61257002   0.92010762   0.90479452  0.012807906 -0.00030914331 -0.00095844512 0.00053776889   0.54251895   0.54884825  0.069853972        0.075    1.8070576          1.8  0.027941589    64.420102      2.81677         70.1 0.0038208374 -0.096484654 -0.00073477304    0.1028828  -0.21454353    1.2722831 
   59000    6.3359312    1.2798702    5.0560611  -0.15487551   0.85327106    1.0003171   0.75119909   -1.2345679            1   0.59125173   0.89793447   0.89931518 -0.023494467 0.00098144247 -0.033810286  0.017137605    0.5218147   0.52704182  0.069846834        0.075    1.8091947          1.8  0.027938734    64.426685    2.7809793         70.1 0.0003893295  -0.10783776 -0.0018895752  0.099814323   0.72446978   0.49261517 
   60000    6.3248218    1.2741484    5.0506734  -0.15511294   0.84945642   0.99860113   0.74592686   -1.2345679            1   0.58869945    0.8898127   0.89511903 -0.018833386 0.0030275906  0.016777537  0.012392686   0.51974976   0.52459969  0.069878229        0.075    1.8095851          1.8  0.027951291     64.39774    2.7916964         70.1 -0.00043479575  -0.10908826 -0.0031372198   0.11014849   -1.1282773   0.30521369 
   61000    6.3318078    1.2736797     5.058128  -0.15543372   0.84914399    1.0017585   0.74320489   -1.2345679            1   0.58970829   0.89632848   0.89103686 -0.018240468 6.4635269e-05 -0.011006568 0.0072158914   0.52101021   0.52540586  0.069853517        0.075    1.8031919          1.8  0.027941407    64.420521    2.7947496         70.1 -0.0013796303  -0.10727254 -0.0038898051     0.104729    1.3949951 -0.095119937 
   62000    6.3295096    1.2788842    5.0506254  -0.15802382   0.85261371    1.0012294   0.74945168   -1.2345679            1   0.59186527   0.89901815   0.89162424  -0.01504658 0.0013397935 -0.0068662618 0.0041838795   0.52258977    0.5275968   0.06986922        0.075    1.7979017          1.8  0.027947688    64.406043       2.8011         70.1 -0.00033853637  -0.10554167 -0.0087257026   0.10163118   0.68851975   0.68088934 
   63000    6.3284947    1.2823405    5.0461542  -0.15452675     0.854918    1.0093127   0.74774297   -1.2345679            1   0.60593189   0.90611255   0.90923731 0.0024458004 -0.00045022595  0.013464948 0.0015263203   0.53681433   0.54114456  0.069868962        0.075    1.7946608          1.8  0.027947585    64.406281    2.8008496         70.1 0.0032592884  -0.10503478 -0.00053875642   0.11625399  -0.77625804   -1.2497507 
   64000    6.3192952     1.274793    5.0445022  -0.15618216   0.84988618   0.99168568   0.75145738   -1.2345679            1   0.60259875   0.90554561   0.90477154 -0.0025209117 0.00014486177 0.0096177659 0.0093011721   0.53313785   0.53894289  0.069880926        0.075     1.796909          1.8  0.027952371    64.395254    2.8173227         70.1 -0.00058620946  -0.10782932 -0.0013802608   0.10136379  -0.47906724   0.62898034 
   65000    6.3387391    1.2823314    5.0564077  -0.15554885   0.85491193    1.0081086   0.74856886   -1.2345679            1   0.59225829   0.90317293   0.89426461 -0.020662667 -0.00058399115  0.036571601 -0.011059605   0.52306439   0.52754826  0.069881696        0.075    1.7955721          1.8  0.027952679    64.394544    2.8047973         70.1 -0.0055387978  -0.11011584 0.0044150977   0.10356834 -0.095178924   0.39027974 
   66000    6.3307509    1.2722323    5.0585186  -0.15546151   0.84817901    1.0038423   0.74012272   -1.2345679            1   0.58295253   0.88661958   0.89339572 -0.031157713 -0.0011166763  0.018248226 0.0065280449   0.51453935   0.51851634  0.069871962        0.075    1.7855748          1.8  0.027948785    64.403516    2.8055493         70.1 -0.0040356047  -0.10023762 0.0026612141  0.094088445   0.12449829  -0.69198293 
   67000    6.3278884    1.2827081    5.0451803  -0.15429917   0.85516307    1.0028931   0.75261621   -1.2345679            1   0.61252228   0.91385204   0.91540678   0.00830802 0.00048879437  -0.02024513 -0.0011812125   0.54295427   0.54814702  0.069855784        0.075    1.7800885          1.8  0.027942313    64.418431    2.7815725         70.1 0.0045758811  -0.10230634 -0.0016210074  0.099099581   0.81721264   0.70147459 
   68000    6.3382111    1.2804997    5.0577114  -0.15331902   0.85369077    1.0082277   0.74641687   -1.2345679            1   0.61366158   0.91183027   0.91461296  0.014541502 -0.0017876938 -0.020916999 -0.0013535528    0.5446666   0.54894389  0.069873577        0.075    1.7821635          1.8  0.027949431    64.402027    2.8025001         70.1 -0.00086101369  -0.11570827 -0.0075027771  0.096656718    1.0322325   0.66823515 
   69000    6.3303032     1.277296    5.0530072  -0.15726719    0.8515549   0.99742399   0.75030014   -1.2345679            1   0.60493924   0.90643543   0.90795048 0.00043181063 0.0014120075 -0.030153281 -0.016297772   0.53558531   0.54091504  0.069846492        0.075    1.7777761          1.8  0.027938597    64.427001    2.7860636         70.1 -0.0010603839  -0.10915178 -0.0030407513   0.10148049   0.33394391  -0.15319161 
   70000     6.336043    1.2784901    5.0575528  -0.15737175   0.85235102   0.99541473   0.75304444   -1.2345679            1   0.59170458   0.89450234   0.89825719 -0.017645784 0.00053248977 -0.016217905 -0.0033773493   0.52209698   0.52780936   0.06989027        0.075    1.7788007          1.8  0.027956108    64.386645    2.8115111         70.1 0.0010455335  -0.10041141 -0.00012156606  0.096175035   0.40907788   0.97329067 
   71000    6.3313643     1.274313    5.0570513  -0.15346314   0.84956616   0.98753515   0.75379737   -1.2345679            1    0.6213869   0.92043254   0.91829059  0.025437559 0.0029089896  0.025957847  0.016955165    0.5517097   0.55799746  0.069862307        0.075    1.7746809          1.8  0.027944923    64.412416    2.7697218         70.1 0.00061512178  -0.10916104 -0.0034625746   0.10972537  -0.70815662   0.95851956 
   72000    6.3440859     1.282244    5.0618419  -0.15553042   0.85485364    1.0052016   0.75048876   -1.2345679            1   0.59876524   0.90272945   0.90514565 -0.011579382 0.00038035184  0.038014324 -0.00083140972   0.52939388    0.5342418  0.069839098        0.075    1.7804727          1.8  0.027935639    64.433822    2.8186851         70.1 0.0012296595  -0.11418737   0.00645869   0.10759568  -0.88540858   -1.3131605 
   73000    6.3319661    1.2776799    5.0542862  -0.15917844   0.85181084   0.99905062   0.74960425   -1.2345679            1   0.57905088   0.88998699   0.88402717  -0.03686152 -0.00019945461  0.012999779 0.0096705316   0.50976127   0.51492227  0.069831884        0.075    1.7786746          1.8  0.027932754    64.440478    2.7873704         70.1 0.0052117701 -0.093657438 0.0053315524   0.09980122    0.2714392  -0.73681875 
   74000    6.3144472    1.2747476    5.0396997  -0.16089768   0.84985589   0.99679376   0.74785886   -1.2345679            1   0.60647031   0.90639985   0.91187594  0.001135159 0.0025245124 -0.026395952 0.0087321536   0.53734204   0.54248657  0.069839486        0.075    1.7795757          1.8  0.027935794    64.433464    2.7928374         70.1 0.0056139157  -0.10911799 0.0013401463   0.10275302   0.53143099    1.1287251 
   75000    6.3249891    1.2726316    5.0523575  -0.15465025   0.84844519   0.99399862   0.74740949   -1.2345679            1   0.59904468   0.90152878   0.90721232 -0.011607058 -0.00042565709 -0.0041595079 -0.011937384   0.52995795   0.53524035  0.069862189        0.075    1.7794365          1.8  0.027944876    64.412525    2.8075467         70.1 0.00023641264  -0.11060199 0.0021023974  0.098344028 -0.013736194  -0.39684746 
   76000    6.3505834    1.2844006    5.0661827  -0.15718133   0.85629146    1.0045731   0.75336156   -1.2345679            1   0.59999446   0.89992434   0.90217588 -0.0021168414 0.00011920443 -0.0037688457 -0.0026287174   0.53035755   0.53551136  0.069888774        0.075    1.7729862          1.8  0.027955509    64.388023     2.803448         70.1 -0.0059806143  -0.10228197 -0.002116166    0.1004741   0.11308643   -0.8155388 
   77000    6.3371456       1.2865    5.0506456  -0.15774847   0.85769108    1.0109722   0.75128948   -1.2345679            1   0.63831859   0.93001381   0.93435878    0.0505832 0.0041206733 -0.0060918556 -0.012597274   0.56887322   0.57342474  0.069866308        0.075    1.7703798          1.8  0.027946523    64.408728    2.7970024         70.1 0.0041224725  -0.10591308 -3.1537816e-05  0.096493293   0.23143992    1.0607491 
   78000    6.3240381    1.2775037    5.0465344  -0.15605999    0.8516934    1.0028836   0.74674351   -1.2345679            1   0.61445169   0.91638263   0.91560704  0.011365396 -0.00088583661 -0.012786314 -0.012294264   0.54542652   0.55007704  0.069843944        0.075     1.763759          1.8  0.027937578    64.429351    2.7805921         70.1 0.0011535124 -0.092979722 -0.0012935699   0.09198052   0.78961669   0.55044332 
   79000    6.3277286    1.2702712    5.0574575  -0.15798335   0.84687154   0.99215033   0.74602649   -1.2345679            1   0.56966597   0.87551361   0.88213254 -0.048648235 -0.0044875054  0.011036841 0.0084618432   0.50070708   0.50598029  0.069890951        0.075    1.7609248          1.8  0.027956381    64.386017    2.7852611         70.1 -0.0020730171  -0.10385793 -0.0004188506   0.10262206  -0.08704954  -0.23860279 
   80000    6.3310596    1.2789704    5.0520893  -0.15314643   0.85267118   0.99734778   0.75224457   -1.2345679            1    0.5620999    0.8749784   0.87608936 -0.064768045 0.0019565778  0.020358831 -0.005453435   0.49256624    0.4980806  0.069850247        0.075    1.7618455          1.8  0.027940099    64.423538    2.7865252         70.1 0.0051905641  -0.10772493 0.00050706514    0.1110229  -0.67100633  -0.15954852 
   81000    6.3282203    1.2667378    5.0614825  -0.15648202    0.8445159    1.0012604   0.73570857   -1.2345679            1   0.58995722   0.88929895    0.8963638 -0.015791092 -0.0038731166 -0.015524171 -0.0035152828   0.52195206   0.52568676  0.069845885        0.075    1.7589048          1.8  0.027938354    64.427561    2.7937408         70.1 -0.00056166775  -0.10872841 -0.0066886826  0.089383829  -0.50203531   0.44185419 
   82000    6.3222559    1.2746115    5.0476443  -0.15614607   0.84976521    1.0019474   0.74412634   -1.2345679            1   0.58369239   0.89017836   0.89109418 -0.030195366 -0.0023754478 0.0099953303 0.00030179009   0.51490914   0.51937783  0.069865945        0.075    1.7529947          1.8  0.027946378    64.409062    2.7960514         70.1 -0.0011456969  -0.10616234  0.004352407   0.10204907  -0.23738903 -0.043995686 
   83000    6.3420485    1.2795057    5.0625428  -0.15732791   0.85302807   0.99679071   0.75323617   -1.2345679            1   0.61488501   0.91660772   0.91725096  0.010796356 -0.0044015171 0.0011099339 -0.0020393169   0.54525969   0.55090147  0.069871709        0.075     1.754716          1.8  0.027948684    64.403749     2.808631         70.1 0.0023373231  -0.11587393 0.0016881161   0.10097177  -0.24618017    1.3580238 
   84000    6.3459804    1.2806902    5.0652901  -0.15847786    0.8538178    1.0002486   0.75217308   -1.2345679            1   0.59587502   0.90309873   0.89401015 -0.0094838317 0.0032769708 -0.0025627124 0.0042697238   0.52634796   0.53166951  0.069900257        0.075    1.7529227          1.8  0.027960103    64.377446    2.8225319         70.1 0.00077745986 -0.097124409 0.00013591572   0.10800423  -0.39872283  -0.57314498 
   85000     6.358176    1.2873754    5.0708006  -0.15565628   0.85827468    1.0039178   0.75717714   -1.2345679            1   0.56539102   0.87286638   0.87253453 -0.049227844 0.00085537436 -0.035523904 0.00099378446   0.49540142   0.50094999  0.069841552        0.075    1.7452769          1.8  0.027936621    64.431557    2.7997674         70.1 -0.00088631849  -0.10455157 -0.0037576747   0.10275178   0.96005333   0.62917826 
   86000    6.3202085    1.2653006    5.0549079  -0.15688778   0.84355771   0.98838969   0.74302277   -1.2345679            1   0.57400202   0.88249362   0.88267322 -0.043160761 -0.0015947782 -0.019960293 -0.0054134069   0.50532078   0.51055773  0.069864056        0.075    1.7431556          1.8  0.027945622    64.410804    2.7918517         70.1 -0.0042149075  -0.10054463 0.00082547186  0.095698068 -0.019877211  -0.26064422 
   87000    6.3333851    1.2753733    5.0580117  -0.15667707    0.8502731    1.0049945   0.74287099   -1.2345679            1   0.60650133   0.90778889    0.9093865 0.0023285904 -0.00031080115 0.0032536108 0.0028535944   0.53783411   0.54199118  0.069823561        0.075    1.7424539          1.8  0.027929424    64.448159     2.786676         70.1 0.0086429931  -0.10937527 -0.0010008232   0.10175532   -0.8290985   0.64289828 
   88000    6.3227554    1.2751752    5.0475802  -0.15307721   0.85014097    1.0007181   0.74561673   -1.2345679            1    0.6125708   0.90869967   0.91684841  0.012164324 0.00099033281 -0.0015176067 -0.0016612959   0.54364978   0.54833516  0.069877875        0.075    1.7414122          1.8   0.02795115    64.398066    2.8060429         70.1 0.0085970622  -0.10723527 -0.0052230552    0.1007685   0.43613656    2.1189112 
   89000    6.3390497    1.2758057    5.0632439  -0.15553097   0.85056137   0.99698045   0.74892463   -1.2345679            1    0.5764297   0.88504293   0.89025304 -0.046006883 -0.00052657435  0.029920463 -0.014151449   0.50720291   0.51243397  0.069874845        0.075     1.746398          1.8  0.027949938    64.400858    2.8013468         70.1   0.01008039  -0.10354263 0.0076476038    0.1175045   0.18336085  -0.96973666 
   90000    6.3290388    1.2670597    5.0619791  -0.15560771   0.84473052   0.99101507   0.74318692   -1.2345679            1   0.58702613   0.89474869   0.89240079 -0.026071099 -0.0017942692  0.025794345 0.0075027204   0.51832971   0.52341332  0.069854116        0.075    1.7354993          1.8  0.027941646    64.419969    2.7837446         70.1 0.0039979127  -0.10191984 0.0037848597  0.097440069   0.93415264 -0.027138035 
   91000    6.3253539    1.2718664    5.0534876  -0.15777073   0.84793504    1.0001577   0.74226797   -1.2345679            1   0.59757949   0.89708699   0.90710038 -0.011448882 -0.00048683151 -0.015153596 -0.0042570046   0.52896802   0.53337982  0.069897104        0.075    1.7396118          1.8  0.027958841     64.38035    2.8165533         70.1 -0.0041551751 -0.097645122 0.0023271499   0.10452406   0.49515851  -0.34857841 
   92000    6.3505606    1.2944597    5.0561009  -0.15644051   0.86299767    1.0068264   0.76316033   -1.2345679            1   0.62486873   0.92566508   0.91677959  0.032161531 -0.0023296347 -0.024797298  0.001008746   0.55432607     0.560241  0.069848268        0.075    1.7327553          1.8  0.027939307    64.425362    2.8083202         70.1 0.0034071901  -0.10322707 0.0072189235   0.10792053  -0.55449586    1.3310664 
   93000     6.322205    1.2726516    5.0495534  -0.15639278   0.84845854   0.99601586   0.74603128   -1.2345679            1    0.6119173    0.9112407   0.91035103  0.014160174 -0.001910399  -0.01487751 -0.0070181147   0.54295796   0.54798349  0.069855817        0.075    1.7388415          1.8  0.027942327      64.4184    2.8083586         70.1 -0.0044159846  -0.11279184 0.0059126488   0.10611725  -0.15555219   0.48337262 
   94000    6.3304881    1.2737963    5.0566918  -0.15832244   0.84922169    1.0050767   0.74103232   -1.2345679            1   0.57394222   0.88270938   0.88711411 -0.047996826 0.0014251429  0.016840455 -0.015286262   0.50544496    0.5094268  0.069856889        0.075    1.7291506          1.8  0.027942756    64.417412    2.8006282         70.1 0.0053099065  -0.10506921 0.0056319387    0.1041622 -0.0060039587    1.2083936 
   95000    6.3432715    1.2890362    5.0542353  -0.15871706   0.85938189    1.0074133   0.75662593   -1.2345679            1   0.59096126   0.90104814   0.89340713 -0.021571488 -0.00089800162 0.0079219566 -0.0043370281   0.52102261   0.52629585  0.069849261        0.075    1.7230172          1.8  0.027939705    64.424446    2.7921972         70.1 -1.5951652e-05  -0.10914371 -0.0028556946    0.1008468  -0.52775669   0.34561314 
   96000     6.333242     1.280934    5.0523081  -0.15680155   0.85398027    1.0051516   0.74904357   -1.2345679            1   0.57617855    0.8855356   0.88136722 -0.038367168 -0.0029184837 -0.0081502405 -0.010182386   0.50694077   0.51165832  0.069849274        0.075    1.7213456          1.8  0.027939709    64.424435    2.7903018         70.1 -0.0036322299  -0.10059488 -0.0046921878   0.10980779   0.24973444   -0.8324013 
   97000    6.3366907    1.2794751    5.0572157  -0.15151156   0.85300767   0.99313872   0.75573766   -1.2345679            1   0.60783554   0.91104256   0.90407362 0.0083904413 -0.0016572541 -0.017182918 0.0026218634     0.537979   0.54408641  0.069857101        0.075    1.7217769          1.8   0.02794284    64.417217    2.7969688         70.1 -0.0042946308  -0.11079854 0.0045885695   0.11169636  -0.14786762  -0.55364666 
   98000    6.3627897     1.294466    5.0683237  -0.15360972   0.86300189    1.0085211   0.76199067   -1.2345679            1   0.59313707   0.89826299   0.89852175 -0.017373533 -0.0026577475 -0.018284181 0.0061647919   0.52270252   0.52840055  0.069828792        0.075    1.7231848          1.8  0.027931517    64.443331    2.7873206         70.1 0.0035648974  -0.10761383 0.0013177092  0.095238182 -0.034009011  -0.01986432 
   99000    6.3294502    1.2859696    5.0434807  -0.15702729   0.85733744    1.0022248   0.75676468   -1.2345679            1   0.60255718   0.90737895   0.90912311 -0.0088305354 0.0040684692 0.0039373368 -0.0040687621    0.5326057   0.53822482  0.069851942        0.075    1.7282997          1.8  0.027940777    64.421974    2.8003136         70.1 8.7933556e-05 -0.098890969 -0.0027715835   0.12111101   0.81361026   -1.1449834 
  100000    6.3262533    1.2767228    5.0495304  -0.15682836   0.85117278   0.99477823   0.75148993   -1.2345679            1    0.5814155   0.89539875   0.88420429 -0.035356529 0.00041390727 -0.031140565 -0.0015806225    0.5119516   0.51756114  0.069884121        0.075    1.7265679          1.8  0.027953648    64.392311    2.7883633         70.1 -0.0027763794   -0.1047731 0.0021903991  0.096464277    1.6618251  -0.16729458 
  101000     6.331535    1.2821051    5.0494299   -0.1521896   0.85476107    1.0068543   0.74918423   -1.2345679            1   0.59272543   0.89339818   0.89991245 -0.015134346 -0.0012459244 -0.0011820578 -0.0011253472   0.52347465    0.5280959  0.069871492        0.075    1.7297701          1.8  0.027948597    64.403949    2.8000716         70.1 -0.0011145601  -0.11177623 -0.0012751798   0.11725229   0.50718862    1.3926328 
  102000    6.3352278    1.2731038     5.062124  -0.15331738   0.84876002   0.99572376   0.74674496   -1.2345679            1   0.61601969   0.90835223   0.92095515  0.018751698 0.0033619748  0.023927594 -0.0049918389   0.54699439   0.55210463  0.069844334        0.075    1.7272158          1.8  0.027937734    64.428991     2.804188         70.1 -0.0056147513  -0.10569992 -0.0018117959   0.10743589  0.045027581   0.14351312 
  103000    6.3256464    1.2739037    5.0517426  -0.15875255   0.84929333   0.99568457   0.74767587   -1.2345679            1   0.58435486   0.89097746   0.88645104 -0.024363909 0.00089271732  0.023112812  0.008023587   0.51524351   0.52044232  0.069826874        0.075    1.7237825          1.8   0.02793075    64.445102    2.7826695         70.1 -0.0032715398  -0.10527999  0.001103713  0.094995138   -1.2139736  -0.65942121 
  104000    6.3466527    1.2871093    5.0595434  -0.15808466    0.8580973    1.0054094   0.75584081   -1.2345679            1   0.59327903    0.9045118   0.89660246 -0.021277158 -0.0019917388   0.01121958  -0.00109451   0.52341295   0.52874226  0.069868793        0.075    1.7261205          1.8  0.027947517    64.406437    2.7938133         70.1 0.0031891616  -0.10594168 0.0031255789   0.10907505  -0.47032333  -0.81115895 
  105000    6.3428078    1.2854298     5.057378   -0.1562465   0.85697761    0.9957419    0.7606569   -1.2345679            1   0.60752771   0.90545202   0.90742864 0.0097024739 -0.0016939963  0.017763081 0.0001022178   0.53721646   0.54361149  0.069863113        0.075    1.7204243          1.8  0.027945245    64.411673    2.7894316         70.1 -0.0036314156  -0.10636183  -0.00300673   0.10549009   0.59819261  0.012465823 
  106000    6.3317182    1.2722387    5.0594795  -0.15416765   0.84818325   0.99591379   0.74563568   -1.2345679            1    0.5945621   0.89590202   0.89973439  -0.01195011 0.0018601391 0.0087044239 -0.0073342064   0.52563933   0.53063484  0.069845463        0.075    1.7110748          1.8  0.027938185     64.42795    2.7888613         70.1 -0.002097529 -0.097615211 0.0028376646  0.095269778   0.57533186  -0.85569055 
  107000    6.3127268    1.2751434    5.0375834  -0.15810822   0.85011978   0.99400819   0.75024039   -1.2345679            1    0.6022167   0.91404685   0.90204384 -0.0094405849 0.0015595565  -0.01754521 -0.00090671498   0.53286829   0.53841176  0.069858437        0.075     1.706604          1.8  0.027943375    64.415985    2.7926981         70.1 -0.0021263107  -0.10547266 0.0032781421   0.10588403  -0.56815454  -0.12236324 
  108000     6.346818    1.2813528    5.0654652  -0.15490571   0.85425949   0.99818856   0.75435206   -1.2345679            1   0.57423969   0.88522643   0.88294846 -0.045455825 -0.0020817316 -0.0027472423 0.0098874519   0.50451122   0.51016641   0.06987436        0.075     1.703139          1.8  0.027949744    64.401306    2.8085724         70.1 -0.0042303273  -0.11037404  0.002327664   0.11593008   -1.2630794  -0.58809354 
  109000    6.3335206    1.2710642    5.0624564  -0.15555539   0.84740024    1.0069084   0.73667394   -1.2345679            1   0.57914387   0.88064467   0.88200142 -0.025214481 0.0040514355 0.0058256949  0.010892508   0.51104948   0.51451087  0.069832074        0.075    1.7053758          1.8   0.02793283    64.440303     2.791805         70.1 -0.00071899638   -0.1091474 -0.00042200313   0.10103422   0.20097924  -0.33709522 
  110000     6.345333    1.2785236    5.0668094  -0.15505592   0.85237336   0.99045175   0.75652873   -1.2345679            1   0.59832143   0.90014341   0.89810811 -0.0032872216 -0.00044010863 -0.0038551222 0.0007169144   0.52839176   0.53474478  0.069820962        0.075    1.6997533          1.8  0.027928385    64.450558    2.7639236         70.1 -0.0040422709  -0.10485939 0.0053839537   0.10520155   0.33362828  -0.69754173 
  111000     6.337533    1.2774585    5.0600744  -0.15488592   0.85166327   0.99043852   0.75533468   -1.2345679            1   0.54789564   0.86450598   0.86471687  -0.08553594 0.0010442515 -0.014424955 0.00021786525   0.47807634   0.48431983  0.069884966        0.075    1.6981909          1.8  0.027953986    64.391531    2.8207865         70.1 -0.0020894614 -0.091616483 0.00018497478   0.10727802   0.70123127   -2.0698383 
  112000    6.3258734    1.2722346    5.0536388  -0.15402607   0.84818052   0.99495337     0.746298   -1.2345679            1   0.60102084   0.90219884   0.90171767 -0.00085399421 1.4472612e-06 -0.0090278093 -0.0040478074   0.53203685   0.53715523  0.069847463        0.075    1.6984861          1.8  0.027938985    64.426105    2.7920163         70.1 -0.0026800143 -0.098445738 -0.0025290213  0.099397328  0.056904563   0.35923446 
  113000    6.3377057    1.2887536     5.048952  -0.15558243   0.85919355    1.0040067   0.75867244   -1.2345679            1     0.621852   0.91891221   0.91397744  0.032666339 0.00037747107 -0.0037544511  0.010086166   0.55172417   0.55740526   0.06988063        0.075    1.6997383          1.8  0.027952252    64.395527    2.7864263         70.1 0.0052026424  -0.11416938 0.0082537527   0.10940809  -0.13624603     1.641113 
  114000    6.3340128    1.2789264    5.0550864  -0.15507816   0.85264188   0.98956515   0.75759942   -1.2345679            1   0.60563303    0.9059309   0.91256701 -0.0015988311 0.0025584286  0.015411008 0.0033131873   0.53560439   0.54211328   0.06988926        0.075    1.6988168          1.8  0.027955704    64.387576    2.8147408         70.1 -0.0056793326  -0.10592496 0.0047887803   0.10839947  -0.39608087   0.37192119 
  115000    6.3361409    1.2800418    5.0560991  -0.15346882   0.85338549    1.0066427   0.74700029   -1.2345679            1   0.60742165    0.9073171    0.9033511  0.011596757 -0.0029960714  0.020465303 0.0015504557   0.53837274   0.54280571   0.06985022        0.075    1.6968675          1.8  0.027940088    64.423562    2.7776374         70.1 -0.00055192728 -0.094122758 -0.0022897932   0.10273193  -0.34360694  -0.92626133 
  116000    6.3363936     1.280989    5.0554046  -0.15605959   0.85401696    1.0031391   0.75050329   -1.2345679            1   0.59278359    0.8956709   0.89906409 -0.016384214  0.003578891 -0.018986912 0.0058194944   0.52341089   0.52839254  0.069848163        0.075    1.6983901          1.8  0.027939265    64.425459    2.7775766         70.1  -0.00497502  -0.10817575 -0.0060428349   0.10745225 -0.021894795   -1.3677093 
  117000    6.3255603    1.2800956    5.0454647  -0.15884275   0.85342137     1.001413   0.75069277   -1.2345679            1   0.59497348   0.89272885   0.89999435 -0.0078027455 -0.00016192628 -0.042235574  0.014042138   0.52558326   0.53069324  0.069855383        0.075    1.6946123          1.8  0.027942153    64.418801    2.7934156         70.1 0.0021950898  -0.10081158    0.0068134   0.11186653   0.35413772    0.5591445 
  118000    6.3450613     1.278227    5.0668343  -0.15274768    0.8521756    1.0059764   0.74541287   -1.2345679            1   0.60542349   0.90463542   0.90481365 0.0068213999 -0.0029669334 -0.024024817 0.0090533022   0.53652131   0.54085032  0.069863384        0.075    1.6951022          1.8  0.027945353    64.411424    2.7956311         70.1 0.0031568214  -0.11672236 0.0025537334   0.10318884   0.60707206   0.68026297 
  119000    6.3332234    1.2759674    5.0572561  -0.15928898   0.85066911   0.99739619   0.74881849   -1.2345679            1   0.58243299   0.88860185   0.88955537 -0.030858239 0.0041273793 0.0084283137 0.0026082544   0.51321602   0.51841058  0.069872855        0.075    1.6868557          1.8  0.027949142    64.402693    2.8099518         70.1 0.00069101585  -0.10032295 0.0027967756  0.099781117   0.53064138   -0.1991198 
  120000    6.3346573    1.2812081    5.0534492  -0.15750149   0.85416307    1.0098362   0.74610021   -1.2345679            1   0.59646275   0.90167676   0.89732569 -0.0096142144 0.0035197612  0.036106594 -0.0096135006   0.52749704   0.53164181  0.069881788        0.075    1.6915137          1.8  0.027952715     64.39446    2.8033516         70.1 0.0059458278 -0.093661207 0.0056835085   0.10516003  0.012659635  -0.28839031 
  121000    6.3264347    1.2772498    5.0491848  -0.15736947   0.85152413   0.99453187   0.75225638   -1.2345679            1   0.59079985    0.8946569   0.89223472  -0.01449206 -0.001476736 0.0067407852 0.00069989519    0.5212651    0.5269613  0.069832602        0.075    1.6957115          1.8  0.027933041    64.439815    2.7935183         70.1 -0.00091507622  -0.10899667  0.004365185   0.10400989   -0.7463722   -1.1035269 
  122000    6.3473713    1.2853234    5.0620479  -0.15271298   0.85690662    1.0000876   0.75751884   -1.2345679            1   0.59851302   0.89547069    0.9019853 -0.0019169222 7.036847e-05 0.0004047547 -0.011551378   0.52849183   0.53431785  0.069833379        0.075    1.6928782          1.8  0.027933352    64.439099    2.7646348         70.1 -0.00020818347  -0.10751334 0.0033485094   0.11312293  -0.69259843  -0.33190586 
  123000    6.3275777      1.27771    5.0498677  -0.15692688   0.85183088     0.996877   0.75114763   -1.2345679            1   0.61310026   0.91667222   0.91150086  0.011127714 0.00033825772   0.01252032 0.0051502701     0.543668   0.54911118  0.069845517        0.075    1.6913969          1.8  0.027938207      64.4279    2.7739454         70.1  0.001181635   -0.1034731 0.0038677994   0.11660851  -0.33967946  -0.62392247 
  124000    6.3519534    1.2861038    5.0658495  -0.15519041   0.85742696    1.0021515   0.75696725   -1.2345679            1   0.59420834   0.89819402   0.90255304 -0.018122036 0.0013442559 0.0083229392 -0.016918204   0.52423814   0.52988068  0.069824765        0.075    1.6909425          1.8  0.027929906    64.447049    2.7763905         70.1 0.0084075095    -0.108248 -0.00035427399   0.10590537  0.096639798     0.842629 
  125000    6.3292812    1.2761299    5.0531513  -0.15705517   0.85077745   0.99371345   0.75155948   -1.2345679            1   0.62452823   0.92443299   0.91384749  0.035304221 -0.0006394921 -0.016402809 0.00024912339    0.5550579   0.56074221  0.069800018        0.075    1.6869434          1.8  0.027920007    64.469897    2.7550459         70.1 0.0092599413  -0.10888112 0.0021486026   0.10392913 -0.073879022  -0.84784281 
  126000    6.3416682    1.2855718    5.0560965   -0.1531834   0.85707224    1.0000245   0.75784326   -1.2345679            1   0.59994124   0.90238361   0.90137493 -0.0039348143 0.0025641691 -0.010261422 -0.0038115423   0.52989006   0.53575012  0.069859668        0.075    1.6900839          1.8  0.027943867     64.41485    2.8162402         70.1 0.0043961038  -0.12075403 -0.0012158201   0.12290106   0.28879095   -1.0369342 
  127000    6.3227437    1.2721191    5.0506246  -0.15628771   0.84810353   0.99530236   0.74592519   -1.2345679            1   0.56699628   0.87663822   0.87960647 -0.055255855 -0.0014039292 -0.0029410706 -0.013674844   0.49804675   0.50310827  0.069852629        0.075    1.6923593          1.8  0.027941052     64.42134    2.8039086         70.1 -1.5122557e-05 -0.098512431 0.00083836547   0.11778581   0.34572415  -0.75758274 
  128000     6.334309    1.2751877    5.0591213  -0.15977388   0.85014933   0.99242494   0.75138992   -1.2345679            1   0.60766524    0.9038094   0.90833619   0.01085012 -0.0033371284 0.0021738055 -0.0047740287   0.53821057   0.54396193  0.069838388        0.075    1.6940875          1.8  0.027935355    64.434476     2.779689         70.1 0.0011608662  -0.10554998 0.00069585603   0.09904244   0.34556478   0.38374612 
  129000    6.3265453    1.2764962    5.0500491  -0.15558554   0.85102169   0.99946288   0.74798077   -1.2345679            1   0.57225757   0.87914849   0.88477052 -0.047146302 0.0050622023 0.0015451236 -0.003319432   0.50311803   0.50810249   0.06980707        0.075    1.6879639          1.8  0.027922828    64.463384    2.7850525         70.1 -0.00020434475 -0.096030476 0.0019991591  0.098524344 -0.0049794768  -0.73741051 
  130000    6.3298718    1.2802152    5.0496566  -0.15634773   0.85350108    1.0035716   0.74932882   -1.2345679            1   0.58913051   0.89525252   0.89731428  -0.02517526 0.0020433278  0.007119849 -0.0049021513   0.51986637    0.5247117  0.069872673        0.075    1.6830345          1.8  0.027949069     64.40286    2.8101207         70.1 0.00093024049  -0.11190721 0.00031920628   0.10788255  -0.79065574   -1.5696467 
  131000    6.3218433    1.2725883     5.049255  -0.16047677   0.84841632   0.99278175    0.7482056   -1.2345679            1   0.62398852   0.91905958   0.91731629  0.035589685 0.0028447137 0.0019034895 0.0059835154    0.5548282   0.56026231  0.069860082        0.075    1.6836333          1.8  0.027944033    64.414468    2.8154882         70.1 -0.0028543187  -0.10612015 0.0053539218   0.10692392   0.56721221    1.0644186 
  132000    6.3371465     1.276738    5.0604085  -0.15777567   0.85118288    1.0027544   0.74596818   -1.2345679            1   0.58505962   0.89030843   0.89828557 -0.033415149 0.00032618737  -0.02347516 0.0058890001   0.51610611   0.52069327  0.069880632        0.075    1.6815562          1.8  0.027952253    64.395525    2.7989213         70.1 0.00095423567  -0.11473821 0.0010076076   0.10966415   0.45727278   0.67022608 
  133000    6.3229343    1.2694188    5.0535155  -0.15313583   0.84630328   0.98790281   0.74801318   -1.2345679            1   0.58435904   0.88537148   0.88944567 -0.021740019 0.0034591097 -0.037497621 -0.021288821   0.51521651     0.520946  0.069831322        0.075    1.6851558          1.8  0.027932529    64.440997    2.7810139         70.1 0.0012486375  -0.10923352 0.00090703329   0.10057544   0.53722734    -1.176128 
  134000    6.3349211    1.2766672    5.0582539  -0.15855721   0.85113567    1.0001478   0.74769825   -1.2345679            1   0.61361208   0.91742259   0.90813516  0.015278477 0.0035753837 -0.0092090345 0.0074213155   0.54449865   0.54941304  0.069881974        0.075    1.6834991          1.8   0.02795279    64.394289    2.7958575         70.1 0.0025690046  -0.10993258 0.00020316604   0.11283162 -0.043919451  -0.18964426 
  135000    6.3564635    1.2823879    5.0740756  -0.15731825   0.85494957    1.0038838   0.75156646   -1.2345679            1   0.58029518   0.88549131   0.88862134 -0.033227111 -0.0017024043  0.011299196 -0.0026002252    0.5108242   0.51585633  0.069916119        0.075    1.6865272          1.8  0.027966447    64.362841     2.824966         70.1 0.0028454596  -0.10737143 0.0038318672   0.10042635   -1.1392956  -0.35548556 
  136000    6.3406841    1.2834716    5.0572126  -0.15503176   0.85567206    1.0019928   0.75410383   -1.2345679            1   0.61493996   0.91388054    0.9090375  0.021901825 -0.0023252546  0.012704268 -0.0067387293   0.54523443   0.55062249  0.069840372        0.075    1.6849555          1.8  0.027936149    64.432646    2.7933938         70.1 0.0028270137  -0.11386789 0.00042025057   0.10892283  -0.53508567    1.6295338 
  137000     6.326263    1.2740091    5.0522539     -0.15617   0.84936354   0.98731138   0.75360943   -1.2345679            1   0.60998252   0.91518577   0.90784604 0.0069157484 0.0028581627 0.0029870826 0.0013375815    0.5403227   0.54660745  0.069832213        0.075    1.6836718          1.8  0.027932885    64.440175    2.7610909         70.1 -0.0021301554  -0.10441206  0.007217238   0.10503696   0.58698723  -0.10372454 
  138000    6.3326281    1.2725711    5.0600571  -0.15633042   0.84840485   0.98246229   0.75535231   -1.2345679            1   0.56586304   0.87224344   0.87480216 -0.049456484 -0.0017964331 -0.021795325 -0.022777585   0.49604211   0.50279923  0.069828713        0.075    1.6841424          1.8  0.027931485    64.443404     2.795832         70.1 0.0051171257  -0.10333244  0.002903366  0.096778372     1.513507   0.19436914 
  139000    6.3241391    1.2671511     5.056988  -0.15811802   0.84479141   0.98776758   0.74554526   -1.2345679            1   0.60439599   0.90150457   0.90485866 0.0068247295  0.002117487 -0.015071238  0.005017246   0.53548157   0.54099163  0.069854595        0.075    1.6863751          1.8  0.027941838    64.419528    2.7814844         70.1 0.0020849536 -0.095341729 0.00095203366   0.10372617   0.19055898   0.58336933 
  140000    6.3440744    1.2798441    5.0642303  -0.15733389   0.85325368    1.0005075   0.75103738   -1.2345679            1   0.61546568   0.91407288   0.91660333  0.015720839 0.0055187124  0.030184009 -0.0011281506   0.54604361   0.55124355  0.069854573        0.075    1.6848359          1.8  0.027941829    64.419548    2.7834421         70.1 -0.0031625336  -0.10113663 0.0057458507   0.11578572  -0.90935334  0.073070314 
  141000    6.3325715    1.2808092    5.0517622  -0.15590796   0.85389711    1.0022667   0.75090604   -1.2345679            1   0.61803335   0.91476394   0.91191373  0.027422374 -0.0012492097  0.024010178 -0.023245448   0.54862341    0.5536983  0.069862397        0.075    1.6808882          1.8  0.027944959    64.412334    2.7879596         70.1 0.0022652099  -0.11223163 -0.00051982331    0.1066069  -0.73988774    1.0223174 
  142000    6.3289743    1.2657904    5.0631839  -0.15563272    0.8438843   0.98938778   0.74288306   -1.2345679            1    0.5790524    0.8898833   0.88389356 -0.036619651 0.0019167921  0.016464184 -0.0014968781   0.51038407   0.51554404  0.069889036        0.075    1.6742766          1.8  0.027955615    64.387781    2.8132899         70.1 -0.0031543276 -0.095491663 8.0557971e-05   0.11080754  -0.65591809  0.019180368 
  143000    6.3457924    1.2863172    5.0594752  -0.15256636   0.85756922    1.0040161   0.75591353   -1.2345679            1   0.57142949   0.88154018   0.87974223  -0.04699394 0.0010621396  -0.01868154 -0.013613044   0.50155669   0.50698215  0.069807947        0.075     1.681914          1.8  0.027923179    64.462575    2.7658415         70.1 -0.0067703653  -0.10558874 -0.0055427435   0.10354885    0.8719296   -1.8869224 
  144000    6.3128127    1.2627658     5.050047  -0.15677492   0.84186779   0.98444322   0.74289979   -1.2345679            1   0.63293796   0.92742561    0.9266797  0.044708558 0.0045207491 -0.051745409  0.017353658   0.56426808   0.56974699  0.069867767        0.075    1.6754906          1.8  0.027947107    64.407383    2.8016508         70.1 -0.0011154315  -0.11583641 -0.0029829608   0.10347105   0.79835408   0.62810119 
  145000    6.3422592    1.2888919    5.0533673  -0.15614628   0.85928573     1.003785    0.7589826   -1.2345679            1   0.64245934   0.93515761   0.93107464  0.061145767 -0.0013068713 -0.0036484964 -0.00056919683   0.57230285   0.57802683  0.069848949        0.075    1.6707748          1.8   0.02793958    64.424735    2.7913881         70.1 0.0012365648 -0.098563638 -0.0022412627   0.10577501   0.37038192     2.043518 
  146000    6.3479914    1.2827788    5.0652126   -0.1564569   0.85521023    1.0055711    0.7508364   -1.2345679            1    0.5679354   0.87564753   0.87610302 -0.047944361 0.0031427217  0.010930209 -0.0069796417    0.4985319   0.50338824  0.069851612        0.075    1.6795423          1.8  0.027940645    64.422278    2.7630767         70.1 -0.0042628272  -0.11935622 -0.0029149505   0.10857715  -0.25154383  -0.39056985 
  147000    6.3456508    1.2801583    5.0654925  -0.15742575   0.85346318    1.0006414   0.75129941   -1.2345679            1   0.59567013   0.89484249    0.9010771 -0.0089092021 -0.00059570304 -0.012705866 -0.0057491952   0.52622383    0.5314394  0.069865916        0.075    1.6778756          1.8  0.027946367    64.409089    2.7902821         70.1 -0.003109801  -0.10258085 0.0033221235   0.11478888   0.95681774   0.32985064 
  148000    6.3435453    1.2785097    5.0650356  -0.15567606   0.85236406   0.99517254   0.75323472   -1.2345679            1   0.64807199   0.94063578   0.93500374  0.068576444 -0.0017896531 -0.0021650769  0.014733098    0.5784468   0.58419231  0.069897084        0.075    1.6734081          1.8  0.027958834    64.380368    2.8200737         70.1 0.0012980284   -0.1041322 -0.00012296435   0.11629515  -0.25677963   0.97204885 
  149000    6.3351376    1.2777845     5.057353  -0.15857364   0.85188061    1.0079233   0.74356101   -1.2345679            1   0.61472413   0.91328618   0.91515094  0.015735277 -0.0055410529 0.0054568128 -0.010259593   0.54599314   0.55002599  0.069840118        0.075    1.6709095          1.8  0.027936047    64.432881    2.7819132         70.1 -0.0026852372  -0.10259457 0.0074291406   0.10439977   -0.1965447   0.73621424 
  150000    6.3276535    1.2701772    5.0574763  -0.15477639    0.8468089    1.0044564   0.73737461   -1.2345679            1   0.56451168   0.87601066    0.8709918 -0.053467416 -0.0019887762 -0.015331849  0.015346288   0.49635252   0.50003607  0.069870924        0.075    1.6700555          1.8   0.02794837    64.404472     2.772697         70.1 -0.0042296126  -0.11558785 0.0069327121  0.097494394   0.11037398   -1.4073291 
  151000    6.3356912    1.2727721     5.062919  -0.15266401   0.84853891   0.98676562    0.7525911   -1.2345679            1   0.59751187   0.89808985   0.90459016 -0.010144394 -0.00020575905 0.0012864536 0.0051881018   0.52794618   0.53417183  0.069869167        0.075    1.6641914          1.8  0.027947667    64.406092    2.8200827         70.1 -0.0055254106  -0.10523056 0.0053198472  0.098263156  -0.34901266   0.87245825 
  152000    6.3384949    1.2798436    5.0586513  -0.15662382   0.85325335   0.99830258   0.75256801   -1.2345679            1   0.59321946   0.89348306   0.89674099  -0.01056567 0.0019653427 -0.012053441 0.00075294258    0.5236559   0.52913887   0.06986451        0.075    1.6656745          1.8  0.027945804    64.410386     2.794485         70.1 -0.0017861097 -0.097824534 0.0073462112   0.11945603   0.53850935  -0.29471995 
  153000    6.3521008    1.2867936    5.0653072  -0.15403605   0.85788681    1.0092827    0.7527944   -1.2345679            1   0.59874827   0.89545357   0.90260267 -0.0018114407 0.00020199987 -0.027463989 -0.0079996594   0.52916378   0.53396286  0.069824367        0.075    1.6671454          1.8  0.027929747    64.447416    2.7653126         70.1 -0.0013024105   -0.1010529 0.0038710133   0.11149869   0.26692285    1.6872143 
  154000    6.3283179    1.2785538    5.0497641  -0.15658071   0.85239349    1.0063998     0.745488   -1.2345679            1   0.57793273   0.88652714   0.88511289  -0.03784184 -0.00094463411 -0.013187699 -0.011091156   0.50902361   0.51333238  0.069866332        0.075    1.6642655          1.8  0.027946533    64.408705     2.797373         70.1 0.0036175084  -0.10618065 0.0037215481   0.11220076  -0.18937743  -0.27132901 
  155000    6.3349851    1.2746341     5.060351  -0.15369465   0.84978023   0.99695895   0.74761594   -1.2345679            1   0.59609514   0.89423486   0.89516689 -0.0011163314 0.00098031393   0.02181786 0.0026724312   0.52698932   0.53210079  0.069835923        0.075    1.6706104          1.8  0.027934369    64.436751    2.7730577         70.1 -0.0061991585  -0.11756804 0.0010322024   0.10848739   -0.3082468   -1.1309634 
  156000    6.3424945    1.2805588    5.0619358  -0.15892772   0.85373015   0.99688512   0.75436025   -1.2345679            1    0.5975836    0.8919414   0.89757492 0.0032344901 -0.0012348525  0.032733074 0.0040360445   0.52785438     0.533594  0.069851888        0.075    1.6758848          1.8  0.027940755    64.422024    2.7941855         70.1 -0.0023479647  -0.10503843 -0.003728447   0.12619375  -0.92418505  -0.60594986 
  157000     6.329595    1.2761462    5.0534488  -0.15345331   0.85078833   0.99549887   0.75033807   -1.2345679            1   0.60542499    0.9119931   0.90226991 0.0020119619 0.00086750683 0.0038991417  0.011897662   0.53606755   0.54152436  0.069864088        0.075    1.6778449          1.8  0.027945635    64.410775     2.793167         70.1 0.0038283222  -0.11211307 -0.00075427625   0.11444932   0.63875815    1.6556074 
  158000    6.3366827    1.2765525    5.0601301  -0.15646503   0.85105924   0.99678908   0.74990116   -1.2345679            1   0.57698741   0.88002524   0.89016185 -0.039224875 0.00085513909 -0.034955862 0.00064134643   0.50767036   0.51300396  0.069870611        0.075    1.6793971          1.8  0.027948244    64.404761    2.8029442         70.1 0.0073861036  -0.10110687 0.00080814281    0.1168731   0.74139576   0.14664467 
  159000    6.3336135    1.2773848    5.0562287  -0.15904441   0.85161407    1.0000309   0.74859007   -1.2345679            1   0.60193895    0.8979806   0.90398719 0.0038490714 0.0024355399 -0.031624627 -0.0098200071   0.53274309   0.53774742   0.06984793        0.075    1.6790365          1.8  0.027939172    64.425674    2.7771395         70.1 -0.0022826728 -0.098632159 -0.0010180609   0.10727737   0.10727907  -0.96149857 
  160000    6.3323906    1.2729809    5.0594097  -0.15638219   0.84867808   0.98954882   0.75089418   -1.2345679            1   0.60957698   0.90797488   0.90792784  0.012828228 0.00056873624 -0.017830665 -0.0067499624   0.54016815   0.54605829  0.069857517        0.075    1.6704896          1.8  0.027943007    64.416833    2.7884763         70.1 0.0025189504 -0.099004729 0.0006081181   0.10962038 -0.056723157   0.62685433 
  161000    6.3312326    1.2883216     5.042911  -0.15221428    0.8589055    1.0048729   0.75758281   -1.2345679            1    0.6245928   0.92577196   0.92283406  0.025172398 -0.0001254434   0.01182099 -0.0015367468    0.5545657   0.56009046  0.069940059        0.075    1.6740466          1.8  0.027976024    64.340809    2.8266754         70.1 -0.0031210301  -0.11870305 -0.0063656031   0.11229911   0.34264735  -0.53668503 
  162000    6.3359497    1.2656126    5.0703371  -0.15249903   0.84376573   0.99641169   0.73780454   -1.2345679            1   0.58524425   0.88712875   0.88722803 -0.018624043 0.0032946862  0.024685486  -0.01027092   0.51704535   0.52128503  0.069837719        0.075    1.6722931          1.8  0.027935088    64.435094    2.7773457         70.1 0.0018227251  -0.10258786 0.0045680344   0.10910482  -0.29999032  -0.52653273 
  163000    6.3345316    1.2717431    5.0627885  -0.15406683   0.84785288   0.99060314   0.74876375   -1.2345679            1   0.62345714   0.91106272    0.9203981  0.038910617 -0.0017118365  0.016937872 0.0030036335   0.55424523   0.55987077  0.069860999        0.075    1.6673329          1.8    0.0279444    64.413622    2.7848739         70.1 -0.00079598014  -0.10346912 0.00073040726    0.1091759   -1.0782854   0.62594703 
  164000    6.3616253    1.2966166    5.0650087  -0.15553678   0.86443569    1.0196147   0.75671645   -1.2345679            1   0.60171108   0.90372854   0.90237257 -0.00096785937 0.0017732335 0.0073964389  0.012052983   0.53176406   0.53626247  0.069845657        0.075    1.6751217          1.8  0.027938263    64.427771    2.8004959         70.1 -0.0029011581  -0.10604936 0.0007497752   0.11535419  -0.92852748  -0.20673431 
  165000    6.3335303    1.2813516    5.0521786  -0.15698265   0.85425874     1.010362    0.7458972   -1.2345679            1   0.59359741   0.89501076   0.89266228 -0.0068808085 -0.0011961544 -0.024507039 0.0089142476   0.52465047   0.52874273  0.069863797        0.075    1.6753396          1.8  0.027945519    64.411043    2.7975371         70.1 0.0024260291  -0.10348388 -0.0028077841   0.11077585  -0.49733218   0.61882258 
  166000    6.3360707    1.2807486    5.0553221  -0.15801598   0.85385671    1.0075364   0.74717817   -1.2345679            1   0.59555692   0.89790278   0.90063036   -0.0118624 -0.0004829938 0.0088588811 6.2463739e-05   0.52649157   0.53088361  0.069826164        0.075    1.6735525          1.8  0.027930466    64.445757    2.7736424         70.1 0.0067645464  -0.10964251 0.0048069784   0.10915631  -0.22755377  0.061268424 
  167000    6.3378989    1.2817635    5.0561354  -0.15500153   0.85453332    1.0034778   0.75114306   -1.2345679            1    0.6098298   0.90553739   0.90741398  0.016538029 -0.0015344358 0.0073559712 -0.0068300018   0.54039796   0.54541701  0.069854528        0.075     1.665883          1.8  0.027941811    64.419589    2.7870688         70.1 0.00084857211  -0.10972824 0.0027613938   0.10564123   0.32085852   -1.0406698 
  168000    6.3520593    1.2896128    5.0624465  -0.15457738   0.85976637    1.0020466   0.76100422   -1.2345679            1   0.61454898   0.91154473   0.91176328  0.020338925 0.0020292078 -0.0088088897 -0.0057430779   0.54420562   0.55022806  0.069885354        0.075    1.6642508          1.8  0.027954142    64.391174    2.8125895         70.1 -0.00031550504 -0.098409499  0.002754599  0.098882111   0.80109936   0.24237279 
  169000    6.3381082    1.2814198    5.0566884  -0.15670861   0.85430419    1.0048673   0.74978992   -1.2345679            1   0.58567914   0.88767738   0.89083182 -0.021471768 0.0020306091 -0.010908664 -0.010149845   0.51637238   0.52117716    0.0698743        0.075    1.6633141          1.8   0.02794972    64.401361    2.7913592         70.1 0.0052928281   -0.1127105 0.0050079063   0.11095271   0.82807472     0.994638 
  170000    6.3176898     1.268396    5.0492938  -0.15617537   0.84562142   0.98969141   0.74561572   -1.2345679            1   0.59085513    0.8974103   0.89224101 -0.017085911 -0.0036656009 0.0033140351 -0.0032517692   0.52193421   0.52732729  0.069879983        0.075    1.6618492          1.8  0.027951993    64.396123    2.8057697         70.1 -0.0048663815   -0.1105049 0.0051548939   0.11338373  -0.23531213  -0.80485222 
  171000    6.3262324    1.2784972    5.0477352  -0.15887185   0.85235572    1.0009317   0.74922127   -1.2345679            1   0.60195411   0.90360109   0.89844223 0.0038190158 -0.0014621906 0.0016550416 -0.0048532395   0.53269991   0.53770476  0.069854111        0.075    1.6587173          1.8  0.027941644    64.419974    2.7855024         70.1 -0.0049761707  -0.10599323 -0.0011765264   0.10423991   0.23657096   0.35979154 
  172000    6.3272771    1.2719296    5.0553476  -0.15715411   0.84797717      1.00489    0.7390531   -1.2345679            1   0.61308659   0.92031059   0.90957063  0.009378554 -0.0014752604 0.0027093181  0.017831661   0.54477228   0.54858315   0.06987275        0.075    1.6629919          1.8    0.0279491     64.40279     2.798994         70.1 -0.0023179319  -0.10868113 -0.001240297   0.11683746   0.20758183   0.99593617 
  173000    6.3319395     1.274856    5.0570835  -0.15230463    0.8499282   0.98465328   0.75641209   -1.2345679            1   0.59897794   0.90125012   0.90296228 -0.0072785835 -0.0039923203 -0.00025726423 -0.0015754166   0.52905905   0.53577349  0.069871995        0.075     1.660176          1.8  0.027948798    64.403485    2.8018311         70.1  0.003189868  -0.10678172 0.0043115902   0.11397126  -0.45716969  -0.91551888 
  174000    6.3356745    1.2818359    5.0538386  -0.15863789    0.8545816     1.007561   0.74838939   -1.2345679            1    0.6109429   0.90692186   0.90512136  0.020785493 -0.0042449133 -0.021089928 -0.0070010078   0.54176559   0.54626802  0.069880102        0.075    1.6546604          1.8  0.027952041    64.396013    2.7930602         70.1  0.004297796   -0.1067996 0.0010902768  0.099103202    1.2153358   0.16611798 
  175000    6.3564177    1.2857581    5.0706596  -0.15373616   0.85719648     1.003072   0.75593755   -1.2345679            1   0.59002194   0.89408042   0.89361038 -0.017624972 0.0017976281 -0.024094185  0.010740386   0.52014692    0.5256352  0.069859682        0.075    1.6502046          1.8  0.027943873    64.414837    2.7790362         70.1  0.001910496  -0.11177732 -0.0044342626   0.11541121    1.2493739    0.7100743 
  176000    6.3527227    1.2908461    5.0618766  -0.15934679   0.86058855    1.0102518   0.75669943   -1.2345679            1   0.58486844   0.88954542   0.88765424  -0.02259434  0.001912785 -0.0053440954 0.0034655085   0.51492299   0.52002083  0.069839805        0.075    1.6508376          1.8  0.027935922     64.43317    2.7866001         70.1 0.0038814718 -0.097367051 0.0038881274   0.10257367   0.16485269   0.16322833 
  177000    6.3215092    1.2857719    5.0357373  -0.15741303   0.85720564    1.0036218   0.75557127   -1.2345679            1   0.56919123   0.87929043   0.88206763 -0.053784376 -0.0022459529   0.01836475  0.013909069   0.49935006    0.5047692  0.069891129        0.075    1.6463664          1.8  0.027956452    64.385853    2.8094081         70.1 0.0020107654  -0.10104422 -0.0073373644   0.10178169  -0.55101099   0.30051139 
  178000    6.3412858    1.2845694    5.0567164  -0.15570036   0.85640396    1.0059726   0.75258035   -1.2345679            1    0.6036508   0.90251455   0.90636461 0.0020732441 0.0013976944 -0.0045557076 0.00041135533    0.5340861   0.53907787  0.069843175        0.075    1.6444957          1.8   0.02793727    64.430061     2.790696         70.1 0.0029605619 -0.099622323 0.0042141607   0.11176843 -0.031928038  -0.66727483 
  179000    6.3273491    1.2756334    5.0517157  -0.15599927   0.85044644    1.0057625   0.74263137   -1.2345679            1   0.64527455   0.94061794   0.93649707  0.058708661 -0.0050984985  -0.01933502 -0.0034003341   0.57662949   0.58071511  0.069875441        0.075     1.643114          1.8  0.027950176    64.400309    2.8288381         70.1 0.0017680493 -0.098258403 0.0049576428   0.10478457   0.86190858    1.3290497 
  180000    6.3347409     1.278488     5.056253  -0.15727327   0.85234956    1.0023279   0.74824122   -1.2345679            1   0.61585804   0.90692718   0.91653991  0.024107032 -0.00022510783  0.022061456 0.0010198714   0.54669443   0.55151906  0.069866972        0.075    1.6426579          1.8  0.027946789    64.408115     2.800396         70.1 0.00028672748 -0.098074665 -0.0010313407   0.11688175  -0.68041977  -0.26678073 
  181000    6.3524406    1.2888387    5.0636019  -0.16221043   0.85925023    1.0064967   0.75703933   -1.2345679            1   0.57478972   0.88430063   0.87835335  -0.03828482 0.0032594018  0.011860755 0.0021183989   0.50481286   0.51018315  0.069879959        0.075    1.6408613          1.8  0.027951984    64.396146    2.7995776         70.1 -0.0039055414   -0.1028217 -0.003407652    0.1232495   -0.5599893  -0.71310541 
  182000    6.3597692    1.2783275    5.0814416  -0.15705492   0.85224262    1.0011556   0.74887412   -1.2345679            1   0.60536599   0.90441134   0.90419042 0.0074962099 0.00045332024 0.0028971942 0.0027346004   0.53614388   0.54110226  0.069905552        0.075    1.6433733          1.8  0.027962221    64.372569    2.8098922         70.1 0.0046178905  -0.10562997  0.004840545   0.11259731  -0.44573379   0.32382947 
  183000    6.3181092    1.2614931    5.0566161  -0.15950067   0.84101933   0.98644178   0.74007421   -1.2345679            1   0.59867785     0.902528   0.89588851 -0.002382958 -0.00027579205 -0.020585264  0.011202144   0.53026916    0.5353586   0.06986461        0.075    1.6434384          1.8  0.027945844    64.410293    2.8003287         70.1 -0.0013634399  -0.10503007 0.0053113321   0.11506226   0.69971502  -0.61805839 
  184000    6.3381185    1.2859271    5.0521914  -0.15810399   0.85730913    1.0038571   0.75558319   -1.2345679            1   0.60555363   0.90849375   0.90433175 0.0038354021 -0.0048813133  0.025632862 -0.0027625921   0.53571137   0.54111649  0.069842851        0.075    1.6407665          1.8   0.02793714     64.43036     2.779657         70.1 -0.00050532045  -0.10720032 -0.0011596619  0.087973675  -0.15933365  -0.17991616 
  185000    6.3435114    1.2768159    5.0666954  -0.15370023   0.85123484   0.99984646   0.74807557   -1.2345679            1   0.59411018   0.89445414   0.89329957 -0.0054231574 0.0015856922  0.012764315  0.016315248   0.52496188   0.52993049  0.069831572        0.075    1.6444571          1.8  0.027932629    64.440766    2.7734448         70.1 0.0010359897 -0.099243653 0.0029122943   0.10916052  -0.11621614    1.5173144 
  186000    6.3255172     1.281873    5.0436442  -0.15981069   0.85460636   0.99599855   0.75646063   -1.2345679            1   0.61241584   0.91023529    0.9106067  0.016405529 0.00084200576 -0.039076092 -0.014681525   0.54249247   0.54848314  0.069783833        0.075    1.6496725          1.8  0.027913533     64.48485    2.7477333         70.1 0.0019695703 -0.094779539 0.00061382483   0.11172876   0.24634765  -0.36566577 
  187000     6.336813    1.2861717    5.0506413  -0.15429704   0.85747222    1.0082444   0.75281291   -1.2345679            1   0.60371641    0.9041023   0.90929442 -0.0022474973 0.0040032292 -0.0019836534 0.0087258049   0.53413021   0.53899765  0.069875991        0.075    1.6491759          1.8  0.027950396    64.399802    2.7938845         70.1 -0.0034132679  -0.10870168 0.0025225347   0.13080682  -0.18300169    2.0310357 
  188000    6.3364667    1.2873839    5.0490829  -0.15735271   0.85828033    1.0031366   0.75772924   -1.2345679            1   0.58078824   0.88584039   0.87841924 -0.021894903 -0.00015843664 -0.0042302695 0.0047176709   0.51074761   0.51639736  0.069837514        0.075     1.648202          1.8  0.027935006    64.435283    2.7765193         70.1 -0.005329299  -0.11908461 -0.0034387701   0.11378484  -0.33154799   -0.1635662 
  189000    6.3281121    1.2776915    5.0504206  -0.15764373   0.85181859    1.0036936   0.74639312   -1.2345679            1   0.61099544   0.90948735   0.90626988  0.017229083 -0.00077126487 -0.010891676 -0.0095276646   0.54200266    0.5465688  0.069804888        0.075    1.6466703          1.8  0.027921955    64.465399    2.7645684         70.1 -0.0001836925  -0.11281834   0.01019622   0.10376997  0.093614766   -1.7526937 
  190000    6.3305333    1.2747377    5.0557956  -0.15552954   0.84984931    1.0000155   0.74561047   -1.2345679            1   0.61446393   0.91087171      0.91299  0.019530087 -0.0042456354 -0.0011963986  0.012513772   0.54554349   0.55027339  0.069826475        0.075    1.6446296          1.8   0.02793059     64.44547    2.7849448         70.1 -0.0043022728   -0.1173784 -0.0052190969  0.098787821   0.24057458    1.4215693 
  191000     6.330005    1.2786205    5.0513845   -0.1588222   0.85243793   0.99964848   0.75025166   -1.2345679            1    0.5999918   0.90181151   0.90028892 -0.0021250444 -0.0022897146 0.0099270174 -0.0098799064   0.53064235   0.53582481  0.069893635        0.075    1.6366089          1.8  0.027957454    64.383545    2.7918135         70.1 0.0032214419    -0.107993 0.0048895336   0.11295031  -0.22087969   0.28748798 
  192000    6.3309444    1.2808715    5.0500729   -0.1557313   0.85393867    1.0025965   0.75074742   -1.2345679            1   0.61875146   0.91657882    0.9147725  0.024903066 -0.00063421474  0.020761571 -0.011705014   0.54935619   0.55439524   0.06987903        0.075    1.6348039          1.8  0.027951612    64.397002    2.8002807         70.1 0.00041736838   -0.1048958 -0.0060890972   0.10802744  -0.81440617    1.5284615 
  193000    6.3438823    1.2810633     5.062819  -0.15446438   0.85406651   0.99953557   0.75308967   -1.2345679            1   0.60586951   0.90130802   0.90616678  0.010133743 -0.0025338001 -0.0054002997 -0.0066091679   0.53625773   0.54170977  0.069863022        0.075    1.6343352          1.8  0.027945209    64.411757    2.7907151         70.1 0.00031225976  -0.11009905  0.001480576   0.11006115  -0.68913127   0.90781561 
  194000    6.3304012    1.2653897    5.0650115  -0.15476349   0.84361713    1.0052416   0.73142096   -1.2345679            1   0.61925136   0.91595055   0.91025368  0.031549841 0.00063093326 -0.0064573847 -0.0089768774   0.55164252   0.55472535   0.06986889        0.075    1.6304131          1.8  0.027947556    64.406348     2.798861         70.1 0.0014622809  -0.10460295  -0.00632825    0.1066028  -0.22650482   0.86908843 
  195000    6.3132639    1.2647538    5.0485101  -0.15849229   0.84319317   0.99429802   0.73830213   -1.2345679            1   0.59662915   0.89711921   0.89558088 -0.0028126519 -0.0015868844  0.013916003 -0.00083380918   0.52838425    0.5328056  0.069849623        0.075    1.6275778          1.8  0.027939849    64.424113    2.7758927         70.1 -0.00034480818  -0.10563661 0.0010235845   0.11365585  -0.24016934  -0.64763248 
  196000    6.3262808    1.2653915    5.0608893  -0.15598417   0.84361836   0.99233244   0.74038756   -1.2345679            1   0.59410003   0.90078353   0.89723378 -0.015717216 -0.00077046157 -0.0016826457  0.008953171   0.52566237   0.53040266  0.069865243        0.075    1.6267698          1.8  0.027946097    64.409709    2.7958374         70.1 0.0010912088 -0.097325123 0.0023001984    0.1116435   0.42386617  0.055117077 
  197000    6.3292765    1.2666444    5.0626321  -0.15861409   0.84445361    1.0003231   0.73625391   -1.2345679            1   0.58355057   0.88570345   0.88760737 -0.022659115 -0.0011009029 -0.033408918 0.0059719358     0.515495   0.51934028  0.069851345        0.075    1.6303197          1.8  0.027940538    64.422525    2.7823942         70.1  0.002020839  -0.11489118 -0.00097839166    0.1000531   0.16379445   -1.1309818 
  198000    6.3449224    1.2816759    5.0632464  -0.15595354   0.85447495    1.0069828   0.74861016   -1.2345679            1    0.5950874   0.89821175     0.895394 -0.0083435587 0.0008428324 -0.012785428  0.011193017   0.52588968   0.53044962  0.069872118        0.075    1.6287013          1.8  0.027948847    64.403372    2.7956607         70.1 -5.9601293e-05 -0.094977562 -0.0037180731   0.11137156  0.093492783  -0.53758326 
  199000     6.330865    1.2813219    5.0495431   -0.1568336   0.85423889    1.0111003   0.74535087   -1.2345679            1   0.60370404   0.90808509   0.90703473 -0.0040076895  0.003755854 0.0038491515 0.0054452843    0.5348076   0.53880197  0.069834501        0.075    1.6301666          1.8    0.0279338    64.438064    2.7853794         70.1 -0.00083246213  -0.11679208 -0.0021046603  0.095316952   0.38938889  0.036697536 
  200000    6.3352338    1.2691022    5.0661315  -0.15360443   0.84609222    0.9900031   0.74619704   -1.2345679            1   0.60997812   0.90446196   0.90896043  0.016511987 0.0010913177  0.021565659 0.0087308015   0.54100346   0.54643027  0.069870717        0.075    1.6251377          1.8  0.027948287    64.404664    2.8078629         70.1 -0.0055132628  -0.11060198 -0.0027475861   0.11678986  0.013606254   0.42433255 
  201000    6.3339428    1.2775442    5.0563986  -0.15089672   0.85172036    1.0051044     0.745247   -1.2345679            1   0.60327753   0.89469877   0.90459225  0.010541559 0.00065809587 0.0091743121 -0.0072274944   0.53439068   0.53876033  0.069847989        0.075    1.6278961          1.8  0.027939196     64.42562    2.7880772         70.1 -0.0059599391  -0.09708998 0.0017336752   0.11653598     0.113482  -0.85155636 
  202000    6.3406724     1.285585    5.0550874   -0.1593234   0.85708103    1.0101263   0.75084321   -1.2345679            1    0.5922031   0.89650721   0.89307001 -0.012967926 0.0018162967 -0.033675982 -0.014193098   0.52279897   0.52736355  0.069867157        0.075     1.628999          1.8  0.027946863    64.407945    2.8030769         70.1 0.0026575146  -0.10289292 -0.0021106323    0.1174025   0.21826198 -0.051443662 
  203000    6.3322227    1.2762351    5.0559876  -0.15359665   0.85084758   0.99799388   0.74870586   -1.2345679            1   0.63346501   0.92600759   0.92959438  0.044793081 -0.00090929571 -0.031029799 -0.0081440561   0.56425845   0.56940424  0.069872108        0.075    1.6290677          1.8  0.027948843    64.403382    2.7866248         70.1  0.005883108  -0.10905873 -0.0036478829   0.10967102  0.041413084   0.79383409 
  204000    6.3511575    1.2785759    5.0725817  -0.15640298   0.85240816    1.0011287   0.74917328   -1.2345679            1   0.60018917   0.89676219   0.89767532 0.0061300139 0.0036680166 -0.0024046778 -0.0093418167   0.53093941   0.53592717  0.069846632        0.075    1.6288116          1.8  0.027938653    64.426872    2.8016799         70.1 -0.00067349494  -0.11371523 0.00095825359   0.11360599    0.3958023   0.57391592 
  205000    6.3261439    1.2689823    5.0571616  -0.15893581   0.84601228   0.98582397   0.74896369   -1.2345679            1   0.59023482   0.89350782   0.88960827 -0.012411639 -0.0014511526 0.0071072791  0.011676087   0.52100442   0.52695522   0.06984919        0.075    1.6265105          1.8  0.027939676    64.424512    2.7943924         70.1 0.0063978746  -0.10184387 0.0011441686   0.10282281 -0.046414448   -2.1420779 
  206000    6.3478278    1.2769242    5.0709036  -0.15722105   0.85130704    1.0005246   0.74772697   -1.2345679            1   0.61250579   0.90802284   0.90440421  0.025090328 -0.0053496344 0.0066464779 0.00070600537   0.54338971   0.54828256  0.069852469        0.075    1.6293659          1.8  0.027940987    64.421489    2.7858788         70.1 -0.0044524076  -0.11366556 -0.0017001739   0.11029154   0.49524807   -0.5224644 
  207000    6.3407429    1.2789571    5.0617858  -0.15469627   0.85266231   0.99794937   0.75181179   -1.2345679            1   0.59355589   0.90033905   0.90132367 -0.020995046 -0.0019152855  -0.01624687 0.0056660052   0.52406223   0.52949797  0.069894829        0.075     1.634219          1.8  0.027957932    64.382445    2.8131196         70.1 0.0019282641  -0.10449483 0.0086739483   0.11150986  0.011246186   0.80449069 
  208000    6.3518456    1.2801916    5.0716541  -0.15551792   0.85348533    1.0005851   0.75137607   -1.2345679            1   0.57313841   0.88194192   0.87855516  -0.04108184 0.0051912678 -0.0012642035 0.0064406515   0.50368503   0.50891131  0.069829497        0.075    1.6365419          1.8  0.027931799    64.442681    2.7895898         70.1 -0.0017225031  -0.10950255 0.0012458807   0.11243582 -0.091891359   -1.1826697 
  209000    6.3433155    1.2889198    5.0543957  -0.15737014   0.85930429   0.99543369   0.76481344   -1.2345679            1   0.58540239   0.89265518   0.88526982 -0.021717823 0.0016011436 0.0018940993 0.0013872017   0.51470693   0.52150595   0.06984349        0.075    1.6342185          1.8  0.027937396     64.42977    2.7786772         70.1 0.0016226152  -0.11907226  0.002871327   0.10851742    0.1564381  0.058123369 
  210000      6.31592    1.2712563    5.0446636  -0.15893562   0.84752835   0.98558766   0.75169674   -1.2345679            1   0.57944034   0.88885852   0.89007859 -0.040616089 0.0035836414   0.01541223 0.0018689919   0.50995732   0.51617591  0.069838158        0.075    1.6284646          1.8  0.027935263    64.434689    2.7950198         70.1 -0.00058602289  -0.10798585 0.0043904336    0.1063295   -1.1009984   -1.1668765 
  211000    6.3355858    1.2763131    5.0592727  -0.15540003   0.85089962    1.0022065   0.74586866   -1.2345679            1    0.6006495   0.90531945   0.89968137 -0.0030523402 -0.0014635763  0.021369345 0.0078181104   0.53170519   0.53631831  0.069851644        0.075    1.6312868          1.8  0.027940658    64.422249    2.7891917         70.1 -0.0046985762  -0.10830596  0.012717127   0.10559976   0.29809221  0.077741879 
  212000    6.3401446    1.2798724    5.0602722  -0.15915289   0.85327255    1.0013325   0.75049646   -1.2345679            1    0.5712241    0.8812652   0.88259445 -0.050187353 -0.00049795319  0.003229988 0.0038678835   0.50185202   0.50694901  0.069853777        0.075    1.6249504          1.8  0.027941511    64.420282     2.795972         70.1 -0.0016980473  -0.10030778 -0.006441617   0.10072136  -0.40282906  -0.24869006 
  213000    6.3470845    1.2790414    5.0680431  -0.15045863   0.85271853    1.0056741   0.74654275   -1.2345679            1   0.60620566   0.90299203    0.9027898  0.012835142 0.0027379479 0.0026625368 0.00016284722   0.53719904   0.54165189  0.069843488        0.075    1.6282548          1.8  0.027937395    64.429772     2.774444         70.1 -0.0059088313  -0.11577074 0.0024388358   0.11767741   -1.0449322  -0.39738543 
  214000    6.3402034    1.2848781    5.0553253  -0.15498803   0.85660978   0.99814401   0.75836552   -1.2345679            1   0.60541811    0.9047869   0.90030953  0.011157898 -0.00040721143 -0.023665241 -0.0049087905   0.53531866    0.5413477  0.069874593        0.075    1.6221817          1.8  0.027949837     64.40109    2.8037451         70.1 0.0021921552  -0.11531545 0.0037581463   0.11488267    1.1908174  -0.56755824 
  215000    6.3297145    1.2782692    5.0514453  -0.15507854   0.85220371   0.98875911   0.75741668   -1.2345679            1   0.58093548   0.88423376    0.8866255 -0.028052806 0.00099957612 -0.014631478 -0.0021146291   0.51092374   0.51746748  0.069793819        0.075    1.6252455          1.8  0.027917527    64.475624    2.7516256         70.1 -0.003038664  -0.10310344 0.0038550803  0.097251889   0.35087709   -0.4123629 
  216000    6.3498431    1.2890782    5.0607649  -0.15823691   0.85940989    1.0018629   0.76052774   -1.2345679            1   0.57384813   0.87419787   0.88192032 -0.034573818 -0.003769284 -0.015639867 -0.002073592   0.50354881     0.509539   0.06986531        0.075    1.6268749          1.8  0.027946124    64.409648    2.7926276         70.1 -0.0010226733    -0.116122 -0.0065223629   0.10777299   0.63630981   0.26739114 
  217000    6.3368352    1.2762793    5.0605559  -0.15679534   0.85087708   0.99282143   0.75234775   -1.2345679            1    0.5913475   0.89332038   0.89297576 -0.012253624 0.0026457361 0.0048186815  0.013833134    0.5218043   0.52761874  0.069845384        0.075    1.6235977          1.8  0.027938153    64.428023    2.7820789         70.1 0.00031264551  -0.08809739 0.0019492849  0.098551599  -0.13548133  -0.39024066 
  218000    6.3220305    1.2684493    5.0535812  -0.15449472   0.84565692   0.99461607   0.74225605   -1.2345679            1   0.61267485   0.91104542   0.90753208  0.019447044 -0.00068388457  0.011797352 -0.0072270164   0.54406447   0.54883089  0.069826461        0.075    1.6312899          1.8  0.027930585    64.445482    2.7788568         70.1 0.0038688052  -0.11041538 -0.0013310055    0.1113801  -0.86836254   0.26277386 
  219000    6.3414261    1.2755513    5.0658748  -0.15657252   0.85039174   0.99344507   0.75109226   -1.2345679            1   0.58813396   0.89242936   0.88916603 -0.017193515 0.00022276616   0.01356036 -0.0053575268   0.51870681   0.52436516  0.069882485        0.075    1.6314323          1.8  0.027952994    64.393818    2.7993405         70.1 -0.0013571622  -0.10677323 -1.4193998e-05   0.11057484  -0.26697949  -0.35639132 
  220000      6.33835    1.2811729    5.0571771  -0.15630189   0.85413955   0.99746166   0.75465361   -1.2345679            1   0.57758321    0.8842914   0.88741105  -0.03895283 0.0044272012 0.0051157533 -0.0037849887   0.50782686   0.51355659  0.069840925        0.075    1.6335351          1.8   0.02793637    64.432137    2.7704975         70.1 0.0024822823  -0.10254125 -0.0022037993   0.10954844  -0.40963872   -1.5953984 
  221000     6.358453    1.2843695    5.0740836  -0.15724242   0.85627067    1.0144055   0.74649846   -1.2345679            1   0.58676396   0.89050652   0.88604934 -0.016263986 -5.3340728e-05   0.02454347  0.010995343   0.51776144   0.52164973  0.069845684        0.075    1.6336666          1.8  0.027938273    64.427746    2.7745285         70.1 -0.0010694331  -0.10271426 -0.0044427278   0.11299501 -0.066245953  -0.80597065 
  222000    6.3480933    1.2811231    5.0669703  -0.15681935   0.85410637   0.99953602   0.75315688   -1.2345679            1   0.62027451   0.91008243   0.91365593   0.03708518 -0.0011870312 -0.0088160458 0.0083948597   0.55065652   0.55611475  0.069823807        0.075    1.6404548          1.8  0.027929523    64.447933    2.7670291         70.1 0.0022421603  -0.10613898 -0.0014973601   0.10862526    1.1480677 -0.0021964893 
  223000    6.3494385    1.2782321    5.0712064  -0.15316292   0.85217901   0.99354833   0.75404904   -1.2345679            1   0.64255473   0.92989922   0.93043631  0.067328659 0.0013440815  -0.01039322 -0.0077451269   0.57285427   0.57877931  0.069869453        0.075    1.6402834          1.8  0.027947781    64.405828    2.7871323         70.1 -0.0049740288  -0.10059115 -0.0016086826   0.10908558   0.95486306    1.3454974 
  224000    6.3306484    1.2659384    5.0647101  -0.15815034   0.84398293   0.99516619   0.73903749   -1.2345679            1   0.59476016   0.89666606   0.89649682 -0.0088823953 -0.002444356 0.0092237692 -0.0022947732    0.5264473   0.53088089  0.069882055        0.075    1.6350436          1.8  0.027952822    64.394214    2.7902158         70.1 -0.0084845607  -0.10421287 0.0010053163   0.10904028   0.80632912   -1.5842568 
  225000    6.3383545    1.2885337    5.0498208  -0.15793059   0.85904691    1.0073882   0.75607572   -1.2345679            1   0.58038378   0.88461641   0.88760607 -0.031071141 0.0001270751  0.019268529  0.014596865   0.51049598   0.51571998  0.069830734        0.075    1.6308596          1.8  0.027932294     64.44154    2.7643023         70.1 0.0021628914  -0.10564426 -0.0052420989   0.12680618  0.021942167  -0.69534715 
  226000    6.3281858    1.2773186    5.0508671  -0.15666544   0.85156999    1.0022259   0.74699112   -1.2345679            1   0.60049243   0.90560912   0.90266241 -0.0067942511 0.0029506523 -0.010766406  0.014468342   0.53144437      0.53616  0.069875196        0.075    1.6339853          1.8  0.027950078    64.400535     2.793837         70.1 0.0063263295 -0.097753015 0.0047494874   0.10964293   -0.3818726   -1.6354201 
  227000    6.3282597    1.2766973    5.0515624  -0.15832114   0.85115574    1.0026942     0.745964   -1.2345679            1   0.58567488   0.89382381   0.88689185 -0.023691029 -0.00016929374 -0.0033167281 0.0089136589   0.51672176   0.52131239  0.069875757        0.075    1.6329045          1.8  0.027950303    64.400018    2.8126065         70.1 -0.00037331885  -0.10157546 0.0036716005    0.1093845  -0.22945899   0.99359591 
  228000    6.3254119    1.2749813    5.0504306  -0.15928322   0.85001171   0.99437447   0.74980291   -1.2345679            1   0.54601497   0.85684549    0.8611568 -0.079957391 0.0021359539 -0.0082378427  -0.02092556     0.476707   0.48218652  0.069837844        0.075    1.6270705          1.8  0.027935138    64.434979    2.7804427         70.1 -0.0013384717   -0.1093317 0.0047314924   0.11428064   0.23573717  -0.10991302 
  229000    6.3231702    1.2732214    5.0499488  -0.15649114   0.84883842   0.99525334   0.74720449   -1.2345679            1    0.5879378   0.89232304   0.89674597 -0.025255609 -0.00088344037 -0.016093272 -0.0056280642   0.51887002   0.52405293  0.069837339        0.075    1.6340092          1.8  0.027934936    64.435445    2.7879573         70.1 -0.0010803771  -0.10073623 -0.00074857112   0.10758355   0.39025701  -0.51442902 
  230000    6.3398111    1.2815834    5.0582276  -0.15826144   0.85441327    1.0034605   0.75095163   -1.2345679            1   0.59785394   0.89955272   0.90347691 -0.0094677896 0.0020478185 -0.002602659 0.0058170916   0.52843979   0.53344226  0.069831779        0.075    1.6369143          1.8  0.027932711    64.440575    2.7701619         70.1  0.002520273  -0.12299954 -0.0046210545   0.10941933   0.36440319 -0.098795397 
  231000    6.3373492    1.2881798    5.0491694  -0.15830232   0.85881097    1.0011328   0.76001988   -1.2345679            1   0.60380649   0.90249298    0.9041032 0.0048232924 -0.0053387714 -0.0092643652 -0.0031230967   0.53355412   0.53954423  0.069853928        0.075    1.6385705          1.8  0.027941571    64.420143    2.7966869         70.1 -0.00012514477  -0.11093101 0.0055524927   0.10760304   0.55521827   0.38301425 
  232000    6.3547915    1.2869195     5.067872  -0.15336381   0.85797076    1.0045569   0.75621838   -1.2345679            1   0.61027144   0.91089253   0.91463263 0.0052891594 -0.00037189903 -0.0021758865 -0.011749183   0.54037046   0.54578938  0.069865385        0.075    1.6439139          1.8  0.027946154    64.409578    2.7934694         70.1 0.00095179682  -0.11650859 0.00086164696   0.11681459   0.68723819   -0.7303543 
  233000    6.3319914     1.282389    5.0496024  -0.15736614   0.85495036    1.0017043   0.75308126   -1.2345679            1   0.59914142    0.9013358   0.90320213 -0.0071136822  0.001681382 -0.010829716 0.0087228592   0.52953041   0.53484246  0.069825412        0.075     1.636026          1.8  0.027930165    64.446451    2.7743156         70.1  0.009071083  -0.11206154 0.0016049286   0.11150065     0.283831   0.33548155 
  234000    6.3374649    1.2735013    5.0639635  -0.15790706   0.84902506   0.99316032    0.7489742   -1.2345679            1   0.58526203   0.88990749   0.88635871 -0.020480101 -0.0022610335 -0.0085375074  0.011178777   0.51603067   0.52151152  0.069850886        0.075    1.6358877          1.8  0.027940354    64.422948    2.8029511         70.1 -0.0039917726  -0.11333879  0.005362408   0.10812662   0.67692845   0.88097655 
  235000    6.3324656    1.2693343    5.0631313  -0.15760237   0.84624694    0.9993813    0.7399467   -1.2345679            1   0.58692498   0.88990229   0.88527358 -0.014400918 0.0031762752 -0.0069796008  0.011170307   0.51852807   0.52277515    0.0698795        0.075    1.6395782          1.8    0.0279518    64.396568    2.8111676         70.1 -0.0057107876  -0.12543005 -0.0090070183   0.10248177   0.32858853   -1.8493375 
  236000    6.3414577    1.2765335    5.0649243  -0.15530516   0.85104653    1.0029962   0.74556919   -1.2345679            1   0.60177307   0.90203318   0.90523892 -0.0019529016 -0.0014374941 -0.011153107 -0.009829392   0.53285644   0.53739119  0.069849472        0.075    1.6358743          1.8  0.027939789    64.424252    2.8072084         70.1 0.0041421855  -0.10974394 0.0057520309   0.11170497     1.138119   -1.5209986 
  237000    6.3463879    1.2813266    5.0650613  -0.15550702   0.85424208    0.9959908   0.75584875   -1.2345679            1   0.59195873   0.89700071   0.89273542 -0.013859936 0.0009969827 -0.0012563762 0.0067374761   0.52209192   0.52802653  0.069864392        0.075    1.6392612          1.8  0.027945757    64.410494    2.8004334         70.1 -0.0025722726  -0.12005524 0.0067196099   0.11186573   0.29965822    1.6277214 
  238000    6.3405698    1.2827293    5.0578405  -0.15531268   0.85517722     1.001669   0.75349024   -1.2345679            1   0.60016849    0.9040482   0.89986727 -0.0034100017 6.7545055e-05  0.020612169 -0.0065825719   0.53051968   0.53587181  0.069822229        0.075    1.6395952          1.8  0.027928892    64.449389    2.7809816         70.1 -0.0014616825  -0.11416795 0.0032964071   0.11632698  -0.01441767    -1.019388 
  239000    6.3568915    1.2924985     5.064393  -0.15885836   0.86169019     1.016494   0.75423139   -1.2345679            1   0.60525104   0.90156194   0.90135574  0.012835443 -0.0026617722 -0.0017186173 -0.0021738103   0.53553373   0.54000275  0.069837297        0.075    1.6330458          1.8  0.027934919    64.435483     2.787159         70.1 -0.00086473239  -0.11493167  0.013016805   0.10761709   0.50654692   0.34959187 
  240000     6.344674    1.2840865    5.0605875  -0.15600599   0.85608203    1.0079695   0.75064816   -1.2345679            1   0.61853379   0.91070086   0.91055967  0.034340834  0.002204815 0.0029273556  -0.00916079   0.54914769   0.55383268  0.069876077        0.075    1.6343046          1.8  0.027950431    64.399723     2.794613         70.1 0.00050559732  -0.10465219 -0.0037619476  0.098226287  -0.20624381    1.5214535 
  241000    6.3251297    1.2844316     5.040698  -0.15779913   0.85631214    1.0061169   0.75232454   -1.2345679            1   0.60797147   0.90898475   0.91222043 0.0027092223 0.0020403465 0.0083905926 -0.010868145   0.53843041   0.54338927  0.069889655        0.075    1.6350261          1.8  0.027955862    64.387211    2.8069544         70.1 0.0058848117  -0.10199113 0.00035290913  0.094568311   0.20711085 -0.041002113 
  242000    6.3422173    1.2787611    5.0634561  -0.15814242   0.85253169    1.0058845   0.74608008   -1.2345679            1   0.60605222     0.903976    0.9078489 0.0063317671 -0.0020457591  0.015214514 -0.0043782912   0.53708837   0.54148495  0.069909887        0.075    1.6359172          1.8  0.027963955    64.368578    2.8125629         70.1 -0.0048421391  -0.10305664 0.0021328014   0.10713351  -0.11260914    0.3363201 
  243000    6.3365868    1.2846865    5.0519003  -0.15830617   0.85648204    1.0040249   0.75406521   -1.2345679            1   0.61599354    0.9126311   0.90944295  0.025906576 -0.0021191291 -0.0098081877   0.01407257   0.54629159   0.55154563  0.069857289        0.075    1.6371306          1.8  0.027942916    64.417043    2.7941524         70.1 -0.0046268677  -0.11088307 -0.0050008803   0.11323694  -0.37558075   0.41293316 
  244000    6.3414597    1.2844773    5.0569824  -0.15776366   0.85634257    1.0039668   0.75386922   -1.2345679            1   0.57183349   0.88084337   0.87865189 -0.043994798 2.4932111e-05 -0.018058031  0.011660317   0.50214965   0.50738931  0.069821453        0.075    1.6323399          1.8  0.027928581    64.450106     2.773026         70.1  0.001725868  -0.10131351 0.0011607145   0.10179372   0.96994673   -1.0295773 
  245000    6.3548757    1.2796035    5.0752721  -0.15509387    0.8530933    1.0001765   0.75099547   -1.2345679            1   0.59362433   0.88971474    0.8979584 -0.0068001478 0.0018608864 -0.0053362634 0.0034479599   0.52420613   0.52942345  0.069854562        0.075    1.6355222          1.8  0.027941825    64.419558     2.792401         70.1 0.0017300499   -0.1061431 0.0024907388   0.11831355   -1.1679649   -0.5669526 
  246000    6.3452551    1.2814324    5.0638228  -0.15912343   0.85431256   0.99987684   0.75326961   -1.2345679            1   0.59805046   0.89844893   0.90169197 -0.0059895371 0.0017066516  0.019191624 -0.016007091   0.52842204   0.53386881   0.06986989        0.075    1.6355584          1.8  0.027947956    64.405426     2.792296         70.1 -0.0077613931  -0.10558524 0.00087092487  0.095342827  -0.78732686   -1.3826998 
  247000    6.3372445    1.2822792    5.0549654  -0.15733545    0.8548771    1.0008954   0.75351886   -1.2345679            1    0.6199868   0.91795236    0.9151146   0.02689344 -0.00063758312  0.013406631 -0.0047402411   0.55033535   0.55573977  0.069857753        0.075    1.6431397          1.8  0.027943101    64.416615    2.7754503         70.1 0.0042980521  -0.10162433 0.0082992061   0.10119873   0.25316348    1.2983374 
  248000    6.3359783    1.2824712    5.0535071  -0.15679783   0.85500511    1.0031169   0.75219315   -1.2345679            1   0.57979501   0.88568543   0.88388028 -0.030180684 -0.0019519657 -0.0050667401  0.003250732    0.5102661   0.51540539  0.069864169        0.075    1.6404829          1.8  0.027945668      64.4107    2.8057524         70.1 -0.00036723739 -0.096086064 0.0021234866   0.11317193 -0.049981764   -1.0772519 
  249000    6.3339848    1.2799463    5.0540385  -0.15827699   0.85332181   0.99895558   0.75223054   -1.2345679            1   0.60617557   0.90672122   0.90816926 0.0036362169 0.00055272257 -0.0066655803 0.0017796431    0.5366432   0.54205306  0.069866023        0.075    1.6447885          1.8  0.027946409    64.408991    2.7954744         70.1 -0.003573239  -0.11249899  0.004979489   0.10753958   0.52694279    -1.034858 
  250000    6.3289509    1.2791061    5.0498448  -0.15720919    0.8527617   0.99943934   0.75094551   -1.2345679            1   0.60215166   0.90129194   0.89796038 0.0072026711 0.0018666633 -0.021006893 -0.017322087   0.53273808    0.5379981  0.069872776        0.075     1.638556          1.8   0.02794911    64.402765    2.8020424         70.1 0.0046758607 -0.099626554 0.0039654092   0.10703478    1.2943389  -0.19834968 
  251000    6.3206316    1.2778255    5.0428061  -0.15871698   0.85190792    1.0006442   0.74866212   -1.2345679            1   0.57458715   0.88929505   0.88545779 -0.050991385 -5.0651306e-05 0.0025486374 -0.0062323718   0.50538463   0.51035625  0.069867366        0.075    1.6421446          1.8  0.027946946    64.407752    2.7843362         70.1 -0.0050502741  -0.11123536 -0.0054077401   0.10675954    0.2647118  0.032592909 
  252000    6.3193459    1.2689098    5.0504361  -0.15430412   0.84596393     1.006441    0.7345647   -1.2345679            1   0.61594337   0.91712662   0.91243214  0.018271339 -0.00021055065 -0.0028896852 -0.0024037819   0.54804394   0.55134037  0.069890182        0.075     1.634669          1.8  0.027956073    64.386726    2.8018631         70.1 -0.0036028609  -0.10044283 0.0062478949   0.11303581  -0.20034344   0.73971564 
  253000    6.3368695    1.2845392    5.0523303   -0.1577938   0.85638385    1.0074466   0.75152269   -1.2345679            1   0.60977192   0.91067488   0.90806238  0.010578522 0.0031457579  0.010217585 -0.00078299848   0.54030499   0.54510438  0.069837498        0.075     1.632545          1.8  0.027934999    64.435298    2.7804337         70.1 0.0018207064  -0.11976781 0.0056154281   0.10480469  0.036841586   0.70453674 
  254000    6.3438104    1.2893513    5.0544591  -0.15540638   0.85959202    1.0121561   0.75368846   -1.2345679            1   0.60946571   0.90645624   0.90172285  0.020218056 6.6473682e-05  0.003300532 -0.0079094797   0.53979859   0.54449587  0.069862113        0.075    1.6348805          1.8  0.027944845    64.412595    2.7945092         70.1 0.0019786973  -0.09835195 -0.0088064024   0.10365992 -0.084715253  0.020920598 
  255000    6.3308773    1.2750618    5.0558155  -0.16042378   0.85006537   0.99793868   0.74741874   -1.2345679            1    0.5674877   0.87616777   0.88066322 -0.054367896 -0.0012233688 0.0023918346  0.011463122   0.49840011   0.50343047  0.069862544        0.075    1.6386033          1.8  0.027945018    64.412198    2.7806003         70.1 0.0040036825 -0.098342757 0.0044571568  0.095633956   0.40800409  -0.89605148 
  256000    6.3297006    1.2748342    5.0548664  -0.15648522   0.84991366    0.9983082   0.74690508   -1.2345679            1   0.58265039   0.89100428    0.8846256  -0.02767871 0.0018385698 0.0019911273 0.0032404355   0.51361028   0.51856944  0.069875228        0.075    1.6413575          1.8  0.027950091    64.400505    2.8116154         70.1 -0.0026950255  -0.11137175 -0.00018048194   0.10599287   0.63538173   -1.5928887 
  257000    6.3327251    1.2818973    5.0508277  -0.15628613   0.85462255    1.0050241   0.75022049   -1.2345679            1   0.59226118   0.89596502   0.89455684 -0.013738319 0.0025887919 -0.0022795878 0.00085928053   0.52291461   0.52774914  0.069817151        0.075    1.6420008          1.8   0.02792686    64.454077    2.7720092         70.1 0.0027273682  -0.12169175 -0.0064958725   0.10625344   0.53832164  -0.58250097 
  258000    6.3270743    1.2754552    5.0516191  -0.15605145   0.85032765    1.0007418    0.7459166   -1.2345679            1   0.57489582   0.88026552   0.88194336 -0.037521421 0.0016414599 -0.011733944 0.0017743432   0.50594708   0.51065865  0.069866886        0.075    1.6443744          1.8  0.027946755    64.408194    2.7810841         70.1 0.0025362864  -0.12078787 0.0047130882   0.11692462   0.28162022  -0.10818736 
  259000    6.3280841    1.2772871     5.050797  -0.15891028   0.85154899    1.0019303    0.7471608   -1.2345679            1   0.62026031   0.91158874   0.91927717  0.029915035 -0.0011402614 -0.0034262947 -0.013625919   0.55119657   0.55594686  0.069878657        0.075    1.6496587          1.8  0.027951463    64.397346    2.8095694         70.1 0.0029834144  -0.10368762 -0.0016636522   0.10673894   0.31706095   0.46279073 
  260000    6.3413761    1.2782933    5.0630829  -0.15063056   0.85221976   0.99346265   0.75417761   -1.2345679            1    0.5931363   0.89986456   0.89288278 -0.013338435 0.0042724452  0.009171276 -0.013215662   0.52342396   0.52936638  0.069869321        0.075    1.6464582          1.8  0.027947729     64.40595    2.7905212         70.1 -0.0012067654  -0.10260254 -0.0010339081   0.10847974 -0.057400676  -0.18655749 
  261000    6.3326263    1.2735562    5.0590701  -0.15386953   0.84906164   0.98772635    0.7528097   -1.2345679            1   0.57626142    0.8822541   0.88473458 -0.038204404 -0.0050013394 -0.022203238 0.0086386412   0.50667552   0.51285971  0.069849645        0.075    1.6456012          1.8  0.027939858    64.424092    2.7982184         70.1 0.0018568434  -0.11896446 0.0038272851   0.11493789   0.42305694  -0.14692278 
  262000    6.3423585    1.2722532    5.0701053  -0.15691316   0.84819295     1.003117   0.74064997   -1.2345679            1   0.58277879   0.89291863   0.88350979 -0.028092041 -0.00013389861 -0.005473698 -0.0070845326   0.51431688   0.51838916  0.069861723        0.075    1.6498572          1.8  0.027944689    64.412955    2.7773471         70.1 0.0074766167  -0.09749434 -0.00073381108   0.11068549   0.03029291  -0.41645593 
  263000    6.3397682    1.2773731     5.062395  -0.15179669   0.85160633   0.99775039   0.75016063   -1.2345679            1   0.62574295   0.92274453   0.91835386  0.036130463 -0.00048968935 -0.0079134279 0.0059094737   0.55640192    0.5616978  0.069840867        0.075    1.6515442          1.8  0.027936347     64.43219    2.7981304         70.1 0.0046131366  -0.11049743 0.0064699253    0.1234583  -0.49292979    1.6624869 
  264000    6.3324192    1.2777211    5.0546981  -0.15388388   0.85183829    1.0015999   0.74788049   -1.2345679            1    0.6001812   0.89731509   0.90742329 -0.0041947798  -0.00208448  -0.02278618 0.0067241795   0.53105093   0.53588895  0.069897795        0.075    1.6497761          1.8  0.027959118    64.379713    2.8054143         70.1 -0.0010768475  -0.11293918 0.00015646521   0.11129039  -0.42255837 -0.037120293 
  265000    6.3449388    1.2791942    5.0657446  -0.15582993   0.85282044    1.0048649   0.74727739   -1.2345679            1   0.61847511    0.9183039   0.91375517  0.023366246 -0.00089508174 0.0025229767 -0.0046608031   0.54940058   0.55397328  0.069812152        0.075    1.6422831          1.8  0.027924861    64.458692    2.7668653         70.1 0.0056172638   -0.1077877 -0.0071895987  0.097101107  -0.46009853    1.2768737 
  266000    6.3342334    1.2803738    5.0538596  -0.15517899   0.85360685     1.005048    0.7484828   -1.2345679            1    0.5831378   0.88477229   0.88589081 -0.021249702 -0.00098738071 0.00077526638 -0.0049154087   0.51395186   0.51862422  0.069884008        0.075    1.6450526          1.8  0.027953603    64.392415    2.8104819         70.1 -9.7964185e-05   -0.1069247 -0.0025758657   0.11332875  -0.13621026  -0.23186598 
  267000    6.3306697    1.2763899    5.0542798  -0.15391657   0.85095084   0.99610645   0.75019151   -1.2345679            1   0.58792532   0.88979794   0.89025889  -0.01628088 -0.0022747356 0.00094078268  0.021386739   0.51858143   0.52398569  0.069888197        0.075    1.6372257          1.8  0.027955279    64.388554    2.7987536         70.1 0.0030711634  -0.11634166 -0.0019330952   0.10443717   -0.3711821   0.70255532 
  268000    6.3192396    1.2683318    5.0509078  -0.15581146   0.84557862   0.99366547    0.7427835   -1.2345679            1   0.59014366    0.8896871   0.89657131 -0.015827436 0.0021980589 -0.026605932 -0.0027000022   0.52148453   0.52636072  0.069836718        0.075    1.6400546          1.8  0.027934687    64.436018    2.7965783         70.1 3.5242054e-05  -0.11543162 -0.0067804685   0.10694436   0.46124272    1.8597017 
  269000    6.3201643    1.2640377    5.0561266  -0.15566751   0.84271578   0.99594365   0.73635044   -1.2345679            1   0.59527386   0.90734018   0.89238409 -0.013902679 -0.00015428144 0.0011381159 0.0085676575   0.52720937   0.53134469  0.069833828        0.075    1.6410835          1.8  0.027933531    64.438684    2.7647865         70.1 -0.0058814723  -0.10363841 0.0018797038   0.10031274  -0.21826697 -0.039609912 
  270000    6.3399742    1.2811821    5.0587922   -0.1584754   0.85414568    1.0031238   0.75073207   -1.2345679            1   0.60829853    0.9054348   0.90327752   0.01618326 -0.0016641257  0.021290236 0.0052133443   0.53890467   0.54390847  0.069903583        0.075    1.6362164          1.8  0.027961433    64.374383    2.8191057         70.1 0.0037490621  -0.11950106 0.0036633022   0.11618886  -0.71960653    2.4222188 
  271000    6.3367555     1.278737    5.0580185  -0.15775425    0.8525156    1.0034616   0.74773534   -1.2345679            1   0.57972365   0.88194559   0.88453409 -0.027308729 -0.0012729898  0.010193749 -0.0037308606    0.5106068    0.5153119  0.069850818        0.075    1.6306705          1.8  0.027940327    64.423011      2.78033         70.1 -0.0013867346  -0.10811951 -0.0025499138   0.11302875  -0.29236729   0.26741113 
  272000    6.3413393     1.281057    5.0602824  -0.15797715   0.85406229    1.0069079   0.74796294   -1.2345679            1   0.61496808    0.9138933   0.90855746  0.022453491 -0.0012162684  0.020019811  0.016644599   0.54583019   0.55033512  0.069843646        0.075    1.6301317          1.8  0.027937459    64.429626    2.7998662         70.1 0.0032343828 -0.099151019 0.0013397226  0.098483444  0.052145572 -0.095858831 
  273000    6.3254084    1.2746999    5.0507085   -0.1552656   0.84982413   0.99717854   0.74753783   -1.2345679            1    0.6310101    0.9197122   0.92564647  0.047671644 -0.0011020045 -0.019340165 0.0059333148   0.56191151   0.56700166  0.069846184        0.075    1.6332334          1.8  0.027938473    64.427285    2.7866989         70.1 0.00072966332  -0.11766582 -0.00097943163  0.097863787  -0.38989904    1.7917743 
  274000    6.3258077    1.2702692    5.0555384  -0.15782528   0.84687027    1.0044417   0.73748886   -1.2345679            1   0.59176335   0.89750128   0.89248488 -0.014696116 0.0015331754 0.0046141273 0.0054182111   0.52359363   0.52728869  0.069843771        0.075      1.63083          1.8  0.027937509     64.42951    2.7858748         70.1 -0.0011643979  -0.11630555 0.0058571703  0.093874182  -0.64046043   0.92098564 
  275000    6.3175566    1.2727654    5.0447913   -0.1568103   0.84853439   0.99404034   0.74753167   -1.2345679            1   0.61856045   0.91540124    0.9131519  0.027128226 0.00014776547 -0.0093124103 0.0072967803   0.54946243   0.55475345    0.0698394        0.075    1.6310464          1.8   0.02793576    64.433543    2.7762782         70.1 0.00085953571  -0.10423033 -0.0019134895   0.11077387  -0.12028758   0.81082229 
  276000    6.3437408    1.2836152    5.0601256  -0.15489376   0.85576784    1.0085968   0.74968011   -1.2345679            1   0.59154742   0.89341256   0.89728444  -0.01605474 0.0029989295 -0.010224673  0.006328384    0.5222508   0.52680604  0.069867031        0.075    1.6270892          1.8  0.027946812    64.408061    2.8150184         70.1 0.0055182859  -0.11994348 0.0015492623   0.10827522   0.20931477   -2.3154794 
  277000    6.3303714    1.2840449    5.0463265  -0.15928913   0.85605432    1.0033639   0.75379944   -1.2345679            1   0.56551665   0.87349698   0.88390616 -0.060853182  -0.00122478 -0.0047251611  0.014178991   0.49583927   0.50111117  0.069854637        0.075    1.6285784          1.8  0.027941855    64.419489     2.791075         70.1 0.00097793779  -0.10271756 0.0023107304    0.1028559  -0.50125799 -0.091214239 
  278000    6.3209977    1.2664073    5.0545904  -0.16141772   0.84429559   0.98643317   0.74563174   -1.2345679            1   0.57651865   0.87814828   0.88397724 -0.032569557 0.0018338641 0.0087265204 -0.0079467506   0.50759625   0.51319995  0.069810867        0.075    1.6273262          1.8  0.027924347    64.459879    2.7824268         70.1 0.00085248354  -0.10335354 0.0050505992  0.095528915   -1.0926352  -0.59441049 
  279000    6.3266335    1.2802663    5.0463671  -0.16001407   0.85353517   0.99951608   0.75220286   -1.2345679            1   0.60594011   0.90055938   0.90428556  0.012975388 -0.0015050043  0.021639641 4.0511796e-05    0.5364103   0.54178162  0.069870755        0.075    1.6281599          1.8  0.027948302    64.404628    2.7954032         70.1 0.0018733433 -0.097867617 0.0023978405   0.10773082   0.49359053  -0.99821785 
  280000    6.3313603    1.2691184    5.0622419  -0.16320778   0.84610301   0.99155595   0.74513697   -1.2345679            1   0.57531235   0.88230777    0.8825415 -0.038912212 0.00062186329  0.046035728 -0.0047020938   0.50643568   0.51166482  0.069864264        0.075    1.6304283          1.8  0.027945706    64.410612     2.786857         70.1 -3.1254008e-05  -0.10443806 0.0047237531   0.10822056   0.11338909  -0.60895603 
  281000    6.3262603    1.2858889    5.0403713  -0.15824816   0.85728369    1.0103936   0.75100096   -1.2345679            1    0.6070595   0.90989638   0.90392759  0.007354551 0.0010835859  0.021931094  0.014553951    0.5376408   0.54220279  0.069849773        0.075    1.6259152          1.8  0.027939909    64.423975     2.782871         70.1  0.001313745  -0.11805744 0.00019403496   0.10624512  -0.48490507    0.5129747 
  282000    6.3171161    1.2709552    5.0461609  -0.15593735   0.84732761   0.99946477   0.74171992   -1.2345679            1   0.56730602   0.87603057   0.87117361 -0.045286097  0.001644174 0.00045958181 -0.014395598   0.49874521   0.50315083  0.069857577        0.075    1.6203412          1.8  0.027943031    64.416778    2.7901907         70.1 0.0018563448    -0.108995 0.0021192131   0.10618565  -0.63192165  -0.16168497 
  283000    6.3244366    1.2649292    5.0595073  -0.15817974   0.84331014   0.98795855   0.74290266   -1.2345679            1   0.58634574   0.89063717   0.88118639 -0.012786327 -0.00018520213 -0.040743888 -0.0065436936    0.5176756   0.52292913   0.06987305        0.075    1.6205706          1.8   0.02794922    64.402513    2.8013783         70.1 -0.0025985721  -0.11297553 0.00065044949   0.11159693  -0.11183427   0.12489266 
  284000    6.3241653    1.2724402    5.0517251  -0.15699014   0.84831758     0.998803   0.74385695   -1.2345679            1   0.60767698   0.90637399   0.90765822 0.0089987268 -0.00025019484 -0.035064867 -0.010059853   0.53891862   0.54356426  0.069864809        0.075    1.6202784          1.8  0.027945924     64.41011    2.8066287         70.1 0.0018492522  -0.11440083 -0.001904084   0.11026057    1.1699756   0.73378962 
  285000    6.3387682    1.2726994    5.0660687  -0.15381591   0.84849044   0.99488993   0.74686721   -1.2345679            1    0.6186337   0.91896256   0.91323208  0.023706468 0.0041110923 -0.0054267422  0.010715266    0.5495971   0.55477217   0.06991215        0.075    1.6237508          1.8   0.02796486    64.366494    2.8048919         70.1 0.0043594012  -0.11007514 0.00017515145   0.10445765   0.52863986    1.7621924 
  286000    6.3507595    1.2846073    5.0661523   -0.1523249   0.85642922    1.0100127   0.74981761   -1.2345679            1   0.61540491   0.91414375   0.91132358   0.02074739 -0.001583858 -0.00055338143  0.011156082   0.54609558   0.55057265  0.069883955        0.075    1.6254399          1.8  0.027953582    64.392463    2.7977105         70.1 0.0037385155  -0.11400161 -0.0041265609   0.10992125   0.71303374   0.91013538 
  287000    6.3400214     1.280905    5.0591165  -0.15718978   0.85396094   0.99602013     0.755352   -1.2345679            1   0.60964019   0.91492275   0.90467499 0.0093228279 0.00016050043 0.0074809331 -0.0012211881   0.53981929    0.5457061  0.069865122        0.075    1.6232616          1.8  0.027946049    64.409821    2.7833375         70.1 0.0039395542  -0.10361724 0.0080905138   0.11522187  -0.11013733   0.62725312 
  288000     6.320077    1.2753606    5.0447164  -0.15958299   0.85026459   0.99869683   0.74722985   -1.2345679            1    0.5756731   0.88488813    0.8850323 -0.042901144 0.0032396886  0.059511463 0.0040551399   0.50660297    0.5115672  0.069842032        0.075    1.6168685          1.8  0.027936813    64.431115    2.7717152         70.1 9.103596e-06  -0.11195101 -0.0029627556   0.10431208   -2.3562346  -0.49718141 
  289000    6.3354852    1.2856009    5.0498843  -0.15783619   0.85709166    1.0091288   0.75155386   -1.2345679            1   0.60200609   0.90461516   0.89690207 0.0045010445 0.00055665293  0.028346019 0.0052662504   0.53253628   0.53723057  0.069864049        0.075    1.6206859          1.8   0.02794562     64.41081    2.7913318         70.1 0.0035752499  -0.10817633 -0.0011392604   0.10567551  -0.60726794  -0.59573954 
  290000    6.3422947    1.2813497    5.0609449  -0.15359804   0.85425746    1.0050462   0.74958647   -1.2345679            1   0.61027662   0.90539828   0.91179872  0.013632869 0.0004431309  0.013615767 0.0029883805   0.54098866   0.54576316  0.069836655        0.075    1.6109654          1.8  0.027934662    64.436076    2.7878041         70.1 0.00078765047  -0.10670619 0.00068843676   0.11738557   0.29794718   0.66969462 
  291000    6.3233384    1.2737749    5.0495635  -0.15983156   0.84920741    0.9886334   0.75242682   -1.2345679            1   0.57512756   0.87998973   0.87599101 -0.030598062 0.0023733121 -0.003283012  0.006431655   0.50557705   0.51166762  0.069829673        0.075    1.6104771          1.8  0.027931869    64.442518    2.7957528         70.1 -0.0020539046 -0.098341408 0.0047176292  0.093735531   0.82711111   -1.5841327 
  292000    6.3211454    1.2710759    5.0500695   -0.1522407   0.84740807   0.99632161   0.74403895   -1.2345679            1    0.6235285   0.91592176   0.91808051   0.03658323 0.0033375944  -0.01611547 -0.0041631952   0.55475333   0.55957507  0.069842932        0.075    1.6091154          1.8  0.027937173    64.430284    2.7779157         70.1 0.0022929942  -0.11513936 0.0038213875   0.10588609 -0.066377546   0.82360347 
  293000    6.3399548    1.2730975    5.0668573  -0.15547315    0.8487558    1.0006639    0.7433072   -1.2345679            1   0.58410169   0.88990421   0.89056539 -0.028164536 0.0014441129 -0.017953779 0.0013526883   0.51539415   0.51986952  0.069826013        0.075    1.6134621          1.8  0.027930405    64.445897    2.7915471         70.1 -0.0019778943  -0.11366256 0.0014897303   0.10544265   -1.1843219  -0.16368779 
  294000    6.3415128    1.2756332    5.0658796  -0.15750999   0.85044635   0.98822954   0.75480663   -1.2345679            1    0.5812867   0.88503463   0.88849017 -0.029664698 0.0028581599 -0.0056953286 0.0021657001   0.51151621   0.51785269  0.069817738        0.075    1.6207415          1.8  0.027927095    64.453535    2.7673096         70.1 0.0057630031 -0.096573904 0.00074817767  0.099229132  -0.61352011   0.36878085 
  295000    6.3476107    1.2855572    5.0620535  -0.15205155   0.85706252    1.0055767   0.75397119   -1.2345679            1   0.60500166    0.9065313    0.9051583 0.0033153666 0.0020310088  0.012879464 0.0066883701   0.53530839   0.54045414  0.069870125        0.075    1.6226864          1.8   0.02794805    64.405209    2.8157325         70.1 0.0048548498  -0.10758932 0.0011463448    0.1099756   -1.0594548   0.12371216 
  296000    6.3269908    1.2666868     5.060304  -0.15527177    0.8444819   0.99508976   0.73993605   -1.2345679            1   0.62415173   0.92138763    0.9127752  0.038292354 0.00059119381  0.019921728 -0.017146513    0.5557558   0.56027736  0.069865049        0.075    1.6280594          1.8   0.02794602    64.409888    2.7910112         70.1 -0.0094515234  -0.11197535 -0.0044176053   0.10603499   0.53220102  0.093081035 
  297000    6.3358418    1.2792712    5.0565706  -0.15207822   0.85287174   0.99813197   0.75203986   -1.2345679            1   0.60452058   0.90436803   0.91116414 -0.0019704351 -0.002608326  0.021330257 -0.0017452598   0.53500584   0.54045094  0.069885356        0.075    1.6227354          1.8  0.027954142    64.391172    2.7770924         70.1 -0.0049253083  -0.10636653 -0.0053694635   0.11757849    0.4426126  -0.13131931 
  298000    6.3364973    1.2835047    5.0529926   -0.1554963   0.85569415   0.99552499   0.75863272   -1.2345679            1   0.58811681   0.88935203   0.89238807 -0.017389675 -0.0021004342 0.0046156607 -0.0022846703   0.51799266    0.5242145  0.069830719        0.075    1.6211721          1.8  0.027932288    64.441553    2.7763426         70.1 0.00069674603  -0.10846157 -0.0017661817    0.1081443   0.34486667   0.50941917 
  299000     6.337974    1.2786392    5.0593348  -0.15813467   0.85245038    1.0001679   0.74991208   -1.2345679            1   0.58165186   0.88743356   0.88967883 -0.032156802 -0.0021034993 0.0048356794  0.021095867    0.5123338   0.51745154  0.069813403        0.075    1.6236507          1.8  0.027925361    64.457537    2.7707827         70.1 0.0023831818  -0.10408619 0.0020917244   0.11144757   0.51756088  -0.45333721 
  300000    6.3250704    1.2737762    5.0512942  -0.15753811   0.84920831    1.0084983   0.73863357   -1.2345679            1    0.6169582   0.91475659   0.91366522  0.022452795 -0.00021929777  0.017733557 0.0078372856   0.54868267   0.55222315  0.069826283        0.075     1.627776          1.8  0.027930513    64.445647    2.7603071         70.1 -0.0010713133  -0.10780617 -0.0053613834  0.097163199  -0.51037553   0.53880073 
Loop time of 1631.1 on 1 procs for 300000 steps with 35136 atoms

Performance: 79455.704 tau/day, 183.925 timesteps/s
99.2% CPU use with 1 MPI tasks x 1 OpenMP threads

MPI task timing breakdown:
Section |  min time  |  avg time  |  max time  |%varavg| %total
---------------------------------------------------------------
Pair    | 125.96     | 125.96     | 125.96     |   0.0 |  7.72
Bond    | 419.22     | 419.22     | 419.22     |   0.0 | 25.70
Neigh   | 453.96     | 453.96     | 453.96     |   0.0 | 27.83
Comm    | 32.646     | 32.646     | 32.646     |   0.0 |  2.00
Output  | 0.7691     | 0.7691     | 0.7691     |   0.0 |  0.05
Modify  | 554.51     | 554.51     | 554.51     |   0.0 | 34.00
Other   |            | 44.04      |            |       |  2.70

Nlocal:    35136 ave 35136 max 35136 min
Histogram: 1 0 0 0 0 0 0 0 0 0
Nghost:    4093 ave 4093 max 4093 min
Histogram: 1 0 0 0 0 0 0 0 0 0
Neighs:    22667 ave 22667 max 22667 min
Histogram: 1 0 0 0 0 0 0 0 0 0

Total # of neighbors = 22667
Ave neighs/atom = 0.645122
Ave special neighs/atom = 6.78643
Neighbor list builds = 41839
Dangerous builds = 0
#undump      eq

#--- Unfix Equil ---#

unfix abeads_edz
unfix bbeads_edz
unfix tbeads_edz

unfix freeze_tout


###############
# Compression #
###############


#--- Bring the brushes closer together fit the sim box ---#

variable       bbzmax  equal bound(bbeads,zmax)
variable       tbzmin  equal bound(tbeads,zmin)
displace_atoms  alltop move 0.0 0.0 -$(v_tbzmin - v_bbzmax) units box
displace_atoms  alltop move 0.0 0.0 -36.762405020029902403 units box
variable z_f equal bound(all,zmin)
variable z_c equal bound(all,zmax)
change_box all z final ${z_f} $(v_z_c + 0.1) units box
change_box all z final 0 $(v_z_c + 0.1) units box
change_box all z final 0 33.337594979970099018 units box
  orthogonal box = (0 0 0) to (56.5685 56.5685 33.3376)

print         "D = $D"
D = 27.6832424289997
print         "D = $(v_twzmin - v_bwzmax)"
D = 27.683242428999669471
info variables

#--- Computes ---#

# Number density profiles

compute         cabeads abeads chunk/atom bin/1d z lower ${binres} units reduced # Check bound keyword to maybe only bin melt area
compute         cabeads abeads chunk/atom bin/1d z lower 0.001 units reduced 
fix             abeads_cdz abeads  ave/chunk ${Neveryc} ${Nrepeatc} ${Nfreqc} cabeads density/number file abeads_cdz
fix             abeads_cdz abeads  ave/chunk 100 ${Nrepeatc} ${Nfreqc} cabeads density/number file abeads_cdz
fix             abeads_cdz abeads  ave/chunk 100 700 ${Nfreqc} cabeads density/number file abeads_cdz
fix             abeads_cdz abeads  ave/chunk 100 700 70000 cabeads density/number file abeads_cdz
compute         cbbeads bbeads chunk/atom bin/1d z lower ${binres} units reduced # Check bound keyword to maybe only bin melt area
compute         cbbeads bbeads chunk/atom bin/1d z lower 0.001 units reduced 
fix             bbeads_cdz bbeads  ave/chunk ${Neveryc} ${Nrepeatc} ${Nfreqc} cbbeads density/number file bbeads_cdz
fix             bbeads_cdz bbeads  ave/chunk 100 ${Nrepeatc} ${Nfreqc} cbbeads density/number file bbeads_cdz
fix             bbeads_cdz bbeads  ave/chunk 100 700 ${Nfreqc} cbbeads density/number file bbeads_cdz
fix             bbeads_cdz bbeads  ave/chunk 100 700 70000 cbbeads density/number file bbeads_cdz
compute         ctbeads tbeads chunk/atom bin/1d z lower ${binres} units reduced # Check bound keyword to maybe only bin melt area
compute         ctbeads tbeads chunk/atom bin/1d z lower 0.001 units reduced 
fix             tbeads_cdz tbeads  ave/chunk ${Neveryc} ${Nrepeatc} ${Nfreqc} ctbeads density/number file tbeads_cdz
fix             tbeads_cdz tbeads  ave/chunk 100 ${Nrepeatc} ${Nfreqc} ctbeads density/number file tbeads_cdz
fix             tbeads_cdz tbeads  ave/chunk 100 700 ${Nfreqc} ctbeads density/number file tbeads_cdz
fix             tbeads_cdz tbeads  ave/chunk 100 700 70000 ctbeads density/number file tbeads_cdz



#--- Fixes ---#
fix             freeze_tout twout setforce 0.0 0.0 NULL
fix             comp_tout twout aveforce 0.0 0.0 ${Fcatom}
fix             comp_tout twout aveforce 0.0 0.0 -1.23456790123457
fix             rwalls all wall/reflect zlo EDGE zhi EDGE




#--- Dumps ---#
#dump           comp all image ${Ndump_c} stg2.*.jpg type type zoom 2 view 60 120 bond none none


#--- Run Compression ---#
timestep    ${Tstep}
timestep    0.005
run         ${Ncomp}
run         700000
WARNING: Inconsistent image flags (src/domain.cpp:784)
Per MPI rank memory allocation (min/avg/max) = 28.51 | 28.51 | 28.51 Mbytes
Step TotEng KinEng PotEng E_pair Temp c_melTemp c_wallTemp v_Fcatom v_Pcomp2 Press Pxx Pyy Pzz Pxy Pxz Pyz c_melPress c_wallPress v_melDens v_surfcov v_aveRg v_Wall_v2 v_srate v_D v_bwzmax Zhi c_fbwall[1] c_fbwall[3] c_ftwall[1] c_ftwall[3] v_sbot v_pbot 
  300000    6.3250704    1.2737762    5.0512942  -0.15753811   0.84920831    1.0084983   0.73863357   -1.2345679            1    1.2972972    1.9234872    1.9211923  0.047212193 -0.00046112425  0.037288903  0.016479705    1.1537322    1.1611768   0.16255321        0.075     1.627776          1.8  0.065021285    27.683242    2.7603071    33.337595 -0.0010713133  -0.10780617 -0.0053613834  0.097163199  -0.51037553   0.53880073 
  301000    6.3417185    1.2931375     5.048581  -0.15490737   0.86211618    1.0075259   0.76118093   -1.2345679            1    1.3952566    1.9868655    1.9921811   0.20672324 0.0027285058  0.045324541  0.047989502    1.2473091    1.2592674   0.16848056        0.075    1.6180849          1.8  0.067392223    26.709313    2.7804509    33.337595 -0.0018364612  -0.11600988 0.0056368161   0.20939427  -0.31732165    1.3269801 
  302000     6.332554     1.279593     5.052961  -0.16650504   0.85308628   0.99793569   0.75253969   -1.2345679            1    1.3719638    1.9802619    1.9540397   0.18158967 0.00077805196  0.058453836 0.0027049474    1.2256958     1.237269   0.17401486        0.075    1.6186257          1.8  0.069605943    25.859861    2.7901457    33.337595 -0.0023570889  -0.10497273 0.0056561655   0.19676441  -0.48511206    1.0647216 
  303000    6.3267542    1.2809502     5.045804  -0.16347176    0.8539911   0.99882582   0.75345475   -1.2345679            1    1.3340569    1.9457836    1.9446191   0.11176791 0.0018721798 -0.029387394  0.020885575    1.1876111     1.199242   0.17773121        0.075    1.6193563          1.8  0.071092486    25.319132    2.7796986    33.337595 -0.00023234062   -0.1187336 -0.0023734603   0.20824765   0.74062865  -0.58486088 
  304000    6.3294814    1.2796423    5.0498392  -0.16728955   0.85311912    1.0051334   0.74759704   -1.2345679            1    1.3890625    1.9941546    1.9820871   0.19094566 0.0083217516  -0.10964541  0.019011403    1.2437552    1.2533962   0.18106818        0.075      1.61965          1.8  0.072427273    24.852517     2.782381    33.337595 0.0024059584  -0.10877285 0.0092202495   0.19507301   0.57773597   0.85921696 
  305000    6.3385266    1.2871817    5.0513449  -0.16932907   0.85814558    1.0031402   0.75749837   -1.2345679            1    1.3158825    1.9277933    1.9371258  0.082728346  -0.01079665 -0.015807993 -0.010472453    1.1686507    1.1804853   0.18420856        0.075    1.6232975          1.8  0.073683425    24.428832    2.7803094    33.337595 0.00095992726 -0.096198969 -0.0065916423   0.19746502   0.38512797 -0.097178751 
  306000    6.3374028    1.2807018     5.056701  -0.17140775   0.85382549   0.99791257   0.75380832   -1.2345679            1    1.2762591    1.8996122    1.8940016  0.035163455 0.00033524236  0.018053516  0.019073728    1.1297445    1.1415675   0.18699459        0.075    1.6234911          1.8  0.074797835    24.064868    2.8071431    33.337595 0.0018591444   -0.0991979 -0.0059862174   0.19551347  -0.25258005   -1.7762647 
  307000    6.3283661    1.2784405    5.0499256  -0.17083649   0.85231793   0.99352607   0.75429991   -1.2345679            1    1.3665153    1.9758642     1.959708   0.16397365 -5.374529e-05 -0.0074285566  0.010502911    1.2199052    1.2324157   0.18961569        0.075    1.6303233          1.8  0.075846277    23.732213    2.7771498    33.337595 0.0064486175  -0.11072847 0.0050785264   0.19733595  0.023064022  -0.65706143 
  308000    6.3364005    1.2901215    5.0462789  -0.17546616    0.8601055    1.0082774   0.75725203   -1.2345679            1    1.3535791     1.950847    1.9675049   0.14238543 0.0048201943 -0.015942073 -0.043059315    1.2063952    1.2174885   0.19160926        0.075    1.6314145          1.8  0.076643703    23.485295    2.7870255    33.337595 0.0051702112  -0.10372948 0.0089102834   0.17288564   0.53236693  0.060738219 
  309000    6.3212493    1.2798845    5.0413647    -0.174413   0.85328065   0.99762126   0.75308739   -1.2345679            1    1.3601514    1.9586023    1.9622488   0.15960311 0.0032803865  -0.02845444 0.0089906112     1.213777    1.2254991   0.19445878        0.075    1.6384572          1.8  0.077783514     23.14115    2.7915544    33.337595 0.0071039405  -0.11189931 0.0054039106   0.19343646   0.49719108     -1.68961 
  310000    6.3268031     1.281799    5.0450041   -0.1722006   0.85455696    1.0015691   0.75250861   -1.2345679            1    1.3234799    1.9283318    1.9480859  0.094021947 0.0071796288  0.027769571 -0.022201344     1.177218    1.1882947   0.19688649        0.075     1.630226          1.8  0.078754595    22.855809    2.7870581    33.337595 -0.0029817435  -0.10850984 0.0072533856   0.21055444  -0.59308613  -0.21572909 
  311000    6.3126107    1.2650195    5.0475911  -0.17152899   0.84337035   0.99434874   0.73856715   -1.2345679            1    1.3413907    1.9480631    1.9497334   0.12637561 0.00089603001   0.11255532   0.06764579    1.1978385    1.2071801   0.19889609        0.075    1.6255166          1.8  0.079558434     22.62488    2.7734718    33.337595 -0.001187251  -0.10388731 -0.0074207128   0.19261843  -0.99997025   0.43457666 
  312000    6.3226687    1.2788297    5.0438389  -0.16683262   0.85257741    1.0057188   0.74627262   -1.2345679            1    1.4129539    2.0064647    2.0010167   0.23138034 0.0050119646  0.084768316  0.013152741     1.267904    1.2772086   0.20116386        0.075    1.6181686          1.8  0.080465543    22.369823     2.766329    33.337595 0.00065447718  -0.11543146 -0.0030095988   0.19374663   -1.7007241  -0.93961024 
  313000    6.3055772    1.2669257    5.0386515  -0.17462071   0.84464116   0.97926452   0.75119544   -1.2345679            1    1.3138532    1.9238081    1.9271345   0.09061706 0.0038036775 -0.010804055 -0.024061023    1.1678465    1.1816786    0.2035292        0.075    1.6188684          1.8  0.081411682    22.109849    2.7756412    33.337595 0.0019247123  -0.10394216  0.002421983    0.1787794  -0.12048111   0.41318844 
  314000    6.3209101    1.2796628    5.0412473  -0.17463874   0.85313282    1.0018432   0.74990509   -1.2345679            1    1.3336394    1.9483143    1.9449867   0.10761705 -0.00099154869 0.0059601183 -0.015660101    1.1878835    1.1984172   0.20645566        0.075    1.6221548          1.8  0.082582264    21.796448    2.7988491    33.337595 0.0044703421  -0.10779972 -0.0028511972    0.2056113  -0.38408123    1.2712652 
  315000    6.3169549    1.2750973    5.0418576  -0.17484174   0.85008907    1.0034926   0.74360207   -1.2345679            1    1.3716906    1.9610198    1.9918792   0.16217273 0.0041936885 -0.001484902  0.018235088    1.2271598    1.2362458   0.20837306        0.075    1.6238335          1.8  0.083349222    21.595882    2.7722033    33.337595 -0.0040187768  -0.09782629 0.0023452354   0.20209273 -0.048349197  -0.26224996 
  316000     6.309238    1.2748767    5.0343612  -0.17493478   0.84994202    1.0026012   0.74397193   -1.2345679            1    1.3352165    1.9485105    1.9541207   0.10301839 0.0037055029 -0.014966904 -0.010062991    1.1906138     1.199892   0.21117993        0.075    1.6149118          1.8  0.084471972    21.308843    2.7873682    33.337595 0.0013906611  -0.10659595 0.0092229137   0.19133518    1.3780043  -0.06407529 
  317000    6.3142342    1.2844021    5.0298321  -0.17519883   0.85629246    1.0033196   0.75423375   -1.2345679            1    1.3256922    1.9384686    1.9445377  0.094070359 0.0010299058  -0.01896854  -0.02303923     1.179095    1.1902708   0.21346283        0.075    1.6109971          1.8   0.08538513    21.080954    2.7815423    33.337595 0.00068169418   -0.1144901 -0.0091673019   0.19219543    0.2878289   -2.0524361 
  318000    6.3176149    1.2888115    5.0288033  -0.17041261   0.85923214    1.0071931   0.75652508   -1.2345679            1    1.3132893     1.950531    1.9257854  0.063551408  0.010238257 -0.056858804 0.0065565199    1.1662467     1.177345   0.21611629        0.075    1.6126428          1.8  0.086446515    20.822123    2.8068829    33.337595 -0.001942614  -0.12102571 0.0027954411   0.20093649   0.28812651   0.31993456 
  319000    6.3201645    1.2792714    5.0408931  -0.17518198   0.85287188    1.0050562   0.74723168   -1.2345679            1    1.3624215    1.9774442    1.9495495   0.16027072 -0.010184625 -0.013766347 0.0057544424    1.2171852    1.2267656   0.21831261        0.075    1.6107981          1.8  0.087325046    20.612643     2.791076    33.337595 -0.0054017688  -0.09973317 -0.00054315233    0.1928246   0.21833993   0.19688934 
  320000    6.3194734    1.2814758    5.0379976  -0.17344385   0.85434149    1.0016403   0.75209402   -1.2345679            1    1.4471173    2.0342941    2.0286854    0.2783724 -0.0048667073  -0.01697792   0.01251966     1.300936    1.3119225   0.22114876        0.075    1.6120838          1.8  0.088459505    20.348294    2.7740353    33.337595 0.0031628043  -0.11551458 -0.0035272997   0.18863488   0.11536385    1.5301263 
  321000    6.3094854    1.2809859    5.0284995  -0.17463512   0.85401493    1.0014039   0.75170486   -1.2345679            1    1.4125834    2.0063894     2.002486    0.2288747 -0.012430544  0.003147144 -0.0093919773    1.2664777    1.2774205    0.2240605        0.075    1.6060448          1.8  0.089624201    20.083861    2.7955132    33.337595 0.0013337376  -0.10229795 -0.0041428877   0.19464494  -0.46321631 -0.026897488 
  322000    6.3256462    1.2831266    5.0425196  -0.17274112   0.85544206    1.0002448   0.75492801   -1.2345679            1    1.3343586    1.9550507    1.9284831   0.11954197 -0.0055135713  0.011064894 -0.013948686    1.1876264    1.1993522     0.226947        0.075     1.604488          1.8  0.090778801    19.828418    2.7885095    33.337595  0.002913533  -0.11336784 0.0067317176   0.20791306   0.55844701    0.9561269 
  323000     6.309979    1.2779139    5.0320651  -0.17533103   0.85196686   0.99886253   0.74999924   -1.2345679            1    1.2908854    1.9171191    1.9120948  0.043442372 0.0017688995 0.0093856922 0.0052797444    1.1451112    1.1560656   0.22938725        0.075    1.6048414          1.8  0.091754899    19.617481    2.8113308    33.337595 -0.00041789252  -0.11395222 -0.0032504922   0.21343445 -0.059655185  -0.80409948 
  324000    6.3248501    1.2781367    5.0467133  -0.17299546   0.85211541    1.0028074   0.74751154   -1.2345679            1    1.3579094    1.9608989    1.9748132   0.13801615 -0.0037142186 -0.038484583  0.011052263    1.2126188    1.2225571   0.23126416        0.075     1.602183          1.8  0.092505665    19.458268    2.7746569    33.337595 0.0045848612 -0.098605501 0.0013904734   0.19235366   0.55536628  -0.20979089 
  325000    6.3267548    1.2852727    5.0414821  -0.17580886   0.85687288    1.0077277   0.75215616   -1.2345679            1    1.3564927    1.9727931    1.9684331   0.12825189 -0.00018522983  0.041239855  0.027108265    1.2102993    1.2204763    0.2347519        0.075    1.6052198          1.8  0.093900759    19.169174    2.8059022    33.337595 -0.0093722981  -0.10135823 0.0059061616   0.20240151  -0.64296639   0.89256755 
  326000    6.3052004    1.2772083     5.027992  -0.17619848   0.85149647    1.0005208   0.74805059   -1.2345679            1     1.347177    1.9584888    1.9575003   0.12554191 -0.0034047173 -0.013334904 0.0091186921    1.2017816    1.2121333   0.23693647        0.075    1.6011754          1.8  0.094774588    18.992433    2.7965585    33.337595 -0.00082468475 -0.096118016 0.0099477813   0.18727319  -0.54312567  -0.41808826 
  327000    6.3177753    1.2752633     5.042512  -0.17212009   0.85019973    1.0009521   0.74555378   -1.2345679            1    1.3654655    1.9722472    1.9700354   0.15411409 0.0030427603 -0.039808055 0.0062123092    1.2205554    1.2303637   0.23976177        0.075     1.604319          1.8  0.095904707     18.76863    2.7925094    33.337595  0.002650795 -0.099689695 0.00049993675   0.19489206  0.019492833   -1.4979367 
  328000     6.322786    1.2860466    5.0367394  -0.17509091   0.85738882    1.0160487   0.74725203   -1.2345679            1    1.3248677    1.9485212    1.9280427  0.098039034  0.003752261 0.0092756487  0.001956543    1.1796275    1.1877282   0.24264728        0.075    1.6089095          1.8  0.097058913    18.545437    2.7907206    33.337595 -0.0037336707  -0.10137203 -0.001423809   0.21248986    1.0373185   -1.6779473 
  329000    6.3113467    1.2794447     5.031902  -0.17436365   0.85298741    1.0052873   0.74726694   -1.2345679            1    1.3478754    1.9682748    1.9418347    0.1335168 -0.0060001024 -0.047251864 -0.012404689    1.2026323    1.2121884   0.24557224        0.075    1.6050552          1.8  0.098228896    18.324547    2.7861383    33.337595 -0.002829093  -0.11699354 0.0058780892    0.1918644   0.61710916    1.3521983 
  330000    6.3071222    1.2749744    5.0321479  -0.17460801    0.8500071    1.0016612   0.74473501   -1.2345679            1    1.3724325     1.990416    1.9672859   0.15959549 0.0063307484 -0.028799252 0.0041939036    1.2276815    1.2372349   0.24857306        0.075    1.6006754          1.8  0.099429224    18.103329    2.7855071    33.337595 -0.0018441428  -0.10537097 1.771783e-08   0.19940447  -0.39152446    1.2692779 
  331000    6.3171868    1.2811044    5.0360823   -0.1761158   0.85409394   0.99807945   0.75414731   -1.2345679            1    1.3942296    2.0010292    1.9988801   0.18277962 -0.0020097954  0.058871215 -0.016484873    1.2476492    1.2595155   0.25144724        0.075    1.6019556          1.8    0.1005789    17.896399    2.7914773    33.337595 0.0015191744  -0.11056231 0.0032629352   0.19200906  -0.69519135   -1.5498995 
  332000     6.310381    1.2740029    5.0363781  -0.17845209   0.84935947   0.99199688   0.75034877   -1.2345679            1    1.2846228    1.9139536    1.8885797  0.051335196 -0.0019394214  0.038362112 -0.0040412324    1.1387807    1.1507297   0.25413554        0.075    1.5974429          1.8   0.10165422    17.707086    2.7606856    33.337595 -0.0074558901  -0.11179643 -0.010801493   0.18216424   -1.3864151  -0.34184735 
  333000     6.305734    1.2763694    5.0293647  -0.17825303   0.85093713   0.98599853   0.75718752   -1.2345679            1    1.3560178    1.9674614    1.9628466   0.13774527 0.0009979096  0.038383886  0.017418571    1.2088464    1.2229342   0.25701882        0.075    1.5945209          1.8   0.10280753    17.508446    2.7761913    33.337595  0.002991349 -0.098814827 -0.0073607676   0.19639515   -1.1836055  -0.42786723 
  334000    6.3092694    1.2802861    5.0289833   -0.1797861   0.85354836   0.99500122   0.75536046   -1.2345679            1     1.348948    1.9509685    1.9728215   0.12305404 0.0038550747  -0.01507981 -0.022014495    1.2021318    1.2146493   0.26129266        0.075    1.6002776          1.8   0.10451706    17.222068    2.7926312    33.337595 -0.0027781396  -0.09720898 0.0049642273   0.19689469   0.47548182    -1.037501 
  335000    6.3217897     1.285803    5.0359867  -0.17330851    0.8572264     1.004628   0.75490766   -1.2345679            1    1.3264069    1.9424531    1.9363615   0.10040622 -0.0027513693  0.019329363 -0.001228945    1.1796787    1.1908089   0.26415307        0.075    1.6029116          1.8   0.10566123    17.035577    2.7760085    33.337595 -0.0011430387 -0.097127526 -0.0040060728   0.17939336   -1.1354532    -1.014492 
  336000    6.3219331    1.2846909    5.0372423  -0.17565815   0.85648496    1.0112788   0.74903282   -1.2345679            1    1.3790803     1.975417    1.9923551   0.16946878 0.0017448095 -0.0077892568  0.012939355    1.2334939    1.2425846   0.26777258        0.075    1.6007614          1.8   0.10710903    16.805305    2.8022139    33.337595 -0.0090706848   -0.1160094 -0.0047446003   0.17833379  0.061127666  -0.73616491 
  337000    6.3111385    1.2785068    5.0326317  -0.17996564   0.85236213    1.0031412   0.74769775   -1.2345679            1    1.3787194    1.9859621    1.9649398   0.18525624 0.0015560751  0.038384118 -0.0015978109    1.2333925     1.243322   0.27118166        0.075    1.5975412          1.8   0.10847267    16.594042    2.8005437    33.337595 -0.0058795845  -0.10702217 -0.0026713193   0.18228085  -0.59702711   0.70968234 
  338000    6.3202688    1.2846566    5.0356122  -0.17389821   0.85646211   0.99884545   0.75762819   -1.2345679            1    1.3007134    1.9094521     1.938657  0.054031001 -0.001988888 -0.0040134914 -0.0070251848    1.1534564    1.1658958   0.27521868        0.075    1.5895693          1.8   0.11008747    16.350634    2.8070142    33.337595 -0.0013749615 -0.099424704 -0.0028989146   0.20690558  -0.69753093   -2.4281598 
  339000    6.3065995    1.2659943    5.0406053  -0.17307431    0.8440202   0.98955982   0.74299386   -1.2345679            1    1.3300581    1.9306517    1.9393864   0.12013615 -0.0039988187 -0.022275991 -0.0036248616    1.1856455    1.1964939   0.27841428        0.075    1.5864336          1.8   0.11136571    16.162964    2.8028335    33.337595 -0.001193382   -0.1172338 0.0076150731   0.20018154  0.092227676   -0.5092789 
  340000    6.3129078    1.2727994    5.0401084  -0.17934591   0.84855706    1.0046924   0.74017298   -1.2345679            1    1.4281423     2.011397    2.0176441   0.25538574  0.004126587 -0.016743854   0.02935739     1.284278    1.2925356   0.28192853        0.075    1.5838828          1.8   0.11277141    15.961492     2.766706    33.337595 0.0039984583 -0.097712318 -0.0061568291   0.19063527   0.62610676    1.8280567 
  341000    6.3175235    1.2856421    5.0318814  -0.17759335   0.85711915    1.0049938   0.75447191   -1.2345679            1    1.3454208    1.9470236    1.9592494    0.1299893 -0.00068657466  0.085893224 -0.017800104    1.1987772    1.2097734   0.28603373        0.075    1.5830761          1.8   0.11441349     15.73241    2.7913383    33.337595 0.0085809239  -0.10291877 -0.00027646487    0.1942121  -0.54956767   -1.8994654 
  342000    6.3047274    1.2825262    5.0222011  -0.17330794   0.85504182   0.99567961   0.75742001   -1.2345679            1     1.271344     1.897543    1.9094175 0.0070716057 0.0066332113 -0.018625916 -0.018118249    1.1241275    1.1369538   0.28972176        0.075    1.5851783          1.8    0.1158887    15.532144    2.7780583    33.337595 0.00067840327   -0.1052615  0.011427754   0.18195531    -1.508303  0.053718936 
  343000    6.2927063    1.2728645    5.0198418  -0.17515186   0.84860052    1.0012142   0.74266195   -1.2345679            1    1.3661388    1.9603911    1.9923035   0.14572182 -0.0037607838 -0.049053113 -0.012397866    1.2217907    1.2310015   0.29461618        0.075    1.5859303          1.8   0.11784647     15.27411    2.7982609    33.337595 0.00038758282 -0.099347338 0.0011173278   0.19545201  0.096754567  -0.69955855 
  344000    6.3076435    1.2821275    5.0255159   -0.1817922   0.85477601   0.99995391    0.7540014   -1.2345679            1    1.4148818    2.0043439    2.0087992   0.23150246 0.00042034964 -0.019790321 -0.00072467235    1.2683298    1.2799147   0.29864964        0.075    1.5828888          1.8   0.11945986    15.067823    2.7699761    33.337595 -0.0027902063  -0.11509057 0.0029875688    0.1804957    1.2190127   0.95711107 
  345000    6.3005057    1.2761364    5.0243693  -0.17408312   0.85078184    0.9975937   0.74887235   -1.2345679            1     1.412026    2.0034255    2.0121749   0.22047761  0.013961532  0.027107291 -0.020210845    1.2664709    1.2773774    0.3027746        0.075    1.5727711          1.8   0.12110984    14.862541    2.7943209    33.337595 -0.0011303047  -0.10709511 -0.0012647237   0.21296034  0.040662087    1.5803675 
  346000    6.3097837    1.2797949    5.0299888  -0.17542813    0.8532209   0.99846088   0.75240309   -1.2345679            1     1.363941    1.9650824    1.9817468    0.1449938 0.0087451794  0.018409939  0.020836594    1.2176996    1.2291754   0.30837389        0.075    1.5726185          1.8   0.12334956    14.592675    2.8061317    33.337595 -0.0076607101  -0.11495372 0.0081224642   0.19696791   0.34952776  -0.19017195 
  347000    6.3086374    1.2784733    5.0301641   -0.1795531   0.85233976    1.0070651   0.74493501   -1.2345679            1    1.3502925    1.9474699     1.953936   0.14947171 -0.00059241239 -0.031925747 -0.00031305721    1.2055026    1.2143656   0.31222269        0.075    1.5737976          1.8   0.12488908     14.41279    2.7616165    33.337595 -0.0024625113  -0.10790005 0.0031028851   0.20574529   0.34831649  -0.08185453 
  348000    6.3048266    1.2786432    5.0261834  -0.17892197   0.85245308    1.0041729   0.74713546   -1.2345679            1    1.2972994    1.9205638     1.928188   0.04314629 0.00027966191 -0.057589145 0.0046103608    1.1520818    1.1617628   0.31728748        0.075    1.5688658          1.8   0.12691499    14.182722     2.790959    33.337595 0.00037128024   -0.1088384 0.0088238772   0.18987389   0.15614186  -0.40833939 
  349000    6.3103999    1.2895311    5.0208688  -0.18060968   0.85971184    1.0005081   0.76198022   -1.2345679            1    1.3812175    1.9857836    1.9789472   0.17892175 0.0063370266 -0.022509302 3.6779996e-05    1.2331146    1.2461756   0.32264309        0.075    1.5636787          1.8   0.12905723      13.9473    2.8136206    33.337595 -0.0016148959  -0.11249688 0.0075863253   0.21516103    0.1068025   -1.0810497 
  350000    6.3014848    1.2782139    5.0232709  -0.17637673   0.85216685   0.99893572   0.75028729   -1.2345679            1    1.3306249    1.9387965    1.9398763   0.11320173 0.0064886615 0.0067990322 0.0097843721    1.1847947    1.1957952   0.32807528        0.075    1.5648851          1.8   0.13123011    13.716364    2.8072087    33.337595 0.0042077663  -0.11920162 -5.7080669e-05   0.21149636   0.73068101  -0.55903517 
  351000    6.3173676    1.2817874    5.0355802  -0.18130635   0.85454924    1.0080566   0.74799038   -1.2345679            1    1.3153541    1.9252791    1.9420268  0.078756306 -0.0018736103  0.033442111 -0.014788488    1.1699703    1.1792933   0.33359606        0.075    1.5570822          1.8   0.13343842    13.489368    2.7956978    33.337595 0.00061272929  -0.10457544 0.0016953671   0.19212039  0.081337024  -0.08036658 
  352000     6.310557    1.2810866    5.0294703  -0.17703009   0.85408206   0.99721019   0.75473083   -1.2345679            1    1.3856605    1.9802654    1.9870699   0.18964629 -0.0041701489 0.0031543199 0.0083919351    1.2389667    1.2510637   0.33828125        0.075    1.5547608          1.8    0.1353125     13.30254    2.7927305    33.337595 0.0031718649  -0.10401401 0.0034233073   0.19322155  -0.35705064  -0.62825999 
  353000    6.3082409    1.2710644    5.0371765  -0.17448697   0.84740037   0.99779602   0.74300203   -1.2345679            1    1.3559449    1.9669507     1.961427   0.13945713 -0.0013935577  0.026106873 -0.015756639    1.2115308     1.221269   0.34331597        0.075    1.5476524          1.8   0.13732639    13.107459    2.7906235    33.337595 0.0015537631  -0.10482187  -0.01094655   0.21073278  -0.84311666   0.85686112 
  354000    6.3049925    1.2828793    5.0221132  -0.18077796   0.85527718    1.0020342   0.75340602   -1.2345679            1    1.3138269    1.9368546    1.9337522  0.070874017 0.0070375203  0.044161067 -0.010642078    1.1673906     1.178579   0.34960513        0.075    1.5430769          1.8   0.13984205    12.871665    2.8159934    33.337595 -0.0048917629  -0.11670437 -0.0042066523   0.19408014  -0.44947659  -0.48909139 
  355000    6.3005871    1.2752901     5.025297  -0.17463911   0.85021759    1.0045465   0.74308801   -1.2345679            1    1.3176088     1.936754     1.950039  0.066033356 0.0012783165  0.066124031 0.0021373399    1.1731779    1.1820218   0.35384952        0.075     1.537724          1.8   0.14153981     12.71727    2.8019978    33.337595 -0.0075897524  -0.10267802  0.010323557   0.19683384   0.78011927   -1.4876998 
  356000    6.3056692    1.2711626    5.0345066  -0.17647165   0.84746585   0.98981168   0.74865754   -1.2345679            1    1.3745825    1.9720979    1.9812219   0.17042775 -0.009042517 -0.017711709 0.0029808825    1.2290691    1.2409843   0.35865421        0.075      1.53361          1.8   0.14346169    12.546904    2.7756838    33.337595 -0.0027921404  -0.10074029 0.0018414623   0.18552073  -0.18723925   0.74859551 
  357000     6.304577    1.2785534    5.0260236  -0.17748105   0.85239321   0.99247012   0.75516074   -1.2345679            1    1.3692154    1.9706038    1.9792992   0.15774308 -0.008090636   -0.1021107 -0.016364307     1.222438    1.2352583   0.36534657        0.075    1.5306399          1.8   0.14613863    12.317072    2.7959935    33.337595 -0.010753052 -0.097287744 -0.0048225506   0.21073083    1.4519499   0.32108513 
  358000    6.3023304     1.277554    5.0247764  -0.18013286   0.85172694    1.0043248   0.74579953   -1.2345679            1    1.3490598    1.9473223    1.9507683   0.14908865 -0.0075289654 -0.033943156 0.0050047138    1.2041019    1.2135027    0.3705818        0.075    1.5243216          1.8   0.14823272    12.143068    2.7919004    33.337595 -0.0028893509  -0.11294732 0.0037285994   0.20255615   0.26900277   -1.2594923 
  359000    6.3035578    1.2826018     5.020956  -0.18149355   0.85509219    1.0048451   0.75114059   -1.2345679            1    1.3749454    1.9921075    1.9628712   0.16985759 -0.0066070991  0.017085575 0.0033541336    1.2289494    1.2393181    0.3774032        0.075     1.518206          1.8   0.15096128    11.923587    2.8028077    33.337595 -0.0043485113  -0.10439443 -0.0045582164   0.17054088   0.17858053    1.2527751 
  360000    6.2830726    1.2703628    5.0127098  -0.18317967   0.84693265   0.99398325    0.7448572   -1.2345679            1    1.4049666    1.9906559     2.009911   0.21433274 0.0060643855  -0.01978652   0.02647186    1.2601918    1.2708053   0.38387629        0.075    1.5165986          1.8   0.15355051    11.722527    2.8128392    33.337595 -7.2743478e-06  -0.11844318 -0.0001596631   0.20841028   0.44007679  -0.85871574 
  361000    6.3077289    1.2828297    5.0248992  -0.18075626   0.85524414    1.0014488   0.75375656   -1.2345679            1    1.3808932    1.9864545     1.977194   0.17903116   0.00384698 -0.046585979 0.0039937531    1.2343887    1.2457243   0.38793749        0.075    1.5122506          1.8   0.15517499    11.599807    2.7597436    33.337595 -0.0010698644  -0.11012913 -0.002027896   0.18428864   0.65246791   -0.7248795 
  362000    6.3176263    1.2865418    5.0310845  -0.18052367   0.85771896   0.99204161   0.76448269   -1.2345679            1    1.3345432    1.9505437    1.9625819  0.090504046  0.011720763 -0.052571959  0.025836054    1.1859539     1.200644   0.39659394        0.075    1.5015443          1.8   0.15863757    11.346618    2.8058423    33.337595 -0.0076013489  -0.10882884  0.011821007    0.1874116   0.44735817  -0.48323027 
  363000    6.3130462    1.2837714    5.0292748  -0.18165709   0.85587194    1.0043712   0.75279095   -1.2345679            1    1.3700684    1.9853619    1.9611672   0.16367609 0.0091551149 0.0074341117  0.017190406    1.2237516    1.2345051   0.40211819        0.075    1.4870987          1.8   0.16084728     11.19074    2.7978224    33.337595 -0.00059291939  -0.10973537 -0.0016957447     0.203595   0.12353497  -0.90628033 
  364000    6.2947728    1.2728916    5.0218813   -0.1851855   0.84861853   0.99926682    0.7440448   -1.2345679            1    1.4164892    2.0082715    1.9964636   0.24473235 -0.0035268222  0.039907151 0.0043031455    1.2718723    1.2816148   0.40841936        0.075    1.4822835          1.8   0.16336774    11.018087    2.7852764    33.337595 -0.0047342096  -0.11350376 0.00023045896   0.19261002   -1.2714323   0.98470535 
  365000    6.3054899      1.27239    5.0330999  -0.18384196   0.84828413    0.9905667   0.74951979   -1.2345679            1    1.3477726    1.9531913    1.9620227   0.12810358 0.0046202991 -0.026625909 -0.0066791374    1.2020916    1.2140724   0.41651721        0.075    1.4704584          1.8   0.16660688    10.803875    2.8125458    33.337595 -0.0015782456  -0.10929712 -0.0027748801   0.19319528    1.4416983   0.55264718 
  366000    6.2941093    1.2804632    5.0136461  -0.18416945   0.85366645    1.0079377   0.74657707   -1.2345679            1    1.3526965    1.9616319    1.9826175    0.1138401 0.0036321341 -0.046756705 -0.0034899805    1.2075875    1.2166518   0.42316118        0.075    1.4625625          1.8   0.16926447    10.634246     2.795442    33.337595 -4.2829677e-05  -0.11390375 -0.0038192692   0.19888089   0.81260808   0.36052719 
  367000    6.3040408     1.279608    5.0244328  -0.18219161    0.8530963   0.99227045   0.75649078   -1.2345679            1    1.3680727    1.9736621    1.9666095   0.16394641 0.0079550495  -0.04436762 0.0020827304    1.2210367    1.2341426   0.43046495        0.075    1.4514765          1.8   0.17218598    10.453813    2.7860499    33.337595  0.003016306  -0.12444895 0.00069420762   0.19167882    1.1826641  -0.12368525 
  368000    6.3040645     1.280941    5.0231235  -0.18499582   0.85398496    1.0021631   0.75112686   -1.2345679            1    1.3815051    1.9720279    1.9839524   0.18853501 0.0014826607 -0.047977238 0.0012867628    1.2355117    1.2462398   0.43690161        0.075    1.4384462          1.8   0.17476064    10.299802    2.7834871    33.337595 -0.0045975834  -0.11319502 0.0044487206   0.20502799   0.85328643  -0.14626782 
  369000    6.3143794    1.2841802    5.0301992  -0.18580314   0.85614453    1.0097503   0.74951738   -1.2345679            1    1.3483112    1.9629404    1.9456691   0.13632422 0.0042806349 -0.0063881055 -0.0091294074    1.2026307    1.2120218   0.44363082        0.075    1.4322914          1.8   0.17745233    10.143569    2.7903162    33.337595 -0.0021203752  -0.11282168 -0.0012476508    0.2033701 -0.072290571    0.7375692 
  370000    6.2987286    1.2838578    5.0148707  -0.18592425   0.85592958    1.0024212   0.75424273   -1.2345679            1    1.4275129    2.0324661    2.0061678   0.24390491 0.0046790171  0.046910023 -0.018443844     1.280914    1.2922128   0.44967304        0.075    1.4204791          1.8   0.17986921    10.007271    2.7781186    33.337595 0.0044896386  -0.11241264 -0.0045640542   0.20054798   -1.2705169  -0.17236409 
  371000    6.3013462     1.278335    5.0230113  -0.18802888   0.85224757   0.99992957    0.7497339   -1.2345679            1    1.3360051    1.9419946    1.9600375   0.10598335 0.0042208919  0.028575307  -0.02033571    1.1902825    1.2010413   0.45395116        0.075    1.4118956          1.8   0.18158046    9.9129608    2.7534295    33.337595 0.00054050773  -0.11085085  0.001170507   0.18378601  -0.91388469  -0.92904883 
  372000    6.3097475    1.2845524    5.0251952  -0.18578802   0.85639262    1.0015661   0.75562116   -1.2345679            1    1.2970493    1.9287884     1.921553  0.040806475 -0.003075498 -0.020794269 0.0006965504    1.1501824    1.1618646   0.46409313        0.075    1.4037361          1.8   0.18563725    9.6963297    2.7856597    33.337595 -0.003488751  -0.11519981 -0.0040378475   0.19224455  -0.47713514  -0.58419964 
  373000    6.2889482    1.2716802    5.0172681   -0.1844623    0.8478109   0.99205921   0.74768147   -1.2345679            1    1.3803825    1.9942222    1.9662008   0.18072447 -0.0025075367 -0.018814296 0.0042930883    1.2350588    1.2464809   0.47222458        0.075    1.3888265          1.8   0.18888983    9.5293641    2.8120598    33.337595 0.0032390235   -0.1179879 0.0024179435   0.20390727    1.2318396   -1.1840631 
  374000    6.2971005    1.2818504    5.0152501  -0.18922324   0.85459127    1.0025646   0.75187542   -1.2345679            1    1.4040862    2.0020112    2.0031861   0.20706129 -0.004646127 -0.046440894 -0.023977725    1.2579473    1.2687667    0.4821315        0.075    1.3835534          1.8    0.1928526    9.3335532     2.817113    33.337595 0.0013696276  -0.12251101 0.0018451937   0.19583001   0.24091143  -0.21204198 
  375000    6.2959569    1.2733298    5.0226271  -0.18683779    0.8489107    1.0012123   0.74318888   -1.2345679            1    1.4199995    1.9989673    2.0250426   0.23598871 0.0042775218  0.040513633  0.023918025     1.275549    1.2848625   0.48648122        0.075    1.3812481          1.8   0.19459249    9.2501002     2.781359    33.337595 -0.00014236508  -0.11773244 0.0023618014   0.19035803  0.095981974   0.87888757 
  376000    6.2921187    1.2742006    5.0179181  -0.18414424   0.84949124    1.0052287   0.74138349   -1.2345679            1    1.3664423    1.9798284    1.9802107   0.13928766 -0.0072018095 0.0064746816 -0.019540825    1.2223427    1.2307631   0.49531852        0.075    1.3720189          1.8   0.19812741    9.0850632    2.7793385    33.337595 0.0028455107   -0.1142536 -0.002689389   0.19425575  -0.64034054   -1.2140676 
  377000    6.3114913    1.2931609    5.0183304   -0.1892867   0.86213183    1.0062804   0.76207234   -1.2345679            1    1.3808238    1.9826574    1.9905056   0.16930839 0.0049668327  0.010475926 -0.018624408     1.232703    1.2450027    0.5026263        0.075    1.3661694          1.8   0.20105052    8.9529736    2.8167582    33.337595 0.0041200799  -0.11683387 0.0014463385   0.18425617    -0.184904  -0.30473131 
  378000    6.2929279    1.2788117    5.0141163  -0.19383442   0.85256537    1.0018311   0.74895195   -1.2345679            1    1.4258785    2.0255704    2.0150784    0.2369867  0.002783886 -0.023763336  0.014285895    1.2803079     1.290658   0.51172954        0.075    1.3596443          1.8   0.20469182    8.7937077    2.8090389    33.337595 0.0022013611   -0.1274232 4.8235785e-05   0.19648967   0.27710291   0.52594282 
  379000    6.2903512    1.2822643    5.0080869  -0.19146043   0.85486723    1.0107768   0.74664023   -1.2345679            1    1.3806321    1.9787083    1.9836493    0.1795386 0.0049851991 -0.016197397 0.0038198062    1.2355107    1.2442041   0.51769696        0.075    1.3469823          1.8   0.20707878    8.6923438    2.7699864    33.337595 -0.0026466965  -0.11885793 -0.00011978718   0.20679499  -0.49346195   0.44026871 
  380000    6.2844224    1.2881116    4.9963107   -0.1928806   0.85876553    1.0109473   0.75312738   -1.2345679            1    1.4197485    2.0083515    2.0134338   0.23746007 0.0041770488 -0.037871208 -0.010571813    1.2733663    1.2832975   0.52629041        0.075    1.3368702          1.8   0.21051617    8.5504122    2.8108989    33.337595   0.00453987  -0.11160408 -0.0010780439   0.18865759    1.1664893    1.0652028 
  381000    6.2954862    1.2807137    5.0147725  -0.18917383    0.8538334    1.0012689   0.75149102   -1.2345679            1    1.3845001    1.9974508    1.9790406   0.17700875 -0.0035402205 -0.044570877 -0.0098616394    1.2384359    1.2493554   0.53280086        0.075    1.3299551          1.8   0.21312034    8.4459323     2.768818    33.337595 -0.0045257479   -0.1202713 0.0026526692   0.20279474   0.62099731   -1.7619176 
  382000    6.2823016    1.2839431    4.9983585  -0.19272617   0.85598642    1.0185599   0.74313187   -1.2345679            1    1.4160362    2.0109471    2.0272646   0.20989688 -0.0075963823  0.030590598 -0.015480351    1.2715968    1.2785577    0.5422128        0.075    1.3186272          1.8   0.21688512    8.2993245    2.8042035    33.337595 0.0040995657  -0.09972495 -0.0039074836   0.18461729  -0.25515756 -0.026869527 
  383000    6.2916381    1.2763654    5.0152727   -0.1909786   0.85093446   0.99915378    0.7480476   -1.2345679            1    1.3507574     1.953995    1.9829264   0.11535068 0.0038443333 -0.054996975  0.021229074    1.2053625    1.2158982   0.54699027        0.075    1.3097425          1.8   0.21879611    8.2268374    2.7999293    33.337595 -0.0017079507  -0.12449822 -0.003421574   0.17954049  -0.40512159  -0.76475994 
  384000    6.2847092    1.2745068    5.0102024  -0.19303492   0.84969537   0.99441486   0.74923884   -1.2345679            1    1.3604889    1.9696691    1.9777108   0.13408667 0.0031375271 0.0088555567 -0.015651225    1.2148625    1.2262693   0.55754203        0.075    1.3016028          1.8   0.22301681    8.0711405    2.7897061    33.337595 -0.0010171533  -0.11670372 0.0034155041   0.19944429 -0.0030129583   0.61281103 
  385000    6.2914137    1.2821431    5.0092706  -0.19915335   0.85478641    0.9985912   0.75496532   -1.2345679            1    1.3946307    2.0084281    1.9918373   0.18362682 -0.011307708  0.004879412  0.023505969    1.2478913    1.2598475   0.56182359        0.075    1.2970099          1.8   0.22472943    8.0096317    2.7696292    33.337595 0.0031369614   -0.1088484 0.0032415048   0.18906354  -0.20490331   0.58852651 
  386000    6.2672984    1.2680769    4.9992215  -0.19121253   0.84540865   0.99368283   0.74248342   -1.2345679            1    1.4270159    2.0325179    2.0213813   0.22714839 0.0080973347 0.00015524227 -0.0092643313    1.2827025    1.2928952    0.5737524        0.075    1.2914546          1.8   0.22950096    7.8431045    2.7894693    33.337595 0.0032723859  -0.12198391 0.0002001171   0.20538481 -0.0023997511   -1.2958147 
  387000    6.2837971    1.2908645    4.9929326  -0.19974012   0.86060083    1.0110622   0.75615746   -1.2345679            1    1.4583264    2.0484131    2.0412883    0.2852778 0.0014709431   0.05373857  0.019537756    1.3113553    1.3218599   0.58587519        0.075    1.2863843          1.8   0.23435008    7.6808167    2.7841959    33.337595 -0.0019939288   -0.1246606 0.0047259642   0.20338546  -0.16220099   0.55813718 
  388000    6.2830868     1.272386    5.0107008  -0.19466876    0.8482815   0.98113425   0.75606551   -1.2345679            1    1.4027189    2.0132213    1.9935086   0.20142698 0.0018866002  0.032005333 -0.017553118    1.2557657    1.2702919    0.5914779        0.075    1.2791479          1.8   0.23659116    7.6080611    2.7837137    33.337595 -0.0024999293  -0.12451169 0.0050240794   0.19542548  -0.17104382   0.67673851 
  389000    6.2765093    1.2828194      4.99369  -0.20040563   0.85523724     1.004932   0.75132601   -1.2345679            1    1.3866722    1.9986579    1.9806499   0.18070883  0.010567697 -0.049263738  0.009725782    1.2406402    1.2510332   0.60096324        0.075      1.27406          1.8    0.2403853    7.4879787    2.7881506    33.337595 -0.00038006494  -0.12640034 -0.0063281052   0.17689423  -0.12671225   0.26780644 
  390000    6.2839507    1.2820398    5.0019109  -0.20501257   0.85471752    1.0008571   0.75327508   -1.2345679            1    1.4118117    2.0153658    2.0151742     0.204895 0.0082672132 -0.037071039  0.019341066    1.2654008    1.2767226   0.61086279        0.075    1.2746952          1.8   0.24434512    7.3666298    2.7995745    33.337595 0.00055503782  -0.12351832 0.0017454977   0.18085355 -0.00068825682    1.9824448 
  391000    6.2832503    1.2846766    4.9985737  -0.20101882   0.85647547    1.0147913   0.74657758   -1.2345679            1    1.4206246    2.0099716    2.0209027   0.23099937 0.0023020952  0.010469523 -0.011553033    1.2755154    1.2836548   0.61567862        0.075    1.2747273          1.8   0.24627145    7.3090081    2.7843733    33.337595 0.0051286329   -0.1336446 -0.0021916899   0.19455202 -0.017772381   0.34481417 
  392000    6.2652302     1.269777    4.9954533   -0.2036837   0.84654207   0.99412182   0.74409913   -1.2345679            1    1.4176312     2.019311    2.0026022   0.23098026 -0.0033899817 -0.050306251 -0.019170179    1.2730037    1.2834512   0.62400244        0.075    1.2694868          1.8   0.24960097    7.2115103    2.7829095    33.337595 -0.0021262368  -0.12217862 -0.0035632067   0.19504234     1.896563    1.5518342 
  393000    6.2699887    1.2751029    4.9948858  -0.19929459   0.85009278    1.0032605   0.74376952   -1.2345679            1    1.4045668    2.0171212    1.9998783    0.1967009 0.0039020856 -0.011979893 -0.0044754734    1.2600035    1.2691533   0.63581742        0.075    1.2629954          1.8   0.25432697    7.0775034    2.8080335    33.337595 -0.0039913266  -0.12526953 0.0060813853   0.20022047  0.021257034   0.98651706 
  394000    6.2834908    1.2857731    4.9977177  -0.20330371   0.85720648    1.0042948   0.75510533   -1.2345679            1    1.4656912    2.0566184    2.0363345   0.30412065 0.0015299553 -0.031910689 -0.020832569    1.3189245    1.3301381   0.64214365        0.075    1.2604904          1.8   0.25685746    7.0077778    2.7922406    33.337595 0.0040963209   -0.1380251 0.0060914946    0.1943142   -0.1976622   0.42113159 
  395000    6.2673515    1.2846973    4.9826542  -0.21044797   0.85648924     1.002467   0.75515923   -1.2345679            1     1.388145    1.9946073    1.9823543   0.18747334 -1.797399e-05  0.053811492  0.034586537    1.2413678    1.2528386   0.65114727        0.075    1.2627688          1.8   0.26045891    6.9108791    2.7826757    33.337595 0.0016280956  -0.13519825 -0.007229086    0.2013963    -1.091482    1.0091103 
  396000    6.2558883    1.2673575    4.9885308  -0.20649425   0.84492908   0.99455085   0.74106803   -1.2345679            1    1.3892855     1.982544    1.9868919   0.19842054 -0.0077473778  0.044240874 -0.025213509    1.2452472    1.2550476   0.65857901        0.075    1.2558754          1.8    0.2634316    6.8328931    2.7793684    33.337595 -0.0055577346  -0.15142694 -0.0091343769   0.20500886   -1.1703195   0.12447108 
  397000    6.2755361    1.2788665    4.9966697  -0.20341251   0.85260191    1.0002347   0.75012243   -1.2345679            1    1.3691895    1.9879061    1.9662894   0.15337291 0.0085284717 -0.012359918 0.0086863431    1.2233914    1.2341844   0.66534684        0.075     1.247877          1.8   0.26613873    6.7633898    2.8003488    33.337595 -0.0014463166  -0.13734239 0.0038685618    0.1942815  -0.34156804  -0.29504178 
  398000    6.2673808    1.2695558    4.9978249  -0.20483336   0.84639464   0.99664165   0.74209948   -1.2345679            1    1.4012138    2.0032582    2.0070391    0.1933442 0.0035000026 -0.034179546  0.021108032    1.2569751    1.2666938   0.67039253        0.075    1.2458566          1.8   0.26815701    6.7124853    2.7749364    33.337595  0.002704128   -0.1474176 0.0016713194   0.17731861    0.5173636   0.58485205 
  399000    6.2582171    1.2768361     4.981381  -0.21278166   0.85124828    1.0003579    0.7477432   -1.2345679            1    1.5104971    2.0944181     2.090929   0.34614437 0.0048066794  0.023045349  0.015452987    1.3651615    1.3754755   0.68739613        0.075    1.2442178          1.8   0.27495845    6.5464436    2.8263687    33.337595 -1.3074909e-05  -0.14573378 0.00033409363   0.18904174  0.088503545    1.2728985 
  400000    6.2486455    1.2734563    4.9751892  -0.21101332     0.848995   0.98984166   0.75122784   -1.2345679            1    1.4444689    2.0339283    2.0587708   0.24070768 -0.0099016808 -0.003618869 -0.0037973516     1.298456    1.3108667    0.6899896        0.075    1.2467973          1.8   0.27599584    6.5218374    2.7943345    33.337595 -0.001831722  -0.16069045 -0.0083637123   0.20354457  -0.86107604  -0.68265894 
  401000    6.2529365    1.2711951    4.9817415  -0.20717639   0.84748752   0.99380576   0.74592065   -1.2345679            1    1.4110412    2.0201305    2.0333926   0.17960049  0.001659239  0.039090692 -0.025972928    1.2660598    1.2769039   0.69691505        0.075    1.2430523          1.8   0.27876602     6.457028    2.8254877    33.337595 -0.0029396542  -0.14644473 0.0012702114   0.19316067  0.051733248  -0.28149657 
  402000    6.2653615    1.2967827    4.9685788  -0.21250949   0.86454641    1.0162241   0.75925861   -1.2345679            1    1.4724707    2.0675342    2.0520962   0.29778182 -0.0068289554 0.0020382616 0.0032766686    1.3248968    1.3353075   0.70356876        0.075    1.2434919          1.8    0.2814275    6.3959633    2.7974299    33.337595 -0.0058454146  -0.16131579 -0.0039004694   0.22349429   0.55370889  -0.24420749 
  403000    6.2559872    1.2771036    4.9788836  -0.21104696    0.8514266    1.0012719   0.74741063   -1.2345679            1    1.4100339    2.0192118    2.0160189   0.19487103 0.0032927597 -0.047379444  0.012819067    1.2647629    1.2748889   0.71063403        0.075    1.2357459          1.8   0.28425361    6.3323734    2.7863006    33.337595 -0.00047210837  -0.14104966  0.001312396   0.19908126   0.64758519   0.76159159 
  404000    6.2656246    1.2840452    4.9815794  -0.21381387    0.8560545   0.99660995    0.7584899   -1.2345679            1    1.5157024    2.0943354    2.0995853   0.35318656 0.00016971347 -0.020478993 -0.0076678041     1.368278    1.3811866   0.71200869        0.075    1.2333783          1.8   0.28480348    6.3201476    2.7708774    33.337595 -0.0022715663  -0.15573451  0.002309091   0.18439133   0.47593974    1.7554135 
  405000    6.2592356    1.2769505    4.9822851  -0.21255898   0.85132458   0.99679875   0.75034406   -1.2345679            1    1.4612168    2.0528826    2.0552513   0.27551661 -0.0031377271 -0.028428897  0.021450017    1.3153756    1.3266756    0.7256673        0.075    1.2316879          1.8   0.29026692    6.2011889     2.794433    33.337595 -0.0039891456  -0.15890346 0.00033929369   0.17715028   0.80335618   0.30818013 
  406000    6.2535688    1.2892197    4.9643491  -0.21369557   0.85950426   0.99764024   0.76361999   -1.2345679            1    1.4770381     2.068972    2.0758375   0.28630478 -0.00082175839 -0.014296908 -0.0039763168    1.3286165    1.3423832   0.73504975        0.075    1.2343821          1.8    0.2940199    6.1220346    2.7729765    33.337595 -0.0034330126  -0.18133129 -0.0021784752   0.19537909  0.030410436    1.4001055 
  407000    6.2528428     1.284755    4.9680878  -0.21792022   0.85652771    1.0075476   0.75169633   -1.2345679            1    1.4701424    2.0625527    2.0632254   0.28464913 0.0044242048 -0.038546303   0.02645841    1.3240384    1.3341503    0.7317288        0.075    1.2338784          1.8   0.29269152    6.1498195    2.7865705    33.337595 0.0024888964  -0.16481447 0.0061861233   0.19078267   0.80658954 -0.0010716529 
  408000    6.2498853    1.2801676    4.9697177  -0.22050015   0.85346939     1.001415   0.75077275   -1.2345679            1    1.4506609      2.04557    2.0427116   0.26370103 -0.0012018049 -0.001094744  0.030634504    1.3047363    1.3154965   0.73728259        0.075     1.237121          1.8   0.29491303    6.1034942    2.7721994    33.337595 -0.0029351777   -0.1767576 0.0039168273   0.20230416    1.0869589   0.15489629 
  409000    6.2347185    1.2741342    4.9605843  -0.22137248   0.84944699    1.0012503   0.74407121   -1.2345679            1    1.4678911    2.0565628    2.0688963   0.27821415 -0.00073265315 -0.014244734  0.025554139    1.3232691    1.3327489    0.7438561        0.075    1.2334221          1.8   0.29754244    6.0495572    2.7640833    33.337595 0.0052304395  -0.19604915 0.00027817545   0.18520672  -0.67599655   0.97702505 
  410000    6.2292458    1.2817624    4.9474834  -0.22371569    0.8545326    0.9975622    0.7552498   -1.2345679            1    1.5358031    2.1197406    2.1019536   0.38571514 -0.0058401224  0.048012255 0.0055231571    1.3890084    1.4011588   0.74905121        0.075    1.2349679          1.8   0.29962048    6.0075999    2.7826497    33.337595 0.0016905966  -0.18314418 0.0051240326   0.19262966   0.23745008    2.2782624 
  411000    6.2223824    1.2697414     4.952641  -0.22261872   0.84651835    1.0002181   0.73982553   -1.2345679            1    1.4504845    2.0437625    2.0552408   0.25245014 -0.00053570263  0.021926707  0.023745903    1.3066877    1.3154817   0.75472907        0.075    1.2306113          1.8   0.30189163    5.9624045    2.7994506    33.337595  0.001770317  -0.17183746 -0.0017724815   0.17603426   0.19884414   0.31682784 
  412000    6.2492841    1.2806995    4.9685845  -0.22146409   0.85382398   0.99065437   0.75884606   -1.2345679            1    1.5065795     2.095392    2.0934799   0.33086671 0.00060082008  0.020749194 -0.045304495    1.3590858    1.3728676   0.76035774        0.075    1.2314876          1.8    0.3041431    5.9182668    2.7859724    33.337595 -0.00069711568  -0.18022247 -0.0020497437   0.18808464   0.30385397    2.0209503 
  413000    6.2273344    1.2754398    4.9518946  -0.22409053   0.85031741   0.99730514   0.74828577   -1.2345679            1    1.4527637    2.0394371    2.0576884   0.26116544 0.0023746587 -0.021708043  0.033578879    1.3073225     1.318154   0.76247213        0.075    1.2294575          1.8   0.30498885     5.901855    2.7823105    33.337595 -0.0020663991  -0.17819353 0.0085778076   0.20901671   0.38718622   0.51874985 
  414000    6.2502322    1.2778315    4.9724006  -0.22198515   0.85191193   0.99556735   0.75219443   -1.2345679            1    1.5362491    2.1089228    2.1089372   0.39088743 -0.0016517271  0.024862701 0.00030224124    1.3900483    1.4018741   0.76154288        0.075    1.2311717          1.8   0.30461715    5.9090566    2.7901192    33.337595 0.0005238482  -0.18275599 -0.0020035637   0.20147216 0.0088247976    1.0733781 
  415000    6.2438717    1.2808456    4.9630261  -0.22711306   0.85392138    1.0083037   0.74675492   -1.2345679            1     1.505936    2.0858397    2.0865508   0.34541735 0.0012276431  0.017269161 -0.0095597794    1.3607924    1.3698418   0.76441873        0.075    1.2346806          1.8   0.30576749     5.886826    2.7851234    33.337595 -0.0068722068  -0.18269026 0.0041083698   0.19482066  -0.66854323    1.7231104 
  416000    6.2356555    1.2774122    4.9582433  -0.22415631   0.85163235    1.0111118   0.74092612   -1.2345679            1    1.5077496    2.0914966    2.0841015   0.34765055 -0.0081244929 0.00090525471 -0.013082434    1.3637389    1.3712764   0.77265689        0.075    1.2293262          1.8   0.30906275    5.8240599    2.7975022    33.337595 -0.0016984109  -0.19115579  0.009743677   0.18887471  -0.24725523    1.1679217 
  417000    6.2347687    1.2763069    4.9584619  -0.22874052   0.85089547   0.99752451   0.74911295   -1.2345679            1    1.4789703    2.0700953    2.0647759   0.30203979 -0.0083498737 0.00027502734 0.0025457944    1.3333684    1.3443311     0.774295        0.075    1.2282342          1.8     0.309718    5.8117384    2.7752938    33.337595 -0.0070459027  -0.18942906 0.0063949608   0.19847043  -0.76780823   -0.5074304 
  418000    6.2178515    1.2781636    4.9396879  -0.22690259   0.85213333    1.0069512    0.7446643   -1.2345679            1    1.5043475    2.0806314    2.0950235    0.3373876 -0.0028439657 -0.026827219 -0.0045284774    1.3596102    1.3684359   0.77206263        0.075    1.2268279          1.8   0.30882505    5.8285427    2.7700524    33.337595 -0.00070214214  -0.19128197 -0.0010823819   0.20919655   0.51931294   0.99277163 
  419000     6.236519    1.2814205    4.9550985  -0.22326752   0.85430463    1.0080583    0.7475747   -1.2345679            1    1.5170066    2.0916546    2.1183894   0.34097571 -0.00043559548  0.030208895 -0.0089336603    1.3717036    1.3809455   0.77606085        0.075    1.2355624          1.8   0.31042434    5.7985144    2.8033679    33.337595 -0.0046858234   -0.1983894 0.0041826565   0.20102918   0.26555454   0.94659684 
  420000    6.2316724    1.2740396    4.9576328  -0.22525027   0.84938392    1.0008399   0.74424934   -1.2345679            1    1.4698455    2.0576072     2.052012   0.29991735 0.0019447423  0.051217787  0.021375746    1.3251889    1.3347588   0.77730401        0.075    1.2349648          1.8   0.31092161    5.7892407    2.8149051    33.337595 0.0010537123  -0.21062313 0.0032770211   0.18310478   0.35932754  -0.18279875 
  421000    6.2305199    1.2745155    4.9560044  -0.22788837    0.8497012    1.0074404   0.74020339   -1.2345679            1    1.5672513    2.1340015    2.1338425      0.43391  0.012820751  0.037060994  0.027791887    1.4233811    1.4312737   0.77278196        0.075    1.2338215          1.8   0.30911278    5.8231173    2.7707206    33.337595 -0.0073475656  -0.17736894 0.0021262859   0.19031482   -1.2092575 0.0037193379 
  422000    6.2188272    1.2692817    4.9495455  -0.22860397   0.84621189    1.0022725   0.73787959   -1.2345679            1    1.6027748    2.1648291     2.175807   0.46768831 -0.0061410153 -0.059472718 -0.0095649318    1.4593563    1.4674947   0.77237611        0.075    1.2348389          1.8   0.30895044    5.8261771     2.769023    33.337595 0.0098584939  -0.17956977 0.0071154004   0.18774934  0.027081882    2.6603845 
  423000    6.2228499    1.2725327    4.9503172  -0.22786934   0.84837927   0.99450259   0.74694781   -1.2345679            1    1.4966273    2.0860769    2.0754779   0.32832723  0.002084843  0.025192554  0.018278344    1.3514462     1.362396   0.78068093        0.075    1.2329233          1.8   0.31227237    5.7641987    2.8020999    33.337595 -0.00029782052  -0.20384871 0.0068541971   0.19538917  -0.46495949  -0.54212383 
  424000    6.2216716    1.2810982    4.9405734  -0.23002351   0.85408979    1.0042323   0.74986752   -1.2345679            1    1.4642943    2.0571592    2.0618874   0.27383626 0.0055709428 -0.0038986224 -0.012240573    1.3185457    1.3287497    0.7765075        0.075    1.2301698          1.8     0.310603    5.7951791    2.7528253    33.337595 0.0028123479   -0.1845481 -0.0041833979   0.18631833   0.70670289   -1.4285914 
  425000    6.2412034    1.2794033       4.9618  -0.23056604   0.85295984   0.99701614     0.752964   -1.2345679            1    1.5606929    2.1293142    2.1206875   0.43207696 0.0022610181  0.020051563 0.0021878333    1.4143424    1.4261223   0.77913811        0.075     1.225611          1.8   0.31165524    5.7756128    2.7910763    33.337595  0.010114006  -0.18685553 0.00099991172   0.17403568   0.88300917    3.4940819 
  426000    6.2388237     1.282861    4.9559627  -0.22843932     0.855265   0.99757758   0.75648016   -1.2345679            1    1.5266954    2.0940893    2.1046156   0.38138135 -0.0048958026 -0.066657642 -0.0078011209    1.3796616     1.392049    0.7821462        0.075    1.2282165          1.8   0.31285848    5.7534001    2.7764264    33.337595 0.0055148078   -0.1816742 0.0012416804   0.19899718   0.76162049 0.0078418522 
  427000    6.2330564    1.2907354    4.9423211  -0.23201384   0.86051475    1.0152623   0.75309498   -1.2345679            1    1.4464006    2.0698937    2.0456381   0.22367007 -0.0039365223 -0.048464619 -0.003108712    1.3000247    1.3093673   0.78264382        0.075    1.2237381          1.8   0.31305753     5.749742    2.7824693    33.337595 -0.0088251819  -0.19733172 -0.0011554745   0.17936137   0.37388254    1.7723613 
  428000    6.2284865     1.281433    4.9470536  -0.23072101   0.85431296   0.99921286   0.75373137   -1.2345679            1    1.4949568    2.0827749    2.0848064   0.31728909 -0.0038721313 -0.0085778385 -0.0093084801    1.3484572    1.3600897   0.78340385        0.075    1.2235586          1.8   0.31336154    5.7441637    2.7812695    33.337595 0.0046955453  -0.18464366 -0.0066150441   0.19859579   0.42544468   0.83225966 
  429000     6.222767    1.2730231    4.9497439  -0.22893854   0.84870624   0.99624554   0.74629149   -1.2345679            1    1.5362586    2.1023254    2.1234042   0.38304609 0.0010848648  0.010402938  0.032930993     1.391205     1.401792   0.78756334        0.075     1.225824          1.8   0.31502533    5.7138262    2.7844841    33.337595 -0.0010074743  -0.17127006 0.0068677656   0.17797494  0.017340206    1.4809167 
  430000    6.2249742    1.2836687    4.9413055  -0.22847829   0.85580347    1.0017781   0.75447566   -1.2345679            1    1.5699295    2.1475558    2.1339389   0.42829373 0.0030989808  0.027313755 -0.024836359    1.4232852    1.4347161   0.78748883        0.075    1.2188958          1.8   0.31499553    5.7143668    2.7716315    33.337595 0.0078913451  -0.19545878 -0.0030088824   0.20018986 -0.021973797    1.1131877 
  431000    6.2256728    1.2798938     4.945779  -0.23429572   0.85328682    1.0065089     0.746926   -1.2345679            1    1.4859972    2.0766815    2.0800023   0.30130793 0.0036381408 -0.00016008266 -0.00073359429    1.3408204    1.3501453   0.79005608        0.075    1.2215191          1.8   0.31602243    5.6957982    2.8115566    33.337595 -0.0023023092   -0.1955906 -0.00033500021   0.19651864 -0.019399006    1.0411271 
  432000    6.2139325    1.2767826    4.9371499  -0.23193855   0.85121262    1.0043298   0.74492456   -1.2345679            1    1.4778737    2.0879197    2.0716884   0.27401287 -0.0037355829 -9.6950372e-05  0.022951333    1.3330858    1.3423159   0.78676439        0.075    1.2244201          1.8   0.31470575    5.7196285    2.8042856    33.337595 -0.0013004987  -0.18734811 -0.00017196282   0.18659901  -0.55397778   0.92936234 
  433000     6.241192    1.2865972    4.9545948  -0.23087106   0.85775589    1.0071473   0.75405542   -1.2345679            1    1.5003563    2.0858493    2.0722359   0.34298353 -0.00049642209  0.014732076 0.0044417035    1.3537937    1.3644182   0.78794705        0.075    1.2221812          1.8   0.31517882    5.7110437     2.803786    33.337595 -0.0061147438  -0.20509168 0.0032192058   0.20340665   0.56858551  -0.29611436 
  434000    6.2183286     1.277862    4.9404666  -0.22660781   0.85193227    1.0049989   0.74567932   -1.2345679            1    1.5272668    2.1158476    2.1053687   0.36058386 0.00070007489 -0.00067768909 0.0089031256    1.3823322    1.3916187   0.78250143        0.075    1.2255259          1.8   0.31300057    5.7507882    2.8000807    33.337595 -0.0017690965  -0.18199977 0.0053144891   0.19868499   0.13796634  -0.41941965 
  435000    6.2184776    1.2657895    4.9526881  -0.22475863    0.8438837   0.98385279    0.7467257   -1.2345679            1    1.4729977    2.0600493    2.0696124   0.28933155 -0.008462569  0.060270736  0.040790977    1.3278598    1.3402038   0.78707345        0.075    1.2271882          1.8   0.31482938    5.7173825    2.7968411    33.337595 0.0081918308  -0.20062857 0.0064441348   0.18304452   -1.3651727    1.0628473 
  436000    6.2268901    1.2754912    4.9513989  -0.23014746   0.85035166   0.99906154   0.74712412   -1.2345679            1    1.5134442     2.076463    2.0985837   0.36528603 -0.0062741587 0.0070547719 -0.0086444307    1.3682289    1.3785975   0.78878417        0.075    1.2224736          1.8   0.31551367    5.7049827    2.8060877    33.337595 -0.0026139558  -0.17942432  0.012696478   0.19704715   -0.4103557  -0.35654147 
  437000    6.2386571    1.2857965    4.9528606  -0.22323979   0.85722205    1.0020804   0.75666944   -1.2345679            1    1.5655284    2.1309761    2.1388718   0.42673722 5.7927074e-05 -0.049527345 -0.00062057661    1.4184577    1.4302742   0.78661049        0.075      1.21957          1.8   0.31464419    5.7207475    2.8027104    33.337595 0.0075873007  -0.20083111 0.0042685749   0.18986462   0.27482761    2.1451093 
  438000    6.2399274    1.2896194     4.950308  -0.22756721   0.85977072    1.0049557   0.75899144   -1.2345679            1    1.5279685    2.1173626    2.0957647   0.37077832 -0.00043857272  0.017747686  0.020471988    1.3804466    1.3923263   0.79178799        0.075    1.2186567          1.8    0.3167152    5.6833396    2.7932322    33.337595 -0.0011801939  -0.20408192 0.0014386659   0.20186344  -0.93310215    2.2034439 
  439000    6.2346977     1.281451    4.9532467  -0.22908868   0.85432498     1.002763    0.7512864   -1.2345679            1     1.493793    2.0823257    2.0884033   0.31065013 0.0039892973  0.022278553 0.0053931432    1.3477687    1.3584467   0.79207749        0.075    1.2194721          1.8   0.31683099    5.6812624    2.7989445    33.337595 0.0055037637  -0.19244561 -0.0044483207   0.20908413   0.02138772    1.8419927 
  440000    6.2246767    1.2816856     4.942991  -0.22678295   0.85448142   0.99755287   0.75516956   -1.2345679            1    1.5121239    2.0824885    2.1027561   0.35112704 -0.0067623088 -0.010641777 -0.015733179    1.3653448    1.3774808   0.78887481        0.075    1.2300885          1.8   0.31554992    5.7043272    2.7708269    33.337595 0.0051569527  -0.19515725 0.0068279406   0.19070009  -0.28524528    1.7546784 
  441000    6.2061752    1.2707613    4.9354139  -0.23371135   0.84719831   0.99045819   0.74775525   -1.2345679            1    1.5130061    2.0955485    2.0964443   0.34702562 -0.0023605764    0.0119961 -0.0037248003    1.3676681    1.3793207   0.79239553        0.075    1.2269675          1.8   0.31695821    5.6789821    2.7903915    33.337595 0.0021623685  -0.19654942 0.0056125403   0.18450585   -0.3942394   0.11588922 
  442000     6.225433    1.2808389    4.9445941  -0.23317917   0.85391688   0.99662126   0.75485991   -1.2345679            1    1.5375453    2.1223173    2.1274591   0.36285961 0.00097169528 -0.037143729  0.010098189    1.3908264     1.403028   0.78936273        0.075    1.2269262          1.8   0.31574509    5.7008012    2.7828134    33.337595  0.003269677  -0.18644149 -0.0019777679   0.19293773   0.52118108    1.0769234 
  443000    6.2334276    1.2872877    4.9461399  -0.23267964   0.85821624    1.0060309   0.75561072   -1.2345679            1    1.4647494    2.0505562    2.0651575   0.27853442 -0.0026768324 -0.042492538   0.01435653    1.3178845     1.328962   0.79232552        0.075    1.2237554          1.8   0.31693021    5.6794839    2.8063167    33.337595 0.0011815111  -0.20335104 -0.0035896756   0.20141121   0.68181246   0.24977528 
  444000    6.2383731    1.2800247    4.9583484   -0.2301678   0.85337412   0.99988548   0.75167343   -1.2345679            1    1.4865722     2.079892    2.0642793   0.31554536 -0.013241272 -0.039540094 0.0067459168    1.3404726    1.3516143   0.79906796        0.075     1.227182          1.8   0.31962718     5.631561     2.821124    33.337595 0.0014968209  -0.20171456 0.0026392136   0.22867214   0.23610667   0.97422199 
  445000    6.2194167    1.2729989    4.9464177  -0.23039419   0.84869011   0.99579144   0.74657952   -1.2345679            1    1.4748539    2.0671811    2.0585842   0.29879625 -0.0028848539  0.089874866 0.0071386744    1.3297444    1.3404485   0.79754571        0.075    1.2277185          1.8   0.31901828    5.6423098    2.8126473    33.337595 -0.0039924703  -0.20962322 -0.00067254239   0.21770693  -0.54562536 -0.0052494712 
  446000    6.2163854    1.2810637    4.9353217  -0.23298504   0.85406677    1.0026447   0.75093106   -1.2345679            1    1.5316603    2.1177726    2.1035544   0.37365394 -0.0041793972   0.01468227 -0.010604746     1.385705      1.39633   0.79074819        0.075    1.2244264          1.8   0.31629927    5.6908129    2.7670788    33.337595 -0.0031621063  -0.21754615 -0.0048069661   0.20001592   -0.3932983    1.1373221 
  447000    6.2227108    1.2752973    4.9474135  -0.23125653   0.85022242    1.0039971   0.74347769   -1.2345679            1    1.5154812    2.1194924    2.0963209   0.33063027  0.002623222 -0.068297557  0.021073527    1.3709746    1.3799683   0.79344885        0.075    1.2208351          1.8   0.31737954    5.6714431    2.7842713    33.337595  0.007290584  -0.18605842 0.00033245249   0.17803915   0.68786094     1.421428 
  448000    6.2226724     1.274733    4.9479394  -0.23083375   0.84984616   0.99549512   0.74874419   -1.2345679            1    1.4972197    2.0965698    2.0776966   0.31739259 0.0032732194 -0.093383853 -0.041426852    1.3516894    1.3628543   0.78982166        0.075    1.2244749          1.8   0.31592867    5.6974887    2.7978284    33.337595 -0.0003277283  -0.18700057 -0.0032085621   0.18595914   0.68307041   0.21233607 
  449000    6.2168471    1.2767542    4.9400929  -0.22933699   0.85119369   0.99722442   0.74982666   -1.2345679            1    1.5303537    2.1043385    2.1046086   0.38211403 -6.1694341e-05 -0.015733884  0.002823379    1.3846131     1.395755   0.79309614        0.075    1.2288805          1.8   0.31723845    5.6739654    2.8087544    33.337595 -0.0018950689  -0.18599067  0.005021583   0.18909809   0.20819267    1.0599595 
  450000    6.2318686    1.2856737     4.946195  -0.23117225   0.85714016    1.0049639   0.75452831   -1.2345679            1    1.4711301    2.0719947    2.0738346   0.26756106 0.0082389718 -0.012896473  0.013386107    1.3244756    1.3354867   0.78981908        0.075    1.2292113          1.8   0.31592763    5.6975073    2.7854072    33.337595 0.0037021036  -0.17893776 -0.0042331537   0.20149158  -0.39048127   0.72518544 
  451000    6.2187226     1.273984    4.9447387  -0.22476305   0.84934682   0.99901573   0.74545324   -1.2345679            1    1.4729324    2.0789457    2.0715646   0.26828686 0.0049550328 -0.013190906 -0.00029560245    1.3280418    1.3380919   0.78336969        0.075     1.232147          1.8   0.31334788    5.7444142    2.7596622    33.337595 -0.0038929754  -0.19030552 0.0052867634   0.19490714   -0.3855773    1.3607855 
  452000     6.229308    1.2767142    4.9525938  -0.23230734   0.85116703    0.9930978   0.75264713   -1.2345679            1    1.4760747    2.0557005    2.0741938   0.29832971 0.0029151704  0.060335357  0.024822055    1.3297858    1.3420329   0.78212784        0.075    1.2388633          1.8   0.31285114    5.7535351     2.783116    33.337595 0.0015184869  -0.19776351  0.001322998   0.19364454   -0.1607324  -0.86330595 
  453000    6.2204283     1.272523    4.9479053  -0.23021149   0.84837282    1.0001584   0.74300934   -1.2345679            1    1.5728678    2.1456015    2.1327355   0.44026622 -0.0048493688 -0.0043903096  -0.02020973    1.4284522     1.437873   0.78738785        0.075     1.239534          1.8   0.31495514    5.7150996    2.7858108    33.337595 -0.00099476238  -0.19330948 0.0054703913   0.19262767   0.42031063    2.6676774 
  454000    6.2239038    1.2830676    4.9408362  -0.23081137   0.85540276   0.99678099   0.75726677   -1.2345679            1    1.5481021    2.1299178    2.1201619   0.39422662 -0.010464891 -0.0032752408 -0.011932124    1.4009154    1.4135632   0.78978759        0.075     1.234757          1.8   0.31591504    5.6977345    2.7903189    33.337595 0.0012271419  -0.21136574 0.0036692423    0.2016573   0.08444258   0.50395296 
  455000    6.2404486    1.2924165    4.9480321  -0.22422473   0.86163552    1.0137165   0.75606751   -1.2345679            1    1.5003936    2.0892846    2.0952043   0.31669184  0.007474528 -0.014956833 -0.020147714    1.3534399    1.3635689   0.78166745        0.075     1.235822          1.8   0.31266698    5.7569239    2.7647839    33.337595 0.0054512877  -0.19285955 0.00043030446   0.19814985  -0.33767754   0.25980475 
  456000     6.198441    1.2748445    4.9235965  -0.23542155   0.84992052    0.9966381   0.74807646   -1.2345679            1    1.5193091    2.1041167    2.1067977   0.34701297 0.00017863249  0.027493972 -0.014834167    1.3739086    1.3847895   0.79528392        0.075    1.2327008          1.8   0.31811357    5.6583566    2.8069669    33.337595 0.00087196708   -0.1763762 -0.0047157163   0.19030019  -0.89831655    1.8683917 
  457000    6.2254906    1.2884297     4.937061  -0.23095078   0.85897755    1.0042348   0.75814804   -1.2345679            1    1.5084829    2.0955457    2.1010694   0.32883361 0.0066545935  0.056972254 0.0010885418    1.3611249     1.372938   0.79144888        0.075    1.2340531          1.8   0.31657955    5.6857747    2.8169836    33.337595 0.0019783084  -0.18403649 0.0040267648   0.18300329  -0.93940481    1.1028735 
  458000    6.2370009    1.2874773    4.9495236  -0.22593349   0.85834261   0.99830198   0.76119205   -1.2345679            1    1.4736441    2.0620111    2.0904384   0.26848295 -0.003067527  0.030001867 -0.016338744    1.3256945       1.3389   0.78732902        0.075    1.2382254          1.8   0.31493161    5.7155266      2.77899    33.337595 -0.00045284374  -0.18697237 0.0011593762    0.2057095   -0.4853373   0.48318677 
  459000    6.2293165    1.2836394    4.9456771  -0.23245466   0.85578395    1.0038839   0.75298022   -1.2345679            1    1.5020611    2.0920573    2.0940256   0.32010045 -0.011819245 0.0068213858  0.023267638    1.3557075    1.3665635   0.79629494        0.075    1.2376209          1.8   0.31851798    5.6511724    2.8015702    33.337595 -0.0039462948  -0.18700876 0.0027385447   0.19888794    0.5491955    1.7773317 
  460000     6.237198    1.2775678    4.9596302  -0.22680565   0.85173611   0.99135829    0.7548194   -1.2345679            1    1.4901677    2.0757368    2.0848673   0.30989903 -0.00010594112 0.0043798294  0.015761406    1.3434567    1.3563607   0.79110301        0.075    1.2396796          1.8   0.31644121    5.6882605    2.7940106    33.337595 0.0038605121  -0.20706824 -0.0006414484    0.1929223   -1.2542699   0.47012855 
  461000    6.2323022    1.2871004    4.9452019  -0.23006114   0.85809135    1.0036384   0.75706051   -1.2345679            1    1.5225477    2.0895146    2.1153629   0.36276559 -0.0028348498  0.037470041  0.017579597     1.375401    1.3870832    0.7935402        0.075    1.2385864          1.8   0.31741608    5.6707902    2.8132816    33.337595 -0.0031813871  -0.18047074 0.0063857926    0.1990958   0.15976185    1.7711463 
  462000    6.2241923    1.2847068    4.9394855  -0.23180536   0.85649556    1.0043156   0.75388624   -1.2345679            1     1.505896    2.0962776    2.0977751    0.3236352 0.0039535653  0.067671408 0.0088411534    1.3593663    1.3703401   0.80121357        0.075    1.2394139          1.8   0.32048543      5.61648    2.8322249    33.337595 0.00076912606  -0.20649593 0.0014830294   0.18968614  -0.21308697    1.2107411 
  463000    6.2316892    1.2804824    4.9512069   -0.2270324    0.8536792    1.0032622   0.74984547   -1.2345679            1      1.54918    2.1229477    2.1364786   0.38811378 -0.0021007139 -0.049648537 -0.010314025    1.4034357    1.4137664   0.78765723        0.075     1.241153          1.8   0.31506289     5.713145      2.78472    33.337595 -0.010515139  -0.19578612 -0.0020212266   0.19127662   0.28094306    1.9975974 
  464000    6.2286759    1.2861762    4.9424996   -0.2294996   0.85747523    1.0006294   0.75810606   -1.2345679            1    1.5017299    2.0965844    2.0818044   0.32680068 -0.011627793 -0.025908769  0.039506673      1.35438    1.3666715   0.78876606        0.075    1.2422697          1.8   0.31550642    5.7051136    2.7881258    33.337595 -0.0028837464  -0.19425862 0.0038415851   0.17632482   0.71208178   0.97479099 
  465000    6.2261761    1.2844308    4.9417453  -0.22944038   0.85631157    1.0091308   0.75023068   -1.2345679            1    1.5062622    2.0869077     2.098135   0.33374404 0.0019383467 -0.041079619 0.0068490157    1.3604431    1.3700565   0.79411107        0.075    1.2413223          1.8   0.31764443    5.6667136    2.8062961    33.337595 0.0042833419  -0.19692896 0.0038589033    0.1959379   0.28266487    1.3011322 
  466000    6.2179658     1.281735    4.9362308   -0.2314954   0.85451435    1.0062137     0.749211   -1.2345679            1     1.541439     2.115428     2.121772   0.38711692 -0.0062615005   0.05411796 0.0032254274     1.395818    1.4056269   0.80057053        0.075    1.2424617          1.8   0.32022821    5.6209913    2.8351585    33.337595 -0.0044665565  -0.19771882 -0.002077129   0.20949651  -0.93867636   0.54390039 
  467000    6.2153665    1.2686509    4.9467156  -0.23109262   0.84579133   0.99179413   0.74444344   -1.2345679            1    1.5647433    2.1276331    2.1368759    0.4297209 0.00018320052  0.026102126 -0.030648016     1.420049    1.4308775   0.78910899        0.075    1.2412327          1.8    0.3156436    5.7026343    2.7922179    33.337595 0.0019000872  -0.18751951 -0.0047789762   0.18907871 -0.007819896    2.8506401 
  468000    6.2077248    1.2664584    4.9412664  -0.22731069   0.84432962   0.99480278    0.7398773   -1.2345679            1    1.4663131     2.058094    2.0709929   0.26985237 0.0011303882 -0.0093748079 -0.0097861095    1.3225062    1.3320412   0.79056358        0.075    1.2431969          1.8   0.31622543    5.6921418    2.7719619    33.337595 0.00044642234  -0.21020326 -0.0044057063    0.1890015    0.6117833  0.079583807 
  469000    6.2078965    1.2661299    4.9417665  -0.22663289   0.84411064   0.98882333   0.74365856   -1.2345679            1    1.4850342    2.0726855    2.0980229   0.28439419  0.008257756 -0.007217944 -0.022829122    1.3404924    1.3515694   0.79070813        0.075    1.2480063          1.8   0.31628325    5.6911012    2.7996048    33.337595 -0.0019694841  -0.19734773  0.004165743   0.18377954  0.018672459 -0.0076859585 
  470000    6.2283417    1.2723696    4.9559721  -0.22656137   0.84827052   0.99668585   0.74524741   -1.2345679            1    1.4594005    2.0498304    2.0394787   0.28889256 -0.0015977657 -0.046933644  0.016528011    1.3145499    1.3248745   0.79294009        0.075    1.2473916          1.8   0.31717604    5.6750819    2.8234832    33.337595 0.00076992748  -0.19901809 0.0036384274   0.20221583  -0.18405099   0.45836814 
  471000    6.2129463    1.2671561    4.9457902   -0.2327182   0.84479478    0.9903159   0.74378134   -1.2345679            1    1.5711881    2.1299438    2.1569435    0.4266769 -0.014008966 -0.022986754  0.032177078    1.4266224    1.4375218   0.78485682        0.075     1.242349          1.8   0.31394273    5.7335299    2.7624176    33.337595 0.0088791141   -0.1877262 -0.00013859397   0.20187277   0.15937598    2.4737479 
  472000    6.2229424    1.2768457    4.9460967  -0.22766516   0.85125471    1.0141654   0.73816577   -1.2345679            1    1.5164031    2.1100706    2.0849765   0.35416216 0.0068899928  0.042138671  0.024739038    1.3729289    1.3795178   0.78766833        0.075     1.244042          1.8   0.31506733    5.7130646    2.7889696    33.337595  0.004983479  -0.21167373 0.0002936119   0.18920805   0.75726439    1.9504807 
  473000     6.201833    1.2701403    4.9316928  -0.23095389   0.84678428    1.0043106   0.73743416   -1.2345679            1    1.4771021    2.0893322    2.0580413   0.28393268 0.0039311544 -0.0086058656  -0.01618621    1.3337701    1.3415469   0.79472719        0.075    1.2465016          1.8   0.31789088    5.6623204    2.7917728    33.337595 -0.0052648454  -0.18533267 0.0058822384   0.18361096   0.51752191     1.678938 
  474000    6.2283823    1.2906631    4.9377193  -0.22982278   0.86046655    1.0149396   0.75323738   -1.2345679            1     1.524875    2.1105514    2.1189753   0.34509819 0.0028778277 -0.049681717  -0.02776498    1.3784714    1.3878851   0.79233811        0.075    1.2448055          1.8   0.31693524    5.6793936    2.7948433    33.337595 0.0014973654  -0.20919448 -0.0046035642   0.19826303     0.437455    1.3070625 
  475000    6.2267587    1.2791229    4.9476357  -0.22877675    0.8527729   0.99308579   0.75537659   -1.2345679            1    1.5003743     2.083097    2.0925002   0.32552581 0.0066171442 -0.023030434  0.032337584     1.353555    1.3663342   0.78877234        0.075    1.2460266          1.8   0.31550894    5.7050682     2.792154    33.337595 -0.00039668324  -0.23570383 -0.00033512707   0.17508522  -0.17922668    1.7858992 
  476000    6.2190665    1.2710499    4.9480166  -0.22820713   0.84739075   0.99407418   0.74557028   -1.2345679            1    1.4993923    2.0860031    2.0911331    0.3210407 -0.0089380464  0.010322976 -0.0081896456    1.3544789    1.3652188    0.7954201        0.075    1.2452364          1.8   0.31816804    5.6573878     2.797545    33.337595 0.0016923543  -0.18524135 -0.005235901   0.19375406  -0.49975468   0.79000838 
  477000     6.228543     1.289435    4.9391079  -0.23170305   0.85964782    1.0178471   0.74983101   -1.2345679            1    1.5996802    2.1786268    2.1584006   0.46201308 -0.0050034257 -0.023128794  0.023514747    1.4539387    1.4622979   0.78930947        0.075    1.2483519          1.8   0.31572379    5.7011859    2.7867274    33.337595 0.0046387913  -0.19438574 -0.0060197302    0.2075223  -0.10256834    3.0698033 
  478000    6.2161256    1.2748967    4.9412289  -0.23317024   0.84995532    1.0027667   0.74387956   -1.2345679            1    1.5594954     2.135726    2.1373046   0.40545559   0.01063925 -0.014039877 -0.0037856989    1.4149107    1.4241486   0.79183975        0.075    1.2485001          1.8    0.3167359     5.682968    2.7893428    33.337595 -0.00035072081  -0.17612561 -0.0068384428   0.19514007   0.11316482    1.1825122 
  479000    6.2320646    1.2850151    4.9470495  -0.22852865   0.85670113   0.99890633   0.75799094   -1.2345679            1    1.4610258    2.0528897    2.0727736   0.25741403 -0.0090715177 -0.037542483 -0.00078310154    1.3136983       1.3262   0.78560029        0.075    1.2479915          1.8   0.31424011    5.7281038    2.7736762    33.337595 -0.0030044357  -0.20075355 3.2296854e-05   0.18085565   0.91399032   0.30988846 
  480000    6.2218323    1.2840865    4.9377458  -0.23500853   0.85608204    1.0064449   0.75170685   -1.2345679            1    1.5605668    2.1234024    2.1308675   0.42743067 -0.0033128916 -0.040309069  0.011437639    1.4144607    1.4247236   0.78971987        0.075    1.2459519          1.8   0.31588795    5.6982231    2.7876873    33.337595 0.0021764266  -0.19825751  0.003509782   0.20686102 -0.080439139    2.2981681 
  481000    6.2325141    1.2924915    4.9400226  -0.22751391   0.86168555    1.0103391   0.75849764   -1.2345679            1    1.5251858    2.1067243    2.1114815   0.35735156 -0.004374004 -0.001357305 0.0011840565    1.3777598    1.3888169   0.79262437        0.075    1.2410213          1.8   0.31704975    5.6773424    2.7871157    33.337595 0.0047568843  -0.20260058 0.0028157383   0.19793274    0.2322076    1.7192387 
  482000    6.2105281    1.2756708    4.9348573  -0.22992851   0.85047142   0.99408627   0.75078201   -1.2345679            1    1.4662344    2.0643803    2.0769479   0.25737487 -0.0055964614  0.029932453 -0.016954861    1.3203081    1.3320592   0.79179994        0.075    1.2418453          1.8   0.31671997    5.6832538    2.8170316    33.337595 0.0065665602  -0.19419841 -0.0011545234   0.20696746   -1.0754771   0.83195285 
  483000    6.2213067    1.2684476    4.9528591  -0.22814081   0.84565581   0.99411298   0.74260353   -1.2345679            1    1.4798338     2.082896    2.0538467    0.3027586  0.006595847  0.011360715 0.00015525955    1.3354971     1.345655    0.7861012        0.075    1.2496384          1.8   0.31444048    5.7244538    2.7788736    33.337595 -0.0025647925   -0.1944461 0.0010000226   0.19888249  -0.43542115   -0.2281273 
  484000    6.2092675    1.2742722    4.9349953  -0.23442998   0.84953895   0.99860291   0.74606547   -1.2345679            1     1.571574    2.1256063    2.1496174    0.4394983 -0.0041740018  0.017132419  0.015856847    1.4265644    1.4367892   0.79558177        0.075    1.2428225          1.8   0.31823271    5.6562382    2.8287872    33.337595 -0.0091676142  -0.19493628 0.0040342761   0.19788643   0.15925216    0.5769422 
  485000    6.2174554    1.2770555       4.9404  -0.23092016   0.85139454    1.0021431    0.7467513   -1.2345679            1    1.5398605    2.1143435    2.1260832    0.3791548 -0.012323629 -0.0036479246  0.014047063    1.3947176    1.4045979   0.79742091        0.075    1.2457013          1.8   0.31896836    5.6431929    2.7945269    33.337595 0.0050920197  -0.21815406 -0.00036204551   0.20646506  -0.71988663    2.0977688 
  486000    6.2279161    1.2811437    4.9467724  -0.23024392   0.85412011    1.0004917   0.75251655   -1.2345679            1     1.503456    2.0905853    2.1001002   0.31968257 -0.0052736132 -0.065896642 -0.00039745768    1.3571926    1.3684163   0.80356571        0.075    1.2458956          1.8   0.32142628    5.6000398    2.8174986    33.337595 0.0067476478  -0.19594131 0.0053765643   0.19503924   0.26961874    1.5639988 
  487000    6.2168927    1.2764836     4.940409  -0.23270879   0.85101331    1.0032638    0.7453271   -1.2345679            1    1.4921994    2.0814257    2.0789962   0.31617631 0.0061108476 -0.063398969 -0.017789991    1.3473333    1.3567855    0.7886008        0.075    1.2464633          1.8   0.31544032    5.7063092    2.7887325    33.337595 0.0048068631  -0.20481898 0.0010322191   0.19608128    0.3477612    0.5553081 
  488000    6.2332195    1.2834133    4.9498062  -0.22992482   0.85563323   0.99620954   0.75805412   -1.2345679            1    1.4889366    2.0822691    2.0682755   0.31626517 -0.0070229363 -0.014166805 -0.0031711473    1.3415968    1.3544748   0.79063168        0.075     1.244957          1.8   0.31625267    5.6916515    2.7764209    33.337595 -0.0023862454  -0.20726462 0.0013911997   0.20077641   0.71023035   0.91771515 
  489000    6.2095644    1.2716254     4.937939  -0.23056668    0.8477744   0.99065455   0.74859505   -1.2345679            1    1.4868742    2.0732508    2.0872788   0.30009309 -0.0035765472 -0.018598249 0.0043713788     1.341373    1.3531622    0.7935816        0.075    1.2470995          1.8   0.31743264    5.6704944    2.8121616    33.337595 -0.0048090323  -0.17960485 -0.0023598154   0.19885256   0.68339443    1.6047363 
  490000    6.2179069    1.2765759     4.941331  -0.23075033   0.85107479   0.99647568   0.75014514   -1.2345679            1    1.5602008    2.1458371    2.1277976   0.40696762   -0.0111571 -0.030113788   0.02377692    1.4143983    1.4257031   0.79272052        0.075    1.2470022          1.8   0.31708821    5.6766539    2.7741361    33.337595 -0.00040087864  -0.19376597 0.0054591923   0.19225286   0.53147843   0.84872053 
  491000     6.222843    1.2775061    4.9453369  -0.23042431   0.85169496    1.0000238   0.74873212   -1.2345679            1    1.4624594    2.0515367    2.0653882   0.27045338 -0.0019018841  0.022760799 -0.013401075    1.3169315    1.3274829   0.79420215        0.075    1.2452825          1.8   0.31768086    5.6660637     2.788343    33.337595 0.0036013868  -0.20204684 -0.001329298   0.20082201  -0.17051529  -0.17093857 
  492000    6.2302076    1.2755818    4.9546258  -0.22714247   0.85041204   0.99321783   0.75128447   -1.2345679            1    1.4793005    2.0539697    2.0970712   0.28686061 0.0022779903 -0.0072223204 0.0060255291    1.3332765    1.3452425   0.79183853        0.075    1.2419652          1.8   0.31673541    5.6829768    2.7935453    33.337595 -0.0024900916  -0.18125264 0.0042972161   0.19557336 -0.053522397    1.1788913 
  493000     6.229747    1.2817018    4.9480452  -0.22825791   0.85449217    1.0040451   0.75067936   -1.2345679            1    1.4613688    2.0591764    2.0733423   0.25158757 0.0037481936 -0.010508412 -0.026813854    1.3154624    1.3258494   0.79419377        0.075    1.2454009          1.8   0.31767751    5.6661235    2.8050128    33.337595 0.0080224732  -0.18094146 -0.0020888641   0.19276424  -0.72119812   0.57399535 
  494000    6.2220494    1.2777322    4.9443172  -0.23068322   0.85184573   0.99257061   0.75416327   -1.2345679            1    1.4851198    2.0755662    2.0786674   0.30112566 -0.014510732 -0.031236794 -0.019994064    1.3385362    1.3511492   0.78883462        0.075    1.2435965          1.8   0.31553385    5.7046178    2.7849987    33.337595 0.0024292492  -0.18350096 0.0010275957   0.21182843  0.022496409   0.82533057 
  495000    6.2186675    1.2693646    4.9493029  -0.22678202   0.84626716   0.98630434   0.74906199   -1.2345679            1    1.5388762    2.1218669    2.1113532   0.38340841 0.0035671306  0.021930679 -0.015741868    1.3932842    1.4057513   0.79274051        0.075    1.2422728          1.8    0.3170962    5.6765107    2.7939649    33.337595 0.0096383204  -0.19834223 0.0040262432   0.17462377  -0.46413785    2.4203166 
  496000    6.2224042    1.2826958    4.9397084    -0.232005   0.85515485    1.0041271   0.75174531   -1.2345679            1    1.4868664     2.084226    2.0753534   0.30101966   0.01358382 -0.034012083 -0.0016535408    1.3407528    1.3513359   0.79281057        0.075    1.2421682          1.8   0.31712423    5.6760091     2.790634    33.337595 -0.00026399209  -0.19185457 -0.0030813739   0.18280341   0.50515228     1.248287 
  497000    6.2334439    1.2835696    4.9498743  -0.22936268   0.85573742   0.99591949   0.75843211   -1.2345679            1    1.5091371    2.0910347    2.1028469    0.3335296  0.010894997 -0.040280058 0.0061419266    1.3617238    1.3747145   0.80295336        0.075    1.2393687          1.8   0.32118135    5.6043105    2.8098977    33.337595 1.5058541e-06   -0.2000711 -0.0044276762    0.1957077    -0.286561    1.1064236 
  498000    6.2203481    1.2815077    4.9388404  -0.22818836   0.85436276    1.0031908   0.75105334   -1.2345679            1     1.452317    2.0600407    2.0483915   0.24851866 0.0079357721  -0.05788887 -0.019940744    1.3063379    1.3169129   0.79497185        0.075    1.2416318          1.8   0.31798874    5.6605778    2.8033973    33.337595 0.0030065315  -0.19879476 -0.0076274224   0.18153219  -0.37437166   -1.0190653 
  499000     6.204932    1.2790597    4.9258724   -0.2352078   0.85273071    1.0069666   0.74566585   -1.2345679            1    1.5594945    2.1304649    2.1448834   0.40313539 0.0044518979 0.0082337274 -0.0078491499    1.4145626    1.4235809   0.79118415        0.075    1.2478219          1.8   0.31647366    5.6876772     2.792667    33.337595 0.0052187712  -0.19514224 -0.0040831614   0.18944182  -0.33474147   0.27797155 
  500000    6.2029392    1.2686264    4.9343128  -0.23603531     0.845775    0.9954332    0.7418887   -1.2345679            1    1.5204988    2.1024033    2.1013119   0.35778109 0.0024379038 -0.0066948238 -0.0068141737     1.376301    1.3861418   0.79605304        0.075    1.2465482          1.8   0.31842121    5.6528897    2.7944377    33.337595 0.00018714497  -0.21230957 0.0025326701   0.17891958  -0.17377875    3.2995242 
  501000    6.2211893    1.2778173     4.943372  -0.22906239   0.85190247     0.998278   0.75029603   -1.2345679            1    1.5436171    2.1348321    2.1206119   0.37540739 -0.0065583325 0.00093878445  0.014335352    1.3977853    1.4088762   0.78800707        0.075    1.2461295          1.8   0.31520283    5.7106086    2.7799411    33.337595 -0.0057048763  -0.20539368 0.0057237167   0.18484256   0.42807817    1.2604079 
  502000    6.2060611    1.2689377    4.9371234  -0.22964122   0.84598257   0.98342958   0.75057609   -1.2345679            1    1.5303343    2.1141773    2.1139093   0.36291626 0.0077329057 0.0034261756 -0.015402649     1.384448    1.3975975   0.78591253        0.075    1.2500958          1.8   0.31436501     5.725828    2.7644092    33.337595 0.0031521793  -0.19406852 0.0050206988   0.20228097   0.21948083 -0.055421595 
  503000    6.2329542     1.274357    4.9585972   -0.2269642   0.84959552   0.99920743   0.74574154   -1.2345679            1     1.486163    2.0696486    2.0878126   0.30102784 0.0071661611  0.015132398 0.0063898622    1.3412164    1.3512966    0.7918933        0.075    1.2489657          1.8   0.31675732    5.6825837    2.7788419    33.337595 -0.004271769   -0.1909081 -0.0085265561   0.18986461  -0.34248267   0.16309151 
  504000    6.2217622    1.2880717    4.9336905  -0.23473688   0.85873891    1.0060261   0.75649976   -1.2345679            1    1.4789105    2.0683787    2.0753791   0.29297355 0.0011930338 -0.042904696 -0.005954389    1.3318728    1.3431237   0.79511574        0.075    1.2481027          1.8    0.3180463    5.6595534    2.7889635    33.337595 0.0069281273  -0.19401302 -0.00014408797   0.19609404   0.82205994    1.5366812 
  505000    6.2041736    1.2663613    4.9378123  -0.23211991   0.84426493   0.99453268   0.73995526   -1.2345679            1    1.4954421    2.0950689    2.0920447   0.29921258 -0.0058943482 0.0022374029  0.011706844    1.3516201    1.3612067   0.80285454        0.075    1.2493479          1.8   0.32114182    5.6050004    2.7908582    33.337595 -0.0016299449  -0.20027514 0.0010727285   0.19228939  0.090933225    1.8609131 
  506000    6.2256863    1.2891875    4.9364988  -0.23046646   0.85948277    1.0109877    0.7543147   -1.2345679            1    1.5805792    2.1601462    2.1451836   0.43640772 -0.0031911976  -0.07212723  0.015145493    1.4339662    1.4441228   0.80108273        0.075    1.2505954          1.8   0.32043309    5.6173974    2.8017986    33.337595 0.0052208009  -0.19791149 -0.0037690178    0.1849043   0.95711963  0.080433859 
  507000    6.2033933    1.2666874    4.9367059  -0.23379689   0.84448228    1.0065746   0.73196126   -1.2345679            1    1.5467687    2.1255211    2.1257682   0.38901682 -0.006462252  0.023777452 -0.017654446    1.4045005    1.4109079   0.79482061        0.075    1.2481537          1.8   0.31792824    5.6616549    2.7744354    33.337595 -0.0012450985  -0.20138314 0.0054489252   0.19732392   0.17776917    2.7422826 
  508000     6.207803     1.267008     4.940795  -0.23584189   0.84469604   0.99315402   0.74164314   -1.2345679            1     1.574054    2.1413058    2.1456082    0.4352481 -0.0016718075  -0.01544698 0.0035888511     1.429904    1.4400047   0.79426837        0.075    1.2486986          1.8   0.31770735    5.6655914    2.7637229    33.337595 0.0013134668  -0.21121967 0.00072163632   0.18776352  -0.26723979    1.3643361 
  509000    6.2291173    1.2707488    4.9583685  -0.23013576   0.84718996    1.0044427   0.73802982   -1.2345679            1    1.5186348    2.0993051    2.1084138   0.34818562 -0.0013109468   0.03283611 -0.012180335    1.3751871    1.3830618   0.80539901        0.075    1.2485425          1.8    0.3221596    5.5872927     2.836461    33.337595 -0.010427883  -0.19930255 -0.010387791     0.197746   -0.2941203  -0.11285126 
  510000    6.2172399    1.2767901    4.9404498  -0.22848226   0.85121761    1.0079303   0.74243269   -1.2345679            1    1.5157319    2.1122316    2.1051632   0.32980071 -0.0048416796  0.054347748 -0.0030904557    1.3714284    1.3796881   0.79957039        0.075    1.2545671          1.8   0.31982815    5.6280223    2.7908813    33.337595 -0.0090512244  -0.20902403 0.0080828923   0.19872308    0.4476993    1.8558309 
  511000    6.2157826    1.2738032    4.9419794  -0.23651604    0.8492263    1.0027897   0.74262826   -1.2345679            1    1.4977776    2.0798678    2.0856846    0.3277803 -0.0095504328  0.055561349 -0.020915446     1.353436    1.3624277   0.78571641        0.075    1.2518379          1.8   0.31428656    5.7272572    2.7793771    33.337595 0.00039100508  -0.19313668  0.009453718    0.2039594  -0.56022309    1.3342754 
  512000    6.2170031    1.2812711     4.935732  -0.22935179   0.85420505     1.005336   0.74929644   -1.2345679            1    1.5523956    2.1354206    2.1200699   0.40169613 -0.011486253   0.00273709 -0.010360303     1.406758     1.416702   0.79166582        0.075    1.2522332          1.8   0.31666633    5.6842166    2.7859819    33.337595 0.0023051406  -0.19915688 0.0065249751   0.19847732   0.39690557   0.63933244 
  513000    6.1971225    1.2667364    4.9303861  -0.23247539   0.84451494   0.99750544   0.73831452   -1.2345679            1    1.5088451    2.0909971     2.101194   0.33434413  0.001107523 -0.078065095  0.032491996     1.365342    1.3742084   0.78806505        0.075    1.2547504          1.8   0.31522602    5.7101885    2.7802447    33.337595 -0.0079213196  -0.19938963 0.0051816301    0.2040427   0.27437882    1.1196778 
  514000    6.2223364    1.2682752    4.9540612  -0.23050203   0.84554089    0.9854484   0.74842573   -1.2345679            1    1.4586621    2.0739644    2.0547001     0.247322 0.0013667512 -0.069993832  0.012061534    1.3131938    1.3256529   0.79077506        0.075    1.2591566          1.8   0.31631002    5.6906195    2.8002366    33.337595 0.00082537162  -0.19113321 0.0030508167   0.19559135  -0.15218995    1.0155656 
  515000    6.2173023    1.2709507    4.9463516  -0.22625239   0.84732458    1.0013466   0.74040799   -1.2345679            1    1.5087238    2.0882113    2.0900486   0.34791148 0.0093588446  0.007097199  0.002463417    1.3648138    1.3735686   0.78672304        0.075    1.2629847          1.8   0.31468922    5.7199291     2.790558    33.337595 -0.00018445864  -0.20636348  0.011082411   0.19471787   0.42748122   0.96154549 
  516000    6.2145524    1.2746271    4.9399253  -0.23065313    0.8497756   0.99818685   0.74675541   -1.2345679            1    1.5523054     2.130056    2.1333253   0.39353489  0.012077317   0.02611817 -0.0088445061    1.4071617    1.4175768   0.79091012        0.075    1.2632283          1.8   0.31636405    5.6896478    2.7722063    33.337595 0.0066047881  -0.19979945  0.001881455   0.19067945   -0.1943766   0.29409902 
  517000    6.2405039    1.2965872    4.9439168  -0.23253025   0.86441604    1.0257429   0.75242759   -1.2345679            1    1.5299298    2.1198856    2.1209249   0.34897903 0.0017205568  0.054109241 0.0047652446    1.3836837    1.3914819   0.78699929        0.075    1.2621481          1.8   0.31479972    5.7179213    2.7534374    33.337595 2.2536402e-05  -0.19834144 0.0022078041   0.17476293 -0.050337311    1.4639782 
  518000     6.232428     1.279438      4.95299  -0.22848986   0.85298294   0.99586509   0.75380246   -1.2345679            1    1.4980945     2.092445    2.0765883   0.32525032 -0.0027975714  0.034060118  0.032460215    1.3515811    1.3636793   0.79354455        0.075    1.2605983          1.8   0.31741782    5.6707592    2.7733809    33.337595 -0.0029628857  -0.19328819 0.0013370999   0.19569226  -0.90580011    2.1814824 
  519000    6.2278785    1.2844609    4.9434176  -0.23372796   0.85633162   0.99969677   0.75681591   -1.2345679            1    1.5317215    2.1111709    2.1126187   0.37137498 -0.0007696065   0.01816646  0.028865635    1.3846224    1.3967891   0.78256655        0.075    1.2619423          1.8   0.31302662    5.7503097    2.7617081    33.337595 -0.0033613085  -0.20012162 0.0081768905   0.19092736  -0.63979558   0.92433527 
  520000    6.2312723    1.2811697    4.9501027  -0.22589858   0.85413743    1.0009879    0.7522013   -1.2345679            1    1.5211701    2.1035337    2.1252724   0.33470402 0.0026339244 -0.00067507936 0.0086427751    1.3749679    1.3860633   0.79366002        0.075    1.2638027          1.8   0.31746401    5.6699341    2.7667397    33.337595 0.0023610002  -0.19093638 0.0053813481   0.19965684  -0.38897681   -0.6512918 
  521000    6.2177324    1.2768324       4.9409  -0.22897685   0.85124584    0.9871157   0.75693484   -1.2345679            1    1.4930216    2.0963082    2.0865438   0.29621291 0.0083722196  0.018217465 0.0095939972    1.3458994    1.3597873   0.78749054        0.075     1.263131          1.8   0.31499622    5.7143544    2.7801584    33.337595 -0.0042972739  -0.19956945  0.009491117   0.17278034    0.6234921    1.7202072 
  522000    6.2303219    1.2786481    4.9516738  -0.22749152   0.85245632     1.010333   0.74286319   -1.2345679            1    1.5649899    2.1441368    2.1405798   0.41025328 -0.0061648215  0.010448941 -0.012632743    1.4206028    1.4286219   0.79664237        0.075    1.2661342          1.8   0.31865695    5.6487079     2.792649    33.337595 -0.0060606678  -0.18852883 0.0060993585   0.20231391   0.31056096    3.5725644 
  523000    6.2150457    1.2661487     4.948897  -0.23152171   0.84412319   0.99438995   0.73981419   -1.2345679            1    1.4627712    2.0530223    2.0542106   0.28108075  0.001166461   0.01103294  0.033780696    1.3189767    1.3285551   0.78030481        0.075    1.2629435          1.8   0.31212192    5.7669771     2.755544    33.337595 0.0076036017  -0.20036591 -8.0066063e-05   0.20932161   0.49117034   0.80537796 
  524000    6.2317305    1.2856098    4.9461207  -0.22853368    0.8570976    1.0048085   0.75456412   -1.2345679            1    1.5451877    2.1075453    2.1363907   0.39162698 -0.0025687623  0.012478808 -0.048338664    1.3985262    1.4095653   0.79033037        0.075    1.2598721          1.8   0.31613215    5.6938214    2.8186258    33.337595 0.0014968438  -0.18915729 0.00092688163    0.1998784  -0.43432364     2.275427 
  525000    6.2205959    1.2731697    4.9474263  -0.22231925   0.84880393    0.9935405   0.74833548   -1.2345679            1    1.5113464    2.1008942    2.1051835   0.32796138 -0.0090658066 -0.030094466   0.01903129    1.3658956    1.3772448    0.7821799        0.075    1.2626618          1.8   0.31287196    5.7531522    2.7758159    33.337595 -0.0038553692  -0.20417428 0.0030582761   0.19452811   0.21596992     1.961203 
  526000    6.2134191    1.2754164    4.9380026  -0.23581984   0.85030182   0.99191276   0.75200399   -1.2345679            1    1.5141658    2.0901449     2.093255   0.35909743 0.0039546843 -0.073214527  0.023857077    1.3680019     1.380284   0.79303533        0.075    1.2616474          1.8   0.31721413    5.6744004     2.807787    33.337595 -0.0035427927  -0.19430132 -0.0049128881    0.2048871    1.3698804    1.6477786 
  527000    6.2265874    1.2744556    4.9521318  -0.22709948   0.84966126      0.99839   0.74642058   -1.2345679            1    1.5240015    2.0973738    2.1139093   0.36072144 -0.0036304407 -0.032928183  0.016033921    1.3789229    1.3892454   0.79280318        0.075    1.2649234          1.8   0.31712127     5.676062    2.7938149    33.337595 -0.0049017296  -0.19042631 -0.0042628963   0.20015384   0.40297956    1.5278265 
  528000    6.2158932    1.2756113     4.940282   -0.2335254   0.85043171    1.0026688   0.74475475   -1.2345679            1    1.4553459    2.0386922     2.064156   0.26318967 0.00049800033  0.036190113  0.011551161    1.3105911    1.3200124   0.79179551        0.075    1.2637725          1.8   0.31671821    5.6832855    2.8064468    33.337595  0.003511574  -0.19216163 0.0047424667   0.20276971  -0.24712781  -0.12758458 
  529000    6.2448728    1.2838281    4.9610447  -0.22891902   0.85590975   0.99988343   0.75597143   -1.2345679            1    1.4994919    2.1119743    2.0624483   0.32405298 -0.0018331382  0.028176775 -0.050336018    1.3525569    1.3645342   0.79074554        0.075    1.2665106          1.8   0.31629821     5.690832    2.7991414    33.337595 -0.0011554288  -0.19513189  0.001945254   0.21875402  -0.52029094    1.2884014 
  530000    6.2295536    1.2786055    4.9509481  -0.22950212   0.85242792   0.99386383   0.75425174   -1.2345679            1    1.5682136    2.1320923    2.1365773   0.43597113  0.011030538 -0.021537424 0.0012306035    1.4216129    1.4340684   0.78834268        0.075    1.2623672          1.8   0.31533707    5.7081776    2.7891635    33.337595 0.0057341922  -0.18954687 0.0059367054   0.19453236   0.45389992    1.8190148 
  531000    6.2248824    1.2876226    4.9372597  -0.23113094    0.8584395    1.0003392   0.75994151   -1.2345679            1    1.5898237    2.1472056    2.1608885   0.46137691 0.0021667517 -0.031185813 0.00016448994    1.4421171    1.4548045   0.79325263        0.075    1.2576948          1.8   0.31730105     5.672846     2.791749    33.337595 0.00072966146  -0.19711518 -0.0022688915   0.19628503   0.50783192    2.9978759 
  532000    6.2211002    1.2786563    4.9424439  -0.22974379   0.85246179   0.99874477   0.75091965   -1.2345679            1    1.4942545     2.078261      2.08554   0.31896258 0.0017683613 -0.060515227 0.0019115352    1.3483014    1.3594506   0.79145244        0.075    1.2589575          1.8   0.31658098    5.6857491    2.7764003    33.337595 -0.001931607   -0.1978664 0.00033290437   0.19143126   0.87734994 -0.0051920464 
  533000    6.2246718    1.2873099    4.9373618  -0.23356717   0.85823104    1.0057048   0.75586227   -1.2345679            1    1.4852609    2.0761988     2.072245   0.30733898 0.0017309964 -0.030318004 -0.0095637712    1.3383472    1.3495176   0.79661178        0.075    1.2653509          1.8   0.31864471    5.6489248     2.790761    33.337595  0.004477139  -0.17508219 0.0029258987   0.21555301   0.57488213  -0.50902405 
  534000     6.215302    1.2753334    4.9399686  -0.22764425   0.85024645   0.99922479   0.74683247   -1.2345679            1    1.5442899    2.1168017    2.1165691   0.39949873 0.0043785137 0.00088953799  0.031463966    1.3991312    1.4094211   0.79395977        0.075    1.2692617          1.8   0.31758391    5.6677934    2.7774774    33.337595 -0.0029730512  -0.18861952 1.0506244e-06   0.19349548  -0.81127027    2.3388481 
  535000    6.2156457    1.2797459    4.9358999  -0.22951927   0.85318819   0.99774343   0.75284588   -1.2345679            1    1.5100274    2.1028973    2.0999989   0.32718591 -0.0057131906  -0.04213916 -0.0070032587    1.3636999    1.3753586   0.78833568        0.075    1.2734282          1.8   0.31533427    5.7082282    2.7633777    33.337595 0.0013578316  -0.18576604 0.0042748955   0.18494873  -0.31886672    1.1836447 
  536000    6.2096299    1.2777909     4.931839  -0.23005074   0.85188485   0.99663106   0.75140986   -1.2345679            1    1.5260484    2.1142209    2.1035393    0.3603849 -0.011895882 -0.0016086569 -0.021631899         1.38    1.3915297    0.8002816        0.075    1.2740105          1.8   0.32011264    5.6230207     2.811634    33.337595 -0.0020732279  -0.18955185 0.0026435399    0.2021449   0.17839863   0.21711665 
  537000    6.2242148     1.283356    4.9408588  -0.23274612   0.85559504     1.003542   0.75289756   -1.2345679            1    1.5035685    2.0909055    2.0809581    0.3388419 0.0030746332 0.0046632176 -0.036671022     1.357231    1.3681171   0.79241921        0.075    1.2777484          1.8   0.31696768    5.6788124    2.7872395    33.337595 0.0022143169  -0.19123254 -0.0008823783   0.18725778   0.43127283   -0.4925616 
  538000    6.2337439    1.2851267    4.9486172  -0.23092063   0.85677553    1.0128684   0.74842131   -1.2345679            1    1.4788925    2.0644255    2.0711262    0.3011257 -0.0012821582  0.020423796  0.006066454     1.333425    1.3421822   0.78909216        0.075    1.2796496          1.8   0.31563686     5.702756    2.7843495    33.337595 -0.006252542   -0.1865959 0.00031097415   0.17667229   -0.1940752    0.4192802 
  539000    6.2091648    1.2660996    4.9430652  -0.22400213    0.8440904   0.99679696   0.73808715   -1.2345679            1    1.5015539    2.0974237    2.1009132   0.30632488 0.0082300036  0.019347574  0.015325934    1.3580951    1.3670129   0.79077506        0.075    1.2796473          1.8   0.31631002    5.6906195    2.7919042    33.337595 0.0057643658  -0.20206737 0.0027857237   0.19851268  -0.67862005   0.82372941 
  540000    6.2244899    1.2809069     4.943583   -0.2259456   0.85396221    1.0049741   0.74913627   -1.2345679            1     1.571297    2.1467086    2.1445418   0.42264065 -0.0030654956 0.0068172869  0.021164452    1.4256906    1.4356523   0.78626077        0.075    1.2833652          1.8   0.31450431     5.723292    2.7932268    33.337595 -0.003869713  -0.20677312 -0.0010282551   0.18867481   -1.1094176    1.5589954 
  541000    6.2168344    1.2780004     4.938834  -0.23044412   0.85202452   0.99490333   0.75284633   -1.2345679            1    1.5629953    2.1362778    2.1366486   0.41605963  0.012103971 -0.0036125311  0.027104819    1.4166678    1.4287099   0.79260282        0.075    1.2812159          1.8   0.31704113    5.6774968    2.7933827    33.337595 -0.006380811  -0.19416053 -5.8971261e-05   0.20559785   0.38296213    1.0139535 
  542000    6.2001135    1.2650699    4.9350436  -0.23477769   0.84340394   0.99228606   0.74005644   -1.2345679            1    1.5206652    2.1115781    2.0959847    0.3544328 -0.002290835 -0.033829646  0.016286939    1.3768235     1.386733   0.78887657        0.075    1.2827869          1.8   0.31555063    5.7043145    2.7978022    33.337595 -0.00067941155  -0.18286574 0.0039933314   0.21049804    0.7201776    3.6986556 
  543000    6.2241323    1.2804971    4.9436352  -0.23328658   0.85368902   0.99750765   0.75385826   -1.2345679            1    1.4808422    2.0867223    2.0849798   0.27082463 -0.0073403515 -0.015091904 -0.021751987     1.334318    1.3462053   0.79070071        0.075    1.2820917          1.8   0.31628028    5.6911546    2.7886312    33.337595 -0.0036988513  -0.18912649 -0.0011892059   0.20581274   0.66507732    0.5074375 
  544000    6.2253998    1.2817227    4.9436771  -0.22337771   0.85450612   0.99361338   0.75794713   -1.2345679            1    1.5245739    2.1090932    2.1143924   0.35023612 -0.004154833  0.024029389 0.00059058213    1.3772549    1.3904626   0.79210909        0.075     1.280497          1.8   0.31684363    5.6810357     2.791268    33.337595 0.0016239798  -0.19576236 0.0021079011   0.20171056   0.27270061  0.088895804 
  545000    6.2202217    1.2788294    4.9413923  -0.23017704   0.85257723   0.99629702   0.75281505   -1.2345679            1    1.4921289    2.0754416    2.0934033   0.30754181 0.0053519027  0.085461878  0.001383513    1.3458074    1.3576553   0.78539787        0.075    1.2756175          1.8   0.31415915    5.7295801    2.7882852    33.337595 -0.00054634027  -0.18060374 0.0061906359   0.19716478  -0.99047555    1.4730435 
  546000    6.2291725    1.2671824    4.9619901   -0.2263177   0.84481231   0.98208369   0.74952774   -1.2345679            1    1.4471528    2.0510193    2.0412756   0.24916363 0.0093739615  0.009286912 -0.043441918    1.3014703    1.3145977   0.78499693        0.075    1.2793424          1.8   0.31399877    5.7325065    2.7964421    33.337595 0.0048871292  -0.19011402 -0.0057631552   0.20160071 -0.059853673   0.81706376 
  547000    6.2291153    1.2784626    4.9506527  -0.22762622   0.85233266   0.99824707   0.75104647   -1.2345679            1     1.478223    2.0640652    2.0702353   0.30036846 -0.0090331208  0.017501974  -0.04247513    1.3322453    1.3434862   0.78066786        0.075    1.2790316          1.8   0.31226714    5.7642952    2.7749824    33.337595 0.0025760328  -0.18080707 0.0014090787    0.2043053   0.84185862    0.7754429 
  548000    6.2181539    1.2724759     4.945678  -0.23116983   0.84834143   0.99423321   0.74707077   -1.2345679            1    1.5238756    2.1048478    2.1143123   0.35246679 -0.0010199038  0.017105674 -0.00030931814    1.3786707    1.3896806   0.78123506        0.075    1.2831143          1.8   0.31249402    5.7601102    2.7959034    33.337595 0.0035608545  -0.19594547 -0.0012953846   0.21200027   0.40402052    1.8423364 
  549000     6.224041    1.2812771    4.9427639  -0.22882828   0.85420906   0.99401656   0.75716378   -1.2345679            1    1.5482271    2.1248629    2.1270188   0.39279967 0.0074633332 -0.006015059 0.0068034441    1.4010604    1.4140614   0.78479358        0.075    1.2792854          1.8   0.31391743    5.7339919    2.7889088    33.337595 0.0055684117  -0.18931875 0.0031551052   0.18685102  -0.19928663    1.4736243 
  550000    6.2216579    1.2787384    4.9429195  -0.23125761   0.85251653    1.0037002   0.74757119   -1.2345679            1    1.5403383    2.1051488    2.1314904    0.3843756 0.0023620981 0.0023960575  0.021255953     1.395036    1.4048655   0.78697441        0.075    1.2808759          1.8   0.31478977     5.718102    2.7964122    33.337595 4.8296663e-05  -0.18452382 0.0016886599   0.19372164   -1.1817729    1.2291309 
  551000    6.2186638    1.2791479     4.939516  -0.22706326   0.85278951    1.0029983   0.74852121   -1.2345679            1    1.4923232    2.0830779    2.0826009    0.3112907 -0.0015454212 -0.010847589 -0.013871238    1.3468363    1.3569451   0.78474942        0.075    1.2849663          1.8   0.31389977    5.7343145     2.772561    33.337595 0.0040878314  -0.19582598 -0.004591382   0.18812774  -0.26919543 -0.032083984 
  552000    6.2244279    1.2758387    4.9485892   -0.2276407   0.85058334   0.99791046   0.74831603   -1.2345679            1    1.5254421    2.1033459    2.1102915   0.36268904 0.0083583468 -0.039995254  0.040691713    1.3799951    1.3907508   0.78299854        0.075    1.2856349          1.8   0.31319942    5.7471372    2.7830413    33.337595 0.0045058256  -0.19176555   0.00772823   0.17934123   0.91107549   0.49369718 
  553000    6.2220905      1.28127    4.9408205  -0.22852653   0.85420433     1.010949   0.74539734   -1.2345679            1    1.5364031    2.1158584    2.1187266   0.37462433 -0.0021854217  0.035686637  0.021389879    1.3915234    1.3999519    0.7788169        0.075    1.2853227          1.8   0.31152676    5.7779948    2.7713368    33.337595 -0.0037657739  -0.19210927 0.00061049803   0.18169901   0.76841046    1.2085281 
  554000    6.2261876    1.2727787    4.9534089  -0.22291662   0.84854331   0.99591772   0.74624306   -1.2345679            1    1.5288947    2.1189809    2.0990839   0.36861915  0.004977136 0.0092945868 -0.0038401827    1.3838505    1.3944723   0.78751375        0.075    1.2843471          1.8    0.3150055    5.7141859    2.7880354    33.337595 -0.0061131958  -0.19490442 -0.00029130273   0.19184134   0.60144013    1.0282229 
  555000    6.2303511     1.278173    4.9521781  -0.22506613   0.85213956     1.001678   0.74833672   -1.2345679            1    1.5515419    2.1235903    2.1332257   0.39780965 -0.0044361629 0.0033448653 -0.0045583833    1.4060908     1.416342   0.78614662        0.075    1.2779372          1.8   0.31445865     5.724123    2.7961734    33.337595 0.0063390205  -0.18718881 0.0087294984    0.1823188  -0.75162767      1.14999 
  556000    6.2147442     1.275603    4.9391413   -0.2279667   0.85042619   0.99875377   0.74746413   -1.2345679            1    1.5192578    2.1096791    2.0950199   0.35307426 -0.0062613897  0.019879788  0.054103961    1.3739763    1.3844526   0.78954001        0.075    1.2831582          1.8     0.315816    5.6995212    2.8066907    33.337595 0.0011483307  -0.20639025 -0.00051801354   0.20190986    -0.426146  -0.11721891 
  557000    6.2210817    1.2770365    4.9440452  -0.22618409   0.85138191   0.99766552   0.74983929   -1.2345679            1    1.5128298    2.0900693    2.1061582   0.34226203  0.003146647  0.059337524  0.015008924    1.3670867    1.3781716   0.77841727        0.075    1.2835565          1.8   0.31136691    5.7809612    2.7701723    33.337595 0.0031088104   -0.1918422 0.0025039352    0.1914298   -1.0447634    1.3170746 
  558000    6.2125265    1.2645041    4.9480224   -0.2292477   0.84302672    0.9893702   0.74144213   -1.2345679            1    1.5044191    2.0880004    2.0773784   0.34787862 0.00059146252   0.07580397   0.01359402    1.3603082    1.3708805   0.78782769        0.075    1.2829218          1.8   0.31513107    5.7119089    2.8022117    33.337595 -0.0018675468  -0.17609952 -0.0071709468   0.19961804  -0.38064408    2.6277883 
  559000     6.208417    1.2742417    4.9341754  -0.22819592   0.84951862     1.004403   0.74200325   -1.2345679            1    1.5157504    2.0985908    2.1169229   0.33173736 -0.0042367794  0.015834622 0.0082448323    1.3715303    1.3801827   0.78732236        0.075    1.2848216          1.8   0.31492895     5.715575     2.823642    33.337595 0.0037808846  -0.18706087 -0.0065829703   0.18244678   0.14602501   0.98619293 
  560000    6.2255493      1.27769    4.9478592  -0.23167163    0.8518176   0.99978142   0.74910821   -1.2345679            1    1.5199185    2.1034945    2.0973525   0.35890866 -0.0095460932 -0.0031958762 0.0015067518    1.3743175    1.3849747   0.77707832        0.075     1.289491          1.8   0.31083133    5.7909221    2.7659918    33.337595 0.0021849534  -0.18554426 -0.0032285361   0.19343026  -0.04446132    1.2265714 
  561000    6.2299668    1.2774513    4.9525155  -0.22994863   0.85165846    1.0024356   0.74699543   -1.2345679            1    1.4921663    2.0556244    2.0922042   0.32867042 -0.0008998916  0.049151835 -0.0010806444     1.346976    1.3568642   0.78091587        0.075    1.2893681          1.8   0.31236635    5.7624645    2.7729744    33.337595 -0.0051846359  -0.19596678 0.0047232928   0.19693525   0.20063631   0.49552752 
  562000     6.234162    1.2853757    4.9487862  -0.22708654   0.85694155     1.005259   0.75398682   -1.2345679            1    1.5200702    2.1078851    2.1150583   0.33726716 -0.0066545308  0.019586738  0.015311926    1.3735209     1.384387   0.78787647        0.075    1.2866241          1.8   0.31515059    5.7115552    2.7967921    33.337595 -0.004392587  -0.19793546 0.0022823029   0.18681328    -1.245499  -0.77934458 
  563000    6.2346284    1.2849859    4.9496425  -0.22756942   0.85668167    1.0061843   0.75290394   -1.2345679            1    1.5151556    2.1085881    2.1139151   0.32296364 -0.0050396306   0.04702737 -0.003183271    1.3688168    1.3793475   0.79172162        0.075    1.2858668          1.8   0.31668865     5.683816    2.7960435    33.337595 0.00010808657    -0.170737 -0.0024287279   0.17721998  -0.50646997     2.071031 
  564000    6.2192874    1.2685285     4.950759  -0.22170111   0.84570971   0.99339676   0.74319222   -1.2345679            1    1.5233491    2.1111164    2.1028343   0.35609671 0.00081320872  0.020197409  0.014511837     1.378898     1.389267     0.793483        0.075    1.2864213          1.8    0.3173932     5.671199    2.8117371    33.337595 0.0047571774  -0.20250305 0.0022646284   0.17550791  -0.27594116    1.3333392 
  565000    6.1987362    1.2598384    4.9388978  -0.23247814   0.83991617   0.98971304   0.73593329   -1.2345679            1    1.5135657     2.095737    2.0977819   0.34717829 0.0062826422 0.0016706114  0.010777617    1.3705255    1.3799808   0.78917403        0.075    1.2844026          1.8   0.31566961    5.7021644    2.7748492    33.337595 -0.0044938423  -0.20177114 -0.0046004834   0.18834916  -0.52313688    1.7585353 
  566000    6.2253233    1.2835708    4.9417525  -0.23255728   0.85573821    1.0090632   0.74930608   -1.2345679            1    1.4572206    2.0443848    2.0703433   0.25693371 0.0019928731  0.052489027 0.0021807884    1.3115811     1.321024   0.79302503        0.075    1.2886868          1.8   0.31721001    5.6744741    2.7977695    33.337595 -0.0033320755  -0.19576662  0.001545377   0.18631984   -0.2633696   0.54073506 
  567000    6.2199141     1.273821    4.9460931  -0.22539981    0.8492382   0.99216538   0.75002627   -1.2345679            1    1.4866783    2.0703866    2.0900846   0.29956368 0.00086925204 -0.0096428374 0.00092815153    1.3408989    1.3527624   0.79199491        0.075    1.2913261          1.8   0.31679797    5.6818547    2.7944038    33.337595 -0.0036769198  -0.21922705 0.0031648698   0.20371893  -0.10608179   0.71838169 
  568000     6.214786    1.2716385    4.9431475  -0.22857596   0.84778313   0.99011387   0.74898533   -1.2345679            1     1.566874    2.1396145    2.1316334    0.4293741  0.010950312 -0.056419233 0.00028425075    1.4212969     1.433235   0.78833023        0.075    1.2921265          1.8   0.31533209    5.7082677    2.7667396    33.337595 -0.0064480314  -0.20055308 -0.0016376629   0.20364429  -0.10710501    2.1260854 
  569000     6.218416    1.2781222    4.9402939  -0.22770305   0.85210569    1.0045214   0.74630477   -1.2345679            1     1.520685    2.1098781    2.1081594   0.34401757 0.0017761876 -0.054531093 -0.0038644235    1.3756289    1.3851014   0.79375167        0.075    1.2893434          1.8   0.31750067    5.6692794    2.8200757    33.337595 0.0025608828  -0.19286484 -0.00054640732    0.1999184  -0.17892968   0.80845015 
  570000    6.2217181    1.2749302    4.9467878   -0.2311222   0.84997769    1.0011822   0.74501776   -1.2345679            1    1.5083801    2.0975181    2.1020829   0.32553921  2.58998e-05  -0.05282331 -0.011132384    1.3635741    1.3732471   0.78404859        0.075    1.2869675          1.8   0.31361944    5.7394402     2.760451    33.337595 -0.00038512105  -0.17888066 0.0046573659   0.19375837   0.46253769    1.1967037 
  571000    6.2235093    1.2748982    4.9486111  -0.22717432   0.84995631   0.99664384   0.74813313   -1.2345679            1    1.5126811    2.0890379    2.1154511   0.33355418 -0.00029003918  0.021491953  0.015647038    1.3672696    1.3781607   0.78724824        0.075    1.2877511          1.8    0.3148993    5.7161131    2.7523805    33.337595 -0.0023742011  -0.18338953  0.003305455   0.20664516    0.7959943    1.0339289 
  572000    6.2141267     1.273366    4.9407607  -0.22891878   0.84893482   0.99796025   0.74548807   -1.2345679            1    1.5194434    2.1023644    2.1029121   0.35305353 0.0024414336  0.058803435  0.010350732     1.374546    1.3847453   0.78733577        0.075    1.2830433          1.8   0.31493431    5.7154777    2.7594131    33.337595 -0.0032517402  -0.18427299 -0.0049619635   0.19683173   0.92617925    1.7568568 
  573000    6.2398262    1.2905145    4.9493117  -0.22810218   0.86036749    1.0070481   0.75854961   -1.2345679            1    1.5364742    2.1139223    2.1231068    0.3723935  -0.00695686  0.052777435 -0.018527857    1.3890381    1.4005495   0.79451172        0.075    1.2885382          1.8   0.31780469     5.663856     2.797133    33.337595 1.2889636e-05  -0.19501341 -0.00090529771   0.18450479   0.39576041    1.3357265 
  574000    6.2079128    1.2593821    4.9485308  -0.22979345   0.83961194   0.97264576   0.74726979   -1.2345679            1    1.4827355    2.0669322     2.078532   0.30274233 -0.0087113063 -0.013137013 0.0025401226    1.3374918    1.3514542   0.78704526        0.075    1.2934912          1.8    0.3148181    5.7175873    2.7704436    33.337595 -0.0084622295  -0.19349696 -0.0018193429   0.20398371  -0.39146715    1.3963647 
  575000    6.2233046    1.2731421    4.9501625  -0.23209594   0.84878556    1.0018011   0.74256798   -1.2345679            1    1.4790149    2.0646099    2.0780418   0.29439294  0.011086577 -0.0095134929 0.0014915684    1.3346851    1.3437984   0.79876881        0.075    1.2870649          1.8   0.31950752    5.6336702    2.8054257    33.337595 0.0044218409  -0.19570724 -0.0051470796   0.19660197  -0.34366657    1.2705861 
  576000    6.2199553    1.2801408    4.9398145  -0.22794671    0.8534515    1.0025478   0.74995578   -1.2345679            1    1.5178763    2.1217507    2.0973521   0.33452623 0.0072223469 -0.030724858  0.020533684    1.3721106    1.3825591   0.79385301        0.075    1.2913244          1.8    0.3175412    5.6685557    2.7794459    33.337595 -0.0041922686  -0.18187013 -0.0040752017   0.19363927  -0.20989738    1.5368388 
  577000    6.2346018    1.2812852    4.9533166  -0.23425182   0.85421444   0.98964703   0.76020722   -1.2345679            1    1.4467997    2.0386919    2.0572622   0.24444499 0.00036482999  0.017367252  -0.01376123    1.2990414    1.3132237    0.7952238        0.075    1.2927382          1.8   0.31808952    5.6587844    2.7601445    33.337595 0.0046807809  -0.19656141 -0.0012468352   0.19798212    0.9041359  0.097259963 
  578000    6.2074081    1.2684121    4.9389961  -0.22766996   0.84563211   0.99083893   0.74483696   -1.2345679            1    1.4892287     2.082463     2.083023       0.3022 0.0022943174  0.014017224  0.029207851    1.3444579    1.3554918   0.79239576        0.075    1.2989158          1.8    0.3169583    5.6789804    2.8070409    33.337595 0.00083414377  -0.19021417 0.0044223602   0.19611446    1.2000263   0.32355337 
  579000    6.2248206    1.2796868    4.9451337  -0.22933452   0.85314884   0.99722538   0.75313896   -1.2345679            1    1.4956553    2.0659816    2.1037376   0.31724672 0.0043127088 -0.092489731 0.0042478598    1.3492709    1.3610565     0.792956        0.075    1.2989593          1.8    0.3171824    5.6749681    2.8098753    33.337595 0.0031390852   -0.2017092 0.0057699042   0.18482853   0.80063853    1.5995893 
  580000    6.2152414    1.2775075    4.9377339  -0.23638603   0.85169593   0.98972648   0.75588449   -1.2345679            1    1.4997634    2.1107131    2.0789262   0.30965091 0.0098556862  -0.05927688 -0.007237129    1.3528453    1.3661767   0.79922299        0.075    1.2951536          1.8   0.31968919    5.6304687    2.7944259    33.337595 -0.0032930314  -0.20053058   0.00308555   0.20879599  -0.12596908  -0.21765786 
  581000    6.2211039    1.2834952    4.9376087  -0.22733198   0.85568784   0.99664091   0.75784711   -1.2345679            1    1.5372293    2.1178845    2.1298251   0.36397822 0.0026017043  -0.03790861 -0.022756373    1.3899297    1.4027093   0.79104659        0.075    1.2926259          1.8   0.31641864    5.6886662    2.7980002    33.337595 0.00022089319  -0.17594299 -0.0050364347   0.18495622  0.041966692    1.7994596 
  582000    6.2285887    1.2894572    4.9391315  -0.22327632   0.85966261   0.99928601   0.76274543   -1.2345679            1    1.5121822    2.0983031    2.1112184    0.3270253 0.00072275084 -0.0039633714  0.011035686    1.3639306    1.3773052   0.79315289        0.075    1.2933449          1.8   0.31726116    5.6735594    2.7904381    33.337595 0.0036205695  -0.19193843 0.0086392497   0.19912247  -0.12939607   0.24824914 
  583000    6.2173213    1.2794691    4.9378522  -0.23041797   0.85300367    1.0083783   0.74514806   -1.2345679            1    1.5748287    2.1522089    2.1413378   0.43093948  0.001755884  0.026462103 -0.013764098    1.4299975    1.4387245   0.78955301        0.075    1.2971079          1.8   0.31582121    5.6994273    2.7946288    33.337595 0.0013181217  -0.20990895 0.0015057225   0.20720085  -0.31936947    2.3117198 
  584000    6.2206545    1.2682448    4.9524097  -0.22905979   0.84552058    0.9948193   0.74188389   -1.2345679            1    1.5087051    2.0991246    2.0809418    0.3460488 -0.0042343753  0.018961609 -0.0034018268    1.3645082    1.3744309   0.79037234        0.075    1.2975684          1.8   0.31614894    5.6935191    2.7726267    33.337595 -0.0019289235  -0.21089574 0.0047836816   0.19759921  -0.44866594   0.64940989 
  585000    6.2266616    1.2717815    4.9548801  -0.22787234   0.84787849   0.99450946   0.74609448   -1.2345679            1     1.499037    2.0746705    2.1087335   0.31370687 0.0052595898  0.010877383 0.0046789111    1.3540217    1.3648047   0.78704571        0.075    1.2983084          1.8   0.31481828    5.7175841     2.785868    33.337595 0.0058161644  -0.20141392  0.001414708   0.18786634  -0.30519663     1.923137 
  586000    6.2176073    1.2811272    4.9364801  -0.23473412   0.85410913    1.0000059   0.75283529   -1.2345679            1    1.5083039    2.0973033    2.0843909   0.34321746 -0.007342987 -0.044363526 -0.0078012958    1.3619785    1.3733297   0.79627629        0.075    1.2941221          1.8   0.31851052    5.6513048    2.7951924    33.337595 -0.012508365  -0.20409599 -0.0010523362   0.20122895   0.30866947   -0.7185613 
  587000    6.2222607     1.280306    4.9419547    -0.232478   0.85356164    1.0041799   0.74900899   -1.2345679            1    1.5019312    2.0775055    2.0884584   0.33982964 -0.0035193909 -0.0086240474 0.0066696828    1.3563495    1.3663936   0.79531799        0.075    1.3022225          1.8    0.3181272    5.6581142    2.8012407    33.337595 0.0021637181  -0.20539349 0.0071173025    0.1803887  -0.29546387  -0.38442395 
  588000    6.2083943    1.2669534    4.9414409  -0.23224009   0.84465966    0.9918923   0.74245768   -1.2345679            1    1.5006187    2.0837632    2.0867457   0.33134713 -0.0077073909  0.057887192  0.010671575    1.3563103    1.3667396   0.78889869        0.075    1.3044398          1.8   0.31555948    5.7041545    2.7931022    33.337595 -0.0014196223  -0.19521355 -0.0080377039   0.17043418    1.0370742    1.5088663 
  589000      6.21584    1.2717789    4.9440611   -0.2292702    0.8478767   0.99733973   0.74412603   -1.2345679            1    1.4747787    2.0738369    2.0749702   0.27552889   0.01329293  0.015416125  0.032533708     1.330146    1.3401643   0.78695483        0.075    1.2983518          1.8   0.31478193    5.7182444    2.7800802    33.337595 -0.0040120247  -0.18581176 0.0064501994   0.18225994   0.45645423  0.046047129 
  590000    6.2118148    1.2665959    4.9452189  -0.22607687   0.84442127   0.99519223   0.73976217   -1.2345679            1    1.5295063    2.1173444    2.1091493   0.36202525  0.007863219  0.041241864 -0.048329597    1.3857219    1.3951819   0.79213686        0.075    1.2965173          1.8   0.31685474    5.6808365    2.8119227    33.337595 0.00053387851  -0.18918346 0.0069812965   0.18014698  -0.27074048   0.50511257 
  591000    6.2490327    1.2960344    4.9529983  -0.22320681   0.86404754    1.0091166   0.76334892   -1.2345679            1     1.489669     2.099504    2.0733825   0.29612049  0.012090202  0.042614974  0.021520531    1.3413001    1.3534651   0.79304704        0.075    1.2967084          1.8   0.31721882    5.6743166    2.8008831    33.337595 -0.0021682223  -0.19045604 -0.0024099661   0.17172451   0.25082602   0.84139812 
  592000    6.2199284    1.2777201    4.9422083  -0.22909655   0.85183762   0.99372488   0.75334797   -1.2345679            1    1.4652333    2.0479118    2.0668186   0.28096948 0.0012710162 -0.016959384 0.0094662228    1.3188082    1.3311069   0.79056634        0.075    1.2957211          1.8   0.31622654    5.6921219    2.7895411    33.337595 0.0016829484  -0.19826841 0.0015728416   0.18256247  -0.18199512    1.0182308 
  593000    6.2352566    1.2823275    4.9529291  -0.22117309   0.85490932   0.99872662   0.75507954   -1.2345679            1    1.5171581    2.1007649    2.1050371   0.34567218  -0.01430991 -0.032381566 -0.009540376    1.3703964    1.3823566   0.79347949        0.075    1.2934811          1.8    0.3173918    5.6712241     2.796626    33.337595 -0.0020750216  -0.18775896 -0.0003670597   0.20068332  -0.44648327  -0.78155166 
  594000    6.2291209    1.2795645    4.9495564   -0.2334707   0.85306727    1.0048834   0.74768276   -1.2345679            1    1.4826832    2.0822244     2.067761   0.29806423 0.0097977268 0.0045088445 -0.0012613924    1.3373593    1.3470507    0.7935304        0.075    1.2960459          1.8   0.31741216    5.6708602    2.7994763    33.337595 -0.0036605255  -0.19418409  0.001273183   0.20463961   0.47212559  -0.30745237 
  595000    6.2396975    1.2857739    4.9539235  -0.23043046   0.85720703   0.99781563   0.75960558   -1.2345679            1    1.4762847    2.0706851     2.080889      0.27728 -0.0048004375 -0.055164961 -0.0059871395    1.3286434    1.3416062   0.79083092        0.075    1.3007871          1.8   0.31633237    5.6902176    2.7964972    33.337595  0.012317038  -0.18584581 0.0074064747   0.17881701   0.45415757   0.97705558 
  596000    6.2394887    1.2918063    4.9476824  -0.23121748   0.86122868    1.0196681   0.75124521   -1.2345679            1    1.5064504    2.0915703    2.1082263   0.31955461 -0.0020298345 -0.040507423 -0.00074219583     1.360434    1.3688224   0.79168485        0.075    1.3040903          1.8   0.31667394      5.68408    2.7874878    33.337595 0.0052164157  -0.19161554 -0.0066242888   0.18798487   -1.3804268    1.8583412 
  597000    6.2358482    1.2883068    4.9475414  -0.22626514   0.85889563    1.0076866    0.7556122   -1.2345679            1    1.5273925    2.0940985    2.1210298   0.36704931 0.0013716495  0.020093576 0.0058351415    1.3805274    1.3913817   0.79120015        0.075    1.3038648          1.8   0.31648006    5.6875621    2.7888324    33.337595 -0.00028812188  -0.18768113 -0.0014948341   0.20131743  -0.46756006    2.3699607 
  598000    6.2375385     1.288285    4.9492535  -0.23093844   0.85888112   0.99611379   0.76362409   -1.2345679            1    1.4898691    2.0840442    2.0945405   0.29102263 -0.0036278887 -0.030926823  0.030363563    1.3414467    1.3554203   0.79242967        0.075    1.3019749          1.8   0.31697187    5.6787374    2.7810839    33.337595 -0.002290332  -0.21822157 0.0032414088   0.19524661  -0.75537437    1.0975246 
  599000    6.2230231    1.2784708    4.9445523  -0.23131686   0.85233814    1.0036089   0.74733238   -1.2345679            1     1.513915    2.0856063    2.1083091    0.3478296 -0.001428554 -0.029003672 -0.013778614    1.3686592    1.3784545   0.78766896        0.075    1.3047131          1.8   0.31506758    5.7130599    2.7851263    33.337595 0.00094893169  -0.17723606 0.0055531372   0.19316611  -0.41757716    1.2499755 
  600000    6.2281471    1.2800681     4.948079  -0.22804196   0.85340305    1.0096369   0.74495078   -1.2345679            1    1.5264839     2.115154     2.120146   0.34415163 0.0019335783  0.051855169  0.033883763    1.3816909    1.3902098   0.79510494        0.075    1.3021118          1.8   0.31804198    5.6596303    2.8101687    33.337595 -0.0055426015  -0.19623952 0.0027130636   0.21993383  -0.17515157    1.1667154 
  601000    6.2229915    1.2793594    4.9436321  -0.23023939   0.85293053    1.0137223   0.74131308   -1.2345679            1    1.5117195     2.088959    2.1115275    0.3346719 0.0053870222  0.047992469 -0.0016057596    1.3676336    1.3748939   0.78807275        0.075    1.3043676          1.8    0.3152291    5.7101327    2.7927513    33.337595 -0.0045726826  -0.19648222 0.00090911982   0.17521553    1.8190053    1.3867312 
  602000     6.203405    1.2670494    4.9363556  -0.23553739   0.84472362   0.99423305   0.74094056   -1.2345679            1    1.4911591    2.0990587    2.0626519   0.31176682 0.0016113953  0.010415435  0.023140969    1.3471457    1.3569642   0.78564411        0.075    1.3051524          1.8   0.31425764    5.7277843    2.7600342    33.337595 -0.0013363517  -0.19165092  0.010092345   0.20343807   0.68013074   0.44980433 
  603000    6.2214519    1.2852477    4.9362042   -0.2304265   0.85685619   0.99987752   0.75757925   -1.2345679            1    1.5317708    2.1059743    2.1057658   0.38357231 -0.015351152 -0.055400035 -0.025721224    1.3845233     1.396814    0.7923979        0.075    1.3085945          1.8   0.31695916    5.6789651    2.7932151    33.337595 -0.0028085792  -0.20603258 0.00033073286   0.21766301  -0.30251545   0.33400006 
  604000    6.2260032    1.2827595    4.9432437  -0.22312889   0.85519731    1.0048155   0.75133926   -1.2345679            1    1.5111566    2.0911728    2.1050593   0.33723773 0.0052506017 -0.042456432  0.024946076     1.365122    1.3755333   0.78634262        0.075    1.3052802          1.8   0.31453705    5.7226963    2.7699614    33.337595 -0.0054518316  -0.18643862  0.001758484   0.20182272  -0.88084089    1.0897367 
  605000    6.2137782    1.2687465    4.9450318  -0.22704168   0.84585505   0.99584012   0.74174175   -1.2345679            1    1.4719108    2.0704126    2.0724872   0.27283263 -0.0084547677 0.0087473138 -0.012842795    1.3277416    1.3374989    0.7878283        0.075    1.3069327          1.8   0.31513132    5.7119045    2.7795785    33.337595 0.0050027861  -0.19557798 0.0028000814   0.20106483   0.32776293    2.1991076 
  606000    6.2177767    1.2835147     4.934262  -0.22963801   0.85570084    1.0080143   0.74997115   -1.2345679            1    1.5375372    2.1273789    2.1165745   0.36865817 -0.0088971038 0.0086851351 -0.0071977436    1.3917684    1.4014821   0.79075266        0.075    1.3068893          1.8   0.31630106    5.6907807    2.8058323    33.337595 -0.0018135615  -0.18264765  0.010552934   0.19715162    1.2326234    1.2652088 
  607000    6.2200021    1.2753924    4.9446097  -0.22591572   0.85028578   0.99498467   0.74984358   -1.2345679            1     1.534595    2.1172213    2.1101514   0.37641228 -0.00058366254 -0.0064002328 -0.0022004164    1.3888511    1.4002986   0.79179397        0.075    1.3114099          1.8   0.31671759    5.6832966    2.7979955    33.337595 0.0018364241  -0.18303107 0.0048627715   0.19995481   0.21675959   0.59167076 
  608000    6.2131256    1.2801029    4.9330226  -0.23161961   0.85342625    1.0018437   0.75040194   -1.2345679            1    1.5051649    2.1085717    2.0882658   0.31865723 -0.0018724197 -0.00020386556 -0.0033284449    1.3593125    1.3699427   0.78879446        0.075    1.3077267          1.8   0.31551778    5.7049082    2.7919145    33.337595 -0.0008420472   -0.2001124 -0.005318014   0.18991933   0.22942883   0.48645608 
  609000    6.2224044    1.2809969    4.9414075    -0.226193   0.85402223    1.0069023   0.74789892   -1.2345679            1     1.502149    2.0854481    2.0961041   0.32489493 -0.00025443331 -0.0010294898 -0.017145283    1.3567831     1.366244    0.7848737        0.075    1.3068151          1.8   0.31394948    5.7334065    2.7812325    33.337595 -0.0028012959  -0.18409504 0.0031642235   0.19016631 -0.028448058    1.3226551 
  610000    6.2072997    1.2676133    4.9396864  -0.22729259    0.8450996    0.9969667   0.73967933   -1.2345679            1    1.5172044    2.1065512    2.0951239   0.34993807 -0.0046818635  0.013765767 -0.0025482139     1.373436    1.3826404   0.78655134        0.075     1.307528          1.8   0.31462054    5.7211777    2.7647914    33.337595 -0.009877452  -0.19242868 0.0018348302    0.1831738   0.67358721  -0.21604956 
  611000    6.2206953    1.2753312    4.9453642  -0.23065952   0.85024499    1.0000485   0.74625797   -1.2345679            1    1.4846712    2.0862664    2.0816826   0.28606448 0.00027319862  0.054814105  0.015626689    1.3396241    1.3496912    0.7973105        0.075    1.3085596          1.8    0.3189242    5.6439743    2.8015804    33.337595 0.00088082936   -0.1889858 -0.0049272323   0.17998326  -0.36836013  -0.66500765 
  612000    6.2292978    1.2851023    4.9441955  -0.22268184   0.85675927   0.99984513   0.75743751   -1.2345679            1    1.5028028    2.1050461    2.0845217   0.31884078 0.0058218585   0.02195334 -0.018353049    1.3555829    1.3678504   0.79243027        0.075    1.3060734          1.8   0.31697211    5.6787331    2.7890859    33.337595 0.0057234318  -0.18004198 0.00029037196   0.18395695  -0.66725853   0.12909956 
  613000    6.2267998    1.2795084    4.9472914  -0.23040441   0.85302988    1.0034178   0.74863719   -1.2345679            1    1.5169497     2.092111    2.1088813    0.3498568 -0.0033567919 -0.037075992  0.017181674    1.3714403     1.381515   0.79292017        0.075    1.3060568          1.8   0.31716807    5.6752246     2.796135    33.337595 0.0052224335  -0.18020763 -0.0020809143   0.18672311   0.36567922    2.4495867 
  614000    6.2146922    1.2768972    4.9377949  -0.23252289   0.85128904   0.98964468   0.75525184   -1.2345679            1     1.482801    2.0810985    2.0584474   0.30885708 -0.0078366634  0.017824496 -0.0013231021    1.3360059    1.3492253   0.79235646        0.075    1.3018299          1.8   0.31694259    5.6792621    2.8043415    33.337595 -0.0027119246  -0.19049094 -0.0024017062   0.19442333  -0.03877339    1.2803771 
  615000    6.2240415     1.290528    4.9335134  -0.22790847   0.86037649    1.0087203   0.75740367   -1.2345679            1    1.5286715    2.1146883    2.1137724    0.3575538 0.0019028187  0.022324261 -0.0081644532    1.3814581    1.3925211   0.79168395        0.075    1.2981955          1.8   0.31667358    5.6840865    2.7960472    33.337595 -0.0045513344  -0.21608602 0.0036024578   0.19555105  -0.14797499   0.47186321 
  616000    6.2335206    1.2824124    4.9511082  -0.22865404   0.85496594    1.0141381    0.7444733   -1.2345679            1    1.4878795    2.0635338    2.0794443   0.32066055 -0.0018702104  0.046306143  0.017749321    1.3431794    1.3509979   0.78841677        0.075    1.2996393          1.8   0.31536671    5.7076412    2.7704031    33.337595 -0.00053883771  -0.20270528 -0.0053709219   0.19328629   0.50023795  0.067555799 
  617000    6.2197703    1.2783324    4.9414379  -0.22847711   0.85224589   0.99066739   0.75616299   -1.2345679            1    1.5575243    2.1455933    2.1359286   0.39105106  0.002450759  0.043154758  0.020313533    1.4105521    1.4238106   0.79017427        0.075    1.2991798          1.8   0.31606971    5.6949462    2.7714396    33.337595 -0.0059400245  -0.19266328 0.0068487563   0.19436108    0.6240801    1.8664216 
  618000     6.211229    1.2739854    4.9372436  -0.22744225   0.84934779   0.99796418   0.74618511   -1.2345679            1    1.5060079    2.1085256    2.0849525   0.32454552 -0.0055717295 -0.0055745461  0.018189302     1.360975    1.3713093   0.79304986        0.075    1.3029465          1.8   0.31721995    5.6742964    2.7836115    33.337595 -0.00050987143   -0.1950333  0.011472995   0.17769918  -0.43724312    1.7344249 
  619000    6.2176247    1.2693516    4.9482731  -0.22982541   0.84625847   0.99554371   0.74263118   -1.2345679            1    1.4386291    2.0348517    2.0345874   0.24644819 -0.0017094154   -0.1127037 0.0011090207     1.294287    1.3042572   0.79146921        0.075    1.2981154          1.8   0.31658769    5.6856286    2.8048166    33.337595 -0.0063018242  -0.17565481 -0.0022039152   0.19977721   0.43005428   -1.4021998 
  620000    6.2201378     1.273875    4.9462628  -0.22671754   0.84927415   0.99696089   0.74675705   -1.2345679            1    1.4980408    2.1085303    2.0741775   0.31141477 -0.0030428266 -0.033924312 -0.013691278    1.3528968    1.3634777   0.79687269        0.075    1.3017339          1.8   0.31874907    5.6470752    2.8002494    33.337595 0.0018916139  -0.21036397 -0.0064715739   0.20012429  -0.39552024   0.46840462 
  621000    6.2248111    1.2764124    4.9483987   -0.2301518   0.85096582   0.99150449   0.75341263   -1.2345679            1    1.5240642    2.1105503    2.1098018   0.35184054 0.0026351248  -0.01924534  0.018650937    1.3776266    1.3902375   0.79242462        0.075    1.2936247          1.8   0.31696985    5.6787736    2.7931877    33.337595 -0.00059489635  -0.19490158 0.0051138274   0.17093664   0.67025344    1.7994064 
  622000     6.235404    1.2948713    4.9405327  -0.23392868   0.86327208    1.0073223   0.76328098   -1.2345679            1    1.5115146    2.0985019    2.0863585   0.34968332 -0.0050754399  0.022400062  0.024547166    1.3631589    1.3755529   0.79230052        0.075    1.3015402          1.8   0.31692021    5.6796631    2.7844466    33.337595 -0.00098120095  -0.17625609 0.0070616367   0.19164325   0.12817336  -0.36515269 
  623000    6.2161641    1.2726269    4.9435372  -0.23003121   0.84844208    0.9939833   0.74741486   -1.2345679            1    1.4679298    2.0648046    2.0668209   0.27216392 0.0049124595  0.024591933  0.045352572    1.3226579    1.3337685   0.79513195        0.075    1.3034857          1.8   0.31805278     5.659438    2.8018988    33.337595 -0.0029261309   -0.1918841 -0.0036789811   0.20465541   -1.1024762  -0.28596077 
  624000    6.2119926    1.2826653    4.9293273  -0.23192142   0.85513456    1.0007449   0.75405968   -1.2345679            1    1.5650004    2.1410853    2.1357708   0.41814506 0.0016401773 -0.024729699  0.010453582     1.418437    1.4299265   0.79460391        0.075    1.3038002          1.8   0.31784156    5.6631989    2.7846196    33.337595 -0.0059841626   -0.1743368 0.0042778993   0.19974285  -0.35082608    1.3042561 
  625000    6.2085706    1.2734117    4.9351589  -0.23495075   0.84896532   0.99246678   0.74935459   -1.2345679            1    1.5025522    2.0830183    2.1030084   0.32163001 0.0021250305 -0.048184922  0.046727362    1.3569034    1.3685957   0.79444282        0.075    1.3028973          1.8   0.31777713    5.6643472    2.8010143    33.337595 0.00022043416    -0.203939  0.001362324   0.18542372    0.4057952    1.1950512 
  626000    6.2278834    1.2825816    4.9453017  -0.22815002   0.85507876    0.9999506   0.75451669   -1.2345679            1    1.5330114    2.1241833    2.1106758   0.36417516 -0.0024979053 -0.034758699 -0.007455468    1.3863592    1.3980447   0.79401401        0.075    1.3042295          1.8   0.31760561    5.6674063    2.7996064    33.337595 0.0066466517  -0.20250347 -0.001356601   0.20681456   0.52854698   0.24227702 
  627000    6.2238995    1.2789154    4.9449841  -0.23079428   0.85263453    1.0072738   0.74528957   -1.2345679            1    1.5266655    2.0957081     2.108617   0.37567141 -0.012917235   0.01901059 -0.00093600665    1.3818067    1.3907104   0.78876586        0.075    1.3020575          1.8   0.31550635     5.705115    2.8032687    33.337595 0.0023529251  -0.19693134 -0.0040291344   0.18907714  -0.37520667    1.0475482 
  628000    6.2142965    1.2739054    4.9403911  -0.22693259   0.84929443    1.0012007   0.74384718   -1.2345679            1    1.5333777    2.1318588    2.1206962   0.34757813 0.0064403707  0.082782413  0.013271561    1.3887993    1.3982423   0.79119419        0.075    1.2991267          1.8   0.31647768    5.6876049     2.784619    33.337595 0.0023575938  -0.18704226 0.0027109714   0.17851537   -1.2055857   0.58991772 
  629000    6.2316857    1.2876752    4.9440106  -0.22824915   0.85847454    1.0141822    0.7503879   -1.2345679            1    1.4908229    2.0753267    2.0941128   0.30302917 0.0035335645 0.0072213884 -0.019978119    1.3449732    1.3539353   0.79474071        0.075    1.3015598          1.8   0.31789629    5.6622241    2.7854542    33.337595 0.0079382003  -0.20024265 -0.001133149   0.19315627  -0.82920346   -1.3331022 
  630000    6.2112321    1.2783659    4.9328662  -0.23555422   0.85226821   0.99803738   0.75108287   -1.2345679            1    1.4852008    2.0638627    2.0942033   0.29753629 0.0032806424 -0.029172735 -0.0064261955     1.339216    1.3504923   0.79369504        0.075    1.2997392          1.8   0.31747802    5.6696839    2.8061311    33.337595 0.0013483038  -0.20256129 -0.0026275317   0.19378832  -0.20219496   0.82896323 
  631000    6.2030807    1.2684509    4.9346298  -0.23002059     0.845658   0.99186795   0.74416626   -1.2345679            1    1.4896478    2.0922399    2.0874924   0.28921118 -0.0045422584  -0.09279347 0.0040229076    1.3450074    1.3557721   0.79963821        0.075    1.2968633          1.8   0.31985528     5.627545    2.8103709    33.337595 -0.00042599829  -0.19152622 -0.0047228739   0.19600169 -0.069036428    1.0267077 
  632000    6.2131057    1.2798514    4.9332543  -0.22940723   0.85325853   0.98850119   0.75938315   -1.2345679            1    1.5368308    2.1163866    2.1177193   0.37638663 -0.0040006477 -0.069596789  0.028500508    1.3892328    1.4034095   0.79475222        0.075    1.2973297          1.8   0.31790089    5.6621421    2.7823898    33.337595 -0.0099072583  -0.19491442 0.0031303209   0.19109182    1.0304792    1.5221363 
  633000    6.2369568    1.2820325    4.9549243   -0.2322843   0.85471268   0.99964501   0.75410858   -1.2345679            1    1.4526704    2.0501435    2.0614724   0.24639515 -0.0013408373 -0.069193304 -0.027304608    1.3060975    1.3177449   0.79742967        0.075    1.2980244          1.8   0.31897187    5.6431309    2.7811358    33.337595 0.0002520581   -0.2050849 -0.0013116622   0.20391601    0.9759884  -0.87066789 
  634000    6.2293136    1.2810858    4.9482279  -0.22951549   0.85408148    1.0006322   0.75235354   -1.2345679            1    1.5211821    2.0982182    2.1170683   0.34825969 0.0032388825 -0.0027285141 -0.010418887    1.3749503    1.3861234   0.79817894        0.075    1.2996706          1.8   0.31927158    5.6378335    2.7759603    33.337595 0.0032916799  -0.19365776 -0.0017519397   0.22042792  -0.69977843    1.3937449 
  635000    6.2039111    1.2712271     4.932684  -0.23577158   0.84750888   0.99388828   0.74589955   -1.2345679            1     1.569325    2.1205768    2.1522318   0.43516632 0.0025682273  0.067681976 -0.010586458    1.4243476    1.4351765   0.79608212        0.075    1.3048396          1.8   0.31843285    5.6526832    2.7627878    33.337595 0.00027646813  -0.19033097 0.0036572174   0.19888384   -1.3811217    1.7167749 
  636000    6.2346891    1.2860536    4.9486355  -0.22864992   0.85739344    1.0000069   0.75839977   -1.2345679            1    1.4396045    2.0481141    2.0295768    0.2411225 0.00043928789  0.071316685 -0.031315115    1.2921975    1.3046302    0.7980717        0.075    1.2980517          1.8   0.31922868    5.6385911    2.7899894    33.337595 -0.00073139483  -0.19343568 -0.00094051593   0.20200793   -1.2740182  -0.73144171 
  637000    6.2201232    1.2804029    4.9397204  -0.23210694    0.8536262    1.0044101   0.74895857   -1.2345679            1    1.4679957    2.0683995    2.0573953   0.27819236 0.0056272522  0.055922812 0.0096406616    1.3224238    1.3324271   0.79570944        0.075    1.2945306          1.8   0.31828378    5.6553307    2.7944858    33.337595 0.0011603498  -0.18929466 -0.0032125731   0.20699358  -0.76643337   0.43683691 
  638000    6.2184975    1.2769437    4.9415539  -0.23292897   0.85132001   0.99995758   0.74814272   -1.2345679            1    1.4986996    2.0792053    2.0909404   0.32595314 -0.0005976407  0.015571493  0.015923705    1.3532863     1.363732   0.79673627        0.075    1.2961834          1.8   0.31869451    5.6480421    2.7865712    33.337595 -0.0062558899  -0.19024264 -0.002885832   0.18913342   0.21397342  -0.59504512 
  639000    6.2154286    1.2723481    4.9430805  -0.22568485   0.84825618   0.99210281   0.74840571   -1.2345679            1    1.5644361    2.1217889    2.1554926   0.41602675 -0.0023589059 -0.029345419  0.038709834    1.4189716    1.4305286    0.7949686        0.075    1.2970418          1.8   0.31798744    5.6606009    2.7920233    33.337595 0.00028135416   -0.1934398 0.0098734805   0.19885013  0.018873716    1.6055972 
  640000     6.220564    1.2815786    4.9389854  -0.23133438   0.85441003    1.0029068   0.75133063   -1.2345679            1    1.5472872     2.124679    2.1337358   0.38344694  0.002405497 0.0045645042 -0.00045946044    1.4012543    1.4119215   0.79552263        0.075      1.29986          1.8   0.31820905    5.6566587    2.7989095    33.337595 -0.0037777621  -0.17834954 0.0024313026   0.18328006   0.17368599    1.0371774 
  641000    6.2279838    1.2851223    4.9428615  -0.23219961   0.85677257    1.0075651   0.75209909   -1.2345679            1     1.459374    2.0609358    2.0586121   0.25857423 -0.014733753  0.025584615  0.032138121    1.3131917    1.3233796   0.79378966        0.075    1.2988794          1.8   0.31751586    5.6690081    2.7911836    33.337595 -0.0033272926  -0.20120909 -0.0049373549   0.19732775    1.1842418   0.53295076 
  642000    6.2107364     1.276083    4.9346534  -0.22667568   0.85074622   0.99713116   0.74913319   -1.2345679            1    1.4521182    2.0426865    2.0778074   0.23586063 0.0019340865 0.0095243566  0.019940876    1.3065123     1.317532   0.78980738        0.075     1.300422          1.8   0.31592295    5.6975917    2.7744395    33.337595 -0.00016124287  -0.20090002 0.0035140229   0.20420544  -0.35319604  -0.70573652 
  643000    6.2098074      1.27884    4.9309673  -0.22858399   0.85258429   0.98716951   0.75916543   -1.2345679            1    1.5319967    2.1226326    2.1173586   0.35599893 0.0086427295 -0.007108325 -0.037673919    1.3844409    1.3987551   0.79408128        0.075    1.3038568          1.8   0.31763251    5.6669262    2.8021787    33.337595 0.0043809407  -0.19081542 0.00056564825   0.19224285  -0.15933186    0.7043151 
  644000    6.2274121    1.2805658    4.9468462  -0.22510262   0.85373484   0.99791378   0.75365388   -1.2345679            1    1.5062432    2.0926321     2.099439    0.3266584 -0.0065442965 -0.012285572 0.0032100578    1.3597586    1.3715514   0.79044667        0.075     1.306057          1.8   0.31617867    5.6929837    2.7795236    33.337595  0.000243839  -0.19639676 0.0056602529   0.17640721   0.25433637    1.9216087 
  645000    6.2223235    1.2754532    4.9468703  -0.23508623   0.85032633   0.98928319   0.75387157   -1.2345679            1     1.505735    2.0859451      2.10587   0.32538977   0.00605557 0.0012448894 -0.022819242    1.3592081    1.3722081   0.79680513        0.075     1.306028          1.8   0.31872205     5.647554    2.8202543    33.337595 -0.0028923768  -0.18875144 -0.0039754865   0.19836534  -0.23422725   0.77499976 
  646000     6.232826    1.2891939    4.9436321  -0.22625545   0.85948708   0.99931548   0.76242754   -1.2345679            1    1.5313928    2.1263268    2.1022957   0.36555593 -0.00092117662  0.038307196  0.010300236     1.383203    1.3965118    0.7931129        0.075    1.3071518          1.8   0.31724516    5.6738455     2.777316    33.337595 0.0025613309  -0.19911923 0.0053731702   0.21503587   0.56210577   0.35880982 
  647000    6.2072496    1.2765204    4.9307292  -0.23543907   0.85103781   0.99755644   0.74933197   -1.2345679            1    1.4626601    2.0714838    2.0662821   0.25021452 -0.0023275878  0.075085902  0.022706624    1.3170157    1.3280166   0.78687914        0.075    1.3027802          1.8   0.31475166    5.7187944    2.7694448    33.337595 0.0059942016  -0.18988929 0.0029099543   0.18282849  -0.73311065    1.3096946 
  648000     6.219788    1.2778233    4.9419647  -0.22692072   0.85190644    1.0009661    0.7484361   -1.2345679            1    1.5031229    2.0988886    2.0925603   0.31791984 -0.0035535954   0.02535918  0.010289067    1.3576525    1.3680191   0.78629625        0.075    1.3091182          1.8    0.3145185    5.7230337    2.7883221    33.337595 0.00018617375  -0.18527265 -0.0016385139   0.20935669  -0.92781866   0.62164968 
  649000    6.2069965    1.2708369    4.9361596  -0.22664448   0.84724868   0.99105766   0.74742431   -1.2345679            1    1.4821806     2.080177    2.0749401   0.29142463 0.0025468995 -0.028120617 -0.0041168025    1.3369069    1.3484142   0.79537283        0.075    1.3053116          1.8   0.31814913    5.6577241    2.8198053    33.337595 0.0032053667  -0.20141538 0.0068062748   0.17829066   0.08184408  -0.17306741 
  650000    6.2213787    1.2866687      4.93471  -0.22770299   0.85780355    1.0012456   0.75823446   -1.2345679            1    1.5554314    2.1199958    2.1478735   0.39842482 0.0084211042 -0.018999865 -0.030871853    1.4080565    1.4202899   0.79699547        0.075    1.3047104          1.8   0.31879819    5.6462052    2.8054224    33.337595 -0.00032796704  -0.18034467 0.0074112605   0.21178371   0.11781851    1.8492094 
  651000    6.2190323      1.26932    4.9497122  -0.22717946   0.84623744   0.99762349   0.74115128   -1.2345679            1    1.5495856    2.1187154    2.1204722   0.40956928 0.0058474748 -0.001941626 0.0032262856    1.4055312     1.414933   0.79041326        0.075    1.3024116          1.8    0.3161653    5.6932243    2.7880491    33.337595 -0.00099132435  -0.18401583 -0.0036288159   0.20380666 -0.034984813    1.4144919 
  652000     6.213679    1.2804499    4.9332291  -0.23228845   0.85365755   0.99577917   0.75500524   -1.2345679            1    1.5111607    2.0974553    2.0897304   0.34629648 -0.0039626053 -0.084775092 -0.0005480892    1.3644136    1.3767571   0.79037568        0.075    1.3087989          1.8   0.31615027     5.693495    2.7758275    33.337595 -0.0026549441  -0.20286063 -0.0017484867   0.18690119    1.8676212   0.30282742 
  653000    6.1982009    1.2702604    4.9279405  -0.23169656   0.84686434   0.99105297   0.74677631   -1.2345679            1     1.533845     2.109829    2.1089279   0.38277813 -0.0016052182  -0.09575046  0.018535602    1.3886973    1.4000793   0.79552437        0.075    1.3098078          1.8   0.31820975    5.6566463    2.7786638    33.337595 -0.0043292427  -0.18378089 -0.0039935043   0.18043933    1.2587933    1.6782636 
  654000    6.2079314    1.2669879    4.9409436  -0.22906946   0.84468263   0.99176072   0.74258797   -1.2345679            1    1.4929825    2.0801863    2.0909084   0.30785289 -0.0070804278 0.0083123621 -0.031520262    1.3486488    1.3591212   0.79613055        0.075    1.3098898          1.8   0.31845222    5.6523393    2.8163145    33.337595 -0.00030328697   -0.1993254 0.0001252292   0.20351625 -0.052829094    2.0140739 
  655000    6.2290156    1.2822209    4.9467947   -0.2286228   0.85483824    1.0050987   0.75053413   -1.2345679            1    1.4453816    2.0413378    2.0457577   0.24904918 -0.012073661  0.075578742 -0.0085270032    1.2995034      1.30972   0.78831734        0.075    1.3075168          1.8   0.31532694     5.708361    2.7804023    33.337595  0.005998399  -0.19175138  0.002927229   0.19374245  -0.43826221   0.57035685 
  656000    6.2336834    1.2864428    4.9472406  -0.22836281   0.85765293    1.0086861   0.75281235   -1.2345679            1    1.5424791    2.1210718    2.1106273   0.39573822  0.011614208   0.01780684 -0.019964012    1.3961582    1.4063334   0.78636288        0.075    1.3099975          1.8   0.31454515    5.7225489    2.7938694    33.337595 -0.0055457396  -0.19493032 -0.00059914618   0.21891661   -0.8354859   0.49652182 
  657000    6.2097782    1.2704584    4.9393198  -0.23286613   0.84699635   0.98435631   0.75165036   -1.2345679            1    1.5155159    2.1118152    2.0836063   0.35112615  0.011645213  0.028077182  0.017305529    1.3694208     1.382654   0.78660702        0.075    1.3132876          1.8   0.31464281    5.7207727    2.7867084    33.337595 0.0052944238  -0.19959521 -0.0063606956   0.20841872  -0.47450024  -0.38740429 
  658000     6.221289    1.2825155    4.9387735  -0.22859491   0.85503467    0.9966995   0.75669964   -1.2345679            1    1.4999504    2.0937688    2.1028632   0.30321921 -0.0082628988  0.069893249 -0.0071795901    1.3528739    1.3654225   0.78748217        0.075    1.3080116          1.8   0.31499287    5.7144151    2.7781263    33.337595 0.0072389093  -0.18978978 -0.0048205662   0.19279251 -0.070332393   0.86476751 
  659000    6.2337443     1.285007    4.9487374  -0.23178811   0.85669569    1.0080868    0.7516065   -1.2345679            1     1.530779    2.1050469    2.1084092   0.37888105 0.0046196263  0.026775044 -0.0086422808    1.3846925    1.3947142   0.78348402        0.075    1.3071405          1.8   0.31339361     5.743576    2.7836673    33.337595 0.00096583574  -0.18710379 0.0061120025   0.20149111  -0.27938006     1.280219 
  660000    6.2204273    1.2820713    4.9383559  -0.23160567   0.85473854    1.0000388   0.75387893   -1.2345679            1    1.4702972     2.069207    2.0603823   0.28130233 0.00041601624 -0.050638864 0.0077011068     1.323769    1.3353186   0.79266426        0.075    1.3069046          1.8    0.3170657    5.6770568    2.8269794    33.337595 0.0084425756  -0.19299407 0.0016990789   0.18911928    0.5632169   0.77235683 
  661000    6.2191863     1.273417    4.9457694  -0.22712603    0.8489688   0.99683059   0.74633012   -1.2345679            1    1.5031955    2.0899395    2.0884594   0.33118752   -0.0065721 -0.007460177 0.0096629611    1.3581344    1.3686499    0.7899846        0.075    1.3143068          1.8   0.31599384    5.6963136    2.7976254    33.337595 -5.9006908e-05  -0.18312621 -0.0023405974   0.20070264  -0.13821736   0.10287757 
  662000    6.2069087    1.2692548    4.9376539  -0.23560508   0.84619395   0.99618503   0.74207649   -1.2345679            1    1.5026854    2.0770596    2.0826456   0.34835099 0.0035449095 -0.029793752 -0.00018422205    1.3584511     1.368227   0.79121031        0.075    1.3116802          1.8   0.31648412    5.6874891     2.786548    33.337595 -0.0033431983  -0.19690185 0.0047521739   0.19340992   0.92568856   0.67883412 
  663000    6.2238829    1.2782577    4.9456252  -0.23386521   0.85219602    1.0030598   0.74747284   -1.2345679            1    1.5031137    2.0802178    2.0918083    0.3373149 -0.0018231484 0.0025560013 -0.0050722126    1.3578305    1.3677273   0.78858236        0.075    1.3098858          1.8   0.31543295    5.7064426    2.7697856    33.337595 0.0013175895  -0.17130566 0.0024659923   0.20015536   0.29336892   0.70331082 
  664000    6.2197546    1.2849638    4.9347908  -0.23260335   0.85666692    1.0058739    0.7530945   -1.2345679            1    1.5024508    2.0863122    2.1004226   0.32061762 -0.0053859024  0.039227417 -0.011989626     1.356075    1.3666846   0.79083736        0.075     1.313623          1.8   0.31633494    5.6901712    2.7760893    33.337595 0.0067618147  -0.19538713 0.0062467891   0.19864469   0.17387985    1.4820079 
  665000     6.213366    1.2702374    4.9431286  -0.22789596   0.84684905   0.99451659   0.74434517   -1.2345679            1     1.446351     2.037692    2.0485696   0.25279137 -0.0015152639  0.010808903   0.01447674    1.3016758    1.3121177   0.79920727        0.075    1.3142816          1.8   0.31968291    5.6305794    2.8084316    33.337595 -0.0079656178  -0.20237509   -0.0072476   0.19864985  -0.95611078    1.7141972 
  666000    6.2187426    1.2812158    4.9375268  -0.23392906    0.8541682    1.0064048    0.7484918   -1.2345679            1    1.4440392    2.0505717    2.0428254    0.2387206  0.002251717 -0.028839802 -0.0016902704     1.298558    1.3082014   0.79801569        0.075    1.3171959          1.8   0.31920627    5.6389869    2.8106079    33.337595 -0.0037191976  -0.18894872 0.0069757505   0.20360942   0.15212639 -0.0054197648 
  667000    6.2248051    1.2855637    4.9392413  -0.23202796   0.85706689     1.003315   0.75554917   -1.2345679            1    1.5377594    2.1233686    2.1022716    0.3876381 0.0057952381 -0.010238687 0.0026332124    1.3909065    1.4023386   0.79298107        0.075    1.3150074          1.8   0.31719243    5.6747887    2.8049979    33.337595 -0.0071638999  -0.19588296 -0.0079345224   0.21133639   0.40582488    1.8470688 
  668000    6.2129767    1.2803112    4.9326655  -0.23496776    0.8535651   0.99234049   0.75723651   -1.2345679            1    1.5278817    2.1190861    2.1090416   0.35551757 0.0048269525  0.011582999  0.006521984    1.3807009    1.3939422   0.78594579        0.075    1.3177742          1.8   0.31437832    5.7255857    2.7774454    33.337595 -0.0004335339  -0.20217043 0.0011149118   0.19160097  0.039757886    1.3788137 
  669000    6.2108485    1.2712507    4.9395978  -0.23073479    0.8475246   0.99134103   0.74769508   -1.2345679            1    1.4485581    2.0423813    2.0492623   0.25403077 -0.0023851407 0.0051301521 -0.0096127465    1.3032318    1.3147535   0.78327844        0.075    1.3170403          1.8   0.31331138    5.7450834    2.7744011    33.337595 -0.0060687963  -0.19748728 0.0034124855   0.18654227  -0.17459054  -0.10670307 
  670000    6.2232841    1.2765528    4.9467313  -0.22390587   0.85105939    1.0022826   0.74608659   -1.2345679            1    1.5189184    2.1039436    2.0990145   0.35379699 -0.0010913362 -0.027989069 -0.028243473    1.3739047    1.3836369   0.78873281        0.075    1.3237896          1.8   0.31549312    5.7053541    2.7865251    33.337595 0.0018087206  -0.19167745 0.0078467733   0.17613927  -0.28062176    2.4835431 
  671000    6.2229333    1.2816958    4.9412375  -0.22936809   0.85448821   0.99783166   0.75498747   -1.2345679            1    1.5541948    2.1358872    2.1322538   0.39444339 -0.0063675453 -0.0054979605 -0.020005325    1.4074511    1.4195141   0.79091302        0.075    1.3234977          1.8   0.31636521    5.6896269    2.8032607    33.337595 0.0051738056  -0.18567005 -0.00047351947   0.20157438  -0.75182772   0.47416712 
  672000    6.2001465    1.2707563    4.9293902  -0.23305196   0.84719497   0.98520907   0.75139473   -1.2345679            1    1.5036892    2.1015905    2.0861035   0.32337342 -0.00098326889 -0.0085355109  0.017510933    1.3576437    1.3707122    0.7899589        0.075    1.3212903          1.8   0.31598356    5.6964989    2.7817828    33.337595 0.00079659874  -0.18566427 -0.0033268739   0.18520654  -0.96386224    1.3612277 
  673000    6.2268478    1.2827991    4.9440487  -0.23270633   0.85522375    1.0010496   0.75399923   -1.2345679            1    1.4593881     2.054556    2.0589894   0.26461904 -0.00086400159 -0.039663059 -0.017293835    1.3128365    1.3242731   0.78938551        0.075    1.3195772          1.8    0.3157542    5.7006367    2.7757994    33.337595 -0.0041264204  -0.19167219 0.00073327234   0.18586625  -0.13219344  0.093402305 
  674000    6.2204257    1.2812693    4.9391565   -0.2306951   0.85420382    1.0021195   0.75152799   -1.2345679            1    1.5437815    2.1065886    2.1292874   0.39546831 0.00040466841 -0.035000565  0.015971248    1.3977101     1.408522   0.79204882        0.075    1.3196598          1.8   0.31681953     5.681468    2.7979732    33.337595 0.0081629457  -0.19602612 0.00013401033   0.20476521   0.71111182   0.27161412 
  675000    6.2315051    1.2807629    4.9507422  -0.22858522   0.85386622   0.99501096   0.75589229   -1.2345679            1    1.5216023    2.1171031    2.0970952    0.3506087 -0.0024792359 -0.025827873 0.0050998328    1.3746827    1.3873023   0.79386465        0.075    1.3198377          1.8   0.31754586    5.6684725    2.8027004    33.337595 0.0018146128  -0.22086141 0.0026930796    0.1822798  0.041295728    0.5392635 
  676000    6.2432727    1.2936855    4.9495872  -0.23136928   0.86248153    1.0024075   0.76535436   -1.2345679            1    1.5364085    2.1292876    2.0983044   0.38163353 -0.0032915407  0.023625623 -0.021142476    1.3876498    1.4011102   0.78788318        0.075    1.3162506          1.8   0.31515327    5.7115066    2.7798085    33.337595 0.00053225017  -0.17254762 0.0053332309   0.18750211  -0.94317356   0.70737712 
  677000    6.2130214    1.2742493    4.9387721  -0.23127974   0.84952371    1.0059002   0.74097221   -1.2345679            1     1.512736    2.0911382    2.1101879   0.33688194 -0.0019696357 0.00013607366 -0.029970599    1.3687164    1.3769663   0.79953711        0.075    1.3199199          1.8   0.31981484    5.6282566     2.814769    33.337595 -0.0068337971  -0.19836031 0.0013718837   0.20813423   -0.3658994    2.1826924 
  678000    6.2067668    1.2762752    4.9304915  -0.23348437   0.85087436   0.99416504   0.75141009   -1.2345679            1     1.474397    2.0727394    2.0748044   0.27564717 -0.0014025387 -0.038530141  0.007324828    1.3283486    1.3402112   0.79758109        0.075    1.3255781          1.8   0.31903244    5.6420595    2.8005239    33.337595 0.0013894056   -0.1929575  0.002479636   0.20805169  0.064216575  -0.22906812 
  679000     6.211648    1.2701419    4.9415061  -0.23260184   0.84678537    1.0003868   0.74016082   -1.2345679            1    1.4753782    2.0613347    2.0718198   0.29298011 -0.0030864736 -0.016116921 -0.007355138    1.3315163    1.3403526   0.79166083        0.075     1.318461          1.8   0.31666433    5.6842524    2.7674853    33.337595 -0.0078941326  -0.19273768 -0.0029738934   0.19375655   0.70102174   0.59008112 
  680000    6.2070626    1.2749806     4.932082  -0.23209003   0.85001123    1.0000961   0.74582881   -1.2345679            1     1.538231     2.108709    2.1173528   0.38863119 0.0028099532 -0.045161192  -0.01689903    1.3932674    1.4032446   0.79076952        0.075    1.3142508          1.8   0.31630781    5.6906594    2.7666277    33.337595 0.0016992303  -0.18861868 0.0015318227   0.20505831    0.3405031    1.0860686 
  681000    6.2323912    1.2837464    4.9486447  -0.23047489   0.85585532   0.99878694   0.75664064   -1.2345679            1    1.4978353    2.0951373    2.0767853   0.32158337 0.0019844277  0.011442886 -0.0045655767    1.3507703    1.3630257   0.80333124        0.075    1.3133897          1.8    0.3213325    5.6016744    2.8179661    33.337595 -0.0057589726  -0.17204996 -0.0006353151   0.20567258  -0.30845786     1.126846 
  682000    6.2382809    1.2823095    4.9559714  -0.23008879   0.85489735    1.0066368   0.74956617   -1.2345679            1    1.5447776    2.1271423    2.1015947   0.40559587  0.010405563  0.050416793 -0.035020953    1.3990876    1.4089085   0.79767547        0.075    1.3159496          1.8   0.31907019     5.641392    2.7903427    33.337595 0.0073914693  -0.19608606 0.0013658494   0.20071334   0.21073537    1.1386702 
  683000    6.2409931    1.2934634    4.9475297  -0.23163766   0.86233348    1.0101694   0.75971344   -1.2345679            1    1.5602795    2.1339396    2.1443581   0.40254068 -0.00097110991  0.026026461  0.024185071    1.4126172    1.4239335   0.79392913        0.075    1.3167157          1.8   0.31757165    5.6680122    2.8057904    33.337595 -0.0012474784  -0.18788348 0.0090343678   0.20736171   0.29663513    1.7645382 
  684000    6.2241818    1.2762945    4.9478874   -0.2316318   0.85088719   0.98974863   0.75449871   -1.2345679            1    1.4027685    2.0051765    2.0248548   0.17827424 0.00072714596 -0.014495372 -0.015650042    1.2561198    1.2691788    0.7905788        0.075    1.3164638          1.8   0.31623152    5.6920322    2.7735496    33.337595 -0.0067105833  -0.19925726 0.0081675258   0.19388747 -0.028682491   -1.3081385 
  685000    6.2295603    1.2852134    4.9443469  -0.23177824   0.85683333    1.0101164   0.75043035   -1.2345679            1     1.482786    2.0642068    2.0786082    0.3055429 -0.0026430414 -0.010605167  0.024157642     1.336928    1.3464471   0.79187519        0.075    1.3173397          1.8   0.31675008    5.6827137    2.7903683    33.337595 -0.0039588544  -0.20559004 0.0044862908   0.18492208   0.81685946    1.3001753 
  686000    6.2083882    1.2763753     4.932013   -0.2316995   0.85094108    1.0101195   0.74044392   -1.2345679            1    1.6044441    2.1585904    2.1745418    0.4802002  0.012643752 -0.028050839 0.0055588557    1.4605272    1.4681049   0.79869501        0.075    1.3193457          1.8   0.31947801    5.6341907    2.8153463    33.337595 0.0027035125  -0.19808807 0.00023633446   0.20352864  -0.44577277    2.0770363 
  687000    6.2191246    1.2789234    4.9402012  -0.23056312   0.85263989    1.0123943   0.74174279   -1.2345679            1    1.5011432    2.0915045    2.0891694   0.32275563 0.0075350631  0.031726571 -0.0076392031    1.3569738    1.3644969   0.79377368        0.075    1.3177112          1.8   0.31750947    5.6691222    2.7581212    33.337595 0.0020586389  -0.20681889 -0.0061803727     0.179939   0.18031075   0.89568816 
  688000    6.2162635    1.2724066    4.9438568  -0.23241465   0.84829523     0.987485   0.75167863   -1.2345679            1    1.4627333    2.0679942    2.0674456   0.25276013 -0.0046096176  0.019128334  0.027473347    1.3166327    1.3294491   0.79928476        0.075     1.316747          1.8    0.3197139    5.6300335    2.8127298    33.337595 0.0085952519  -0.19078502 0.0003976678   0.20768334   0.74799977 -0.047198838 
  689000    6.2131749    1.2759719     4.937203  -0.22794823   0.85067214   0.99653397   0.74942238   -1.2345679            1     1.537239    2.1266348    2.1045613   0.38052084 0.0050718094 -0.0076098871  0.018148607    1.3915769    1.4027335   0.80082052        0.075     1.314584          1.8   0.32032821    5.6192366    2.8257638    33.337595 -0.0097033215  -0.19657405 0.0074343875   0.19977029   0.98260501    1.0999187 
  690000    6.2133631    1.2736893    4.9396738  -0.23213055   0.84915038   0.99489337   0.74798307   -1.2345679            1    1.5092918    2.0858761    2.1123033   0.32969604 0.0052097015 -0.025878171  0.024157114    1.3639095    1.3750077   0.79613093        0.075    1.3100372          1.8   0.31845237    5.6523366    2.8081527    33.337595 -0.0017638446  -0.20136195 -0.0022228513   0.20141482  -0.37632278   0.95187135 
  691000    6.2329325    1.2899479    4.9429846  -0.22725822   0.85998977    1.0091395   0.75645721   -1.2345679            1    1.5479047     2.116458    2.1212725   0.40598348 -0.0025038663 -0.0085839354  -0.02553054    1.4008753    1.4116977   0.79640236        0.075     1.307634          1.8   0.31856094    5.6504102     2.793109    33.337595 0.00026955887  -0.19655652 -0.0068013364    0.2089477    1.1895904    1.4989998 
  692000    6.2246713    1.2889014    4.9357699  -0.23447463   0.85929206   0.99957984   0.76191351   -1.2345679            1    1.5198434    2.1121202    2.0886594    0.3587506 -0.0081780425  0.016433453 -0.0082335642    1.3717535    1.3849267   0.78868728        0.075    1.3108432          1.8   0.31547491    5.7056835    2.7761916    33.337595 -0.0022566816  -0.19630999 0.00058012592   0.19048557   0.34160795    0.5874477 
  693000    6.2296685    1.2790297    4.9506388  -0.23112583   0.85271074   0.99989391   0.75054349   -1.2345679            1    1.4510255    2.0544094    2.0459592   0.25270802 -0.013410992   0.01673401 -0.0013735288    1.3051455    1.3160665   0.80120164        0.075    1.3113897          1.8   0.32048065    5.6165637    2.8254368    33.337595 0.0019370259  -0.18948027 -0.0072103972    0.2117502  -0.80056245  -0.47367243 
  694000    6.2346442    1.2800505    4.9545936  -0.22713477   0.85339132    1.0029917   0.74954552   -1.2345679            1    1.5073999    2.0810074     2.090951   0.35024119 0.0022610526 -0.032091701 -0.00018194418    1.3617139    1.3720227   0.79791332        0.075    1.3077893          1.8   0.31916533    5.6397103    2.8211697    33.337595 -0.0030123948  -0.19220362 -0.0011427547   0.19679787   0.72535661 -0.073376761 
  695000    6.2114188     1.274981    4.9364377  -0.23402204   0.85001156   0.99191017   0.75151394   -1.2345679            1    1.5443124    2.1106595    2.1314769   0.39080073 0.0033245691 -0.0013893152  0.016746638    1.3982438    1.4104309   0.79703176        0.075    1.3072994          1.8   0.31881271    5.6459481     2.825077    33.337595 -0.0082369479  -0.20389633 -0.0018811023   0.19428602   0.58021266    1.3696846 
  696000    6.2298891    1.2845839    4.9453052   -0.2279966   0.85641362    1.0057341   0.75276237   -1.2345679            1    1.5164772    2.1009623    2.0945317   0.35393763 0.0041487458 -0.025015243 -0.041056904     1.370166    1.3807299   0.79430189        0.075    1.3179751          1.8   0.31772076    5.6653522    2.8214257    33.337595 0.0038584851  -0.18659611 -0.0048182513    0.1898456  -0.36857172    1.9088159 
  697000    6.2191922    1.2730452     4.946147  -0.22751006   0.84872096   0.99667956   0.74601503   -1.2345679            1    1.5000154    2.0903854    2.0788732   0.33078753 0.0013859028 -0.021597183 -0.014836112    1.3550156    1.3654902   0.79027221        0.075    1.3156521          1.8   0.31610889    5.6942404    2.7920939    33.337595 -0.0020926045   -0.2049649  0.008013343   0.19432624   0.25688658    2.0118259 
  698000     6.222512    1.2747932    4.9477188  -0.22698748   0.84988631    1.0006738     0.745216   -1.2345679            1    1.4633595    2.0689643    2.0632435   0.25787071 0.0045322947  0.046171571 -0.017490421     1.318515    1.3282952   0.78861351        0.075    1.3143254          1.8    0.3154454    5.7062172    2.7770983    33.337595 0.00095163324  -0.20592297 -0.0044059357   0.19211964  -0.55814847   0.22370119 
  699000    6.2271434    1.2779776    4.9491658  -0.22797412   0.85200934   0.99436368   0.75319535   -1.2345679            1    1.5026038    2.0886605    2.0940834   0.32506738 0.00099518462  0.062948829 -0.0023232049    1.3562084    1.3683912     0.792593        0.075    1.3156297          1.8    0.3170372    5.6775672    2.7819572    33.337595 -0.0074398935  -0.20376445 0.00090704183   0.19625003   -1.2903425    1.3863006 
  700000    6.2125153     1.278166    4.9343493  -0.23259758   0.85213495   0.99462788   0.75322471   -1.2345679            1    1.5261514    2.1089688    2.1039181   0.36556734 0.0029872737  0.014130871 0.0080467807    1.3797503    1.3919031   0.78638497        0.075    1.3160742          1.8   0.31455399    5.7223881    2.7787874    33.337595 0.0054946249  -0.19879775 -0.0040249336    0.1829392  -0.12093294   0.79068082 
  701000    6.2185013    1.2797446    4.9387566  -0.22997325   0.85318737    1.0013002   0.75037455   -1.2345679            1     1.515128    2.1013561    2.1125075   0.33152042 0.0020359103  0.022469234  0.019022612    1.3692809    1.3799792   0.79164418        0.075    1.3206412          1.8   0.31665767     5.684372    2.8014287    33.337595 0.0021167535  -0.19018284 -0.0023540943     0.187631   -1.1772145    1.8746497 
  702000    6.2087443    1.2749058    4.9338385  -0.23322388   0.84996141    1.0009065   0.74518166   -1.2345679            1    1.4343617    2.0418839    2.0495878   0.21161345 0.0055433132  0.012073038 -0.013188941    1.2895239     1.299266   0.79353951        0.075    1.3197876          1.8   0.31741581    5.6707951    2.7983024    33.337595 0.0070461336  -0.19701676 0.0035370167   0.19926132   0.76166801   0.94987925 
  703000    6.2084699    1.2829959     4.925474  -0.23093836   0.85535494    1.0012778   0.75406299   -1.2345679            1    1.5021921    2.0832987    2.0976637   0.32561383 -0.0052363777 -0.059175974 0.00063646469     1.355628    1.3670462   0.79498057        0.075      1.31924          1.8   0.31799223    5.6605157    2.7837004    33.337595 0.00010513099  -0.19485756 -0.0016287283   0.20851908   0.70175358    1.1960005 
  704000    6.2135486    1.2852215    4.9283271  -0.23362641    0.8568387    1.0064634   0.75297622   -1.2345679            1    1.5462341    2.1237679    2.1331618   0.38177247 0.0019162871 -0.050157845 0.0097616107    1.3998813    1.4103883   0.79556822        0.075    1.3155243          1.8   0.31822729    5.6563346      2.76617    33.337595 -0.0022811755  -0.18231981 -0.0036392917    0.1940311  -0.73370228    1.3169897 
  705000    6.2293727    1.2851881    4.9441847  -0.23404746   0.85681643   0.99348301   0.76195241   -1.2345679            1    1.5400107    2.1246757    2.1086681   0.38668818 0.0026983048 -0.045819677 0.0015855496    1.3919132    1.4059169   0.78848415        0.075     1.316232          1.8   0.31539366    5.7071534    2.7675233    33.337595 -0.0082612048   -0.1920687 -0.00059508388   0.19592976    1.4844797    2.1661483 
  706000    6.2237434     1.278261    4.9454824  -0.23043617   0.85219829   0.99668633    0.7519026   -1.2345679            1     1.473616    2.0758723    2.0565847   0.28839103 0.0079723474 -0.0013884646  0.028466121    1.3274719    1.3390899   0.78739912        0.075    1.3119323          1.8   0.31495965    5.7150178     2.760134    33.337595 -0.0036891425   -0.1882384  0.010158121   0.20489247   0.28469228    1.3982184 
  707000    6.2097715    1.2810254    4.9287461  -0.23089307   0.85404126   0.99081938   0.75909966   -1.2345679            1    1.5414214    2.1221242    2.1149739   0.38716628 0.0024977615 -0.016437406  0.017492007    1.3938784    1.4076872   0.78918953        0.075    1.3153328          1.8   0.31567581    5.7020523    2.7912914    33.337595 0.0015112302  -0.17648489 -0.0020495222   0.18148554   0.48033471     0.273345 
  708000    6.2109743    1.2707092    4.9402651  -0.22817238   0.84716358   0.99571962   0.74404272   -1.2345679            1    1.5326557    2.1148242    2.1070867   0.37605611 0.0090211276  0.012183299 0.0096147531    1.3880393    1.3982601   0.78869563        0.075    1.3213418          1.8   0.31547825    5.7056231     2.765389    33.337595 0.0072875391  -0.19386907 0.0060326561   0.18631765   -1.0779215  0.012693959 
  709000    6.2263315    1.2791011    4.9472304  -0.23020953   0.85275834    1.0029136   0.74852721   -1.2345679            1    1.5136121    2.0981826    2.1018763   0.34077737 -0.0072568762  0.056317869 -0.023982049     1.368124    1.3782455   0.79769165        0.075    1.3139559          1.8   0.31907666    5.6412776    2.8058655    33.337595 0.0074438683  -0.18787565 -0.0040179334   0.18219597   -1.3460202     1.145012 
  710000    6.2173551    1.2775283    4.9398267  -0.23068121   0.85170978    1.0068306   0.74403036   -1.2345679            1    1.5087791    2.1048386    2.0863538   0.33514501 -0.00089858981 -0.002400336  0.026103056    1.3641651    1.3728838   0.78927145        0.075    1.3141131          1.8   0.31570858    5.7014605    2.7548765    33.337595 -0.0022995733  -0.19220455 -0.0022609552   0.19008404  -0.22584289    1.1603381 
  711000    6.1999795    1.2685774    4.9314021  -0.23281077   0.84574236   0.98902461    0.7462837   -1.2345679            1    1.4755826    2.0643946    2.0859995   0.27635373 0.0072828552  0.013903588  0.016901374    1.3305306    1.3420906   0.79127863        0.075     1.315771          1.8   0.31651145     5.686998    2.7809468    33.337595 -0.00089881619  -0.19630726 -0.0024236256   0.19346877    0.0722813  -0.53958396 
  712000    6.2112755    1.2682458    4.9430297  -0.22925704   0.84552126   0.99787063   0.73976611   -1.2345679            1    1.5813926    2.1644503    2.1395494   0.44017812  0.006092625 -0.021520219  0.019384319    1.4376074    1.4467067   0.79209715        0.075    1.3176453          1.8   0.31683886    5.6811213    2.7782458    33.337595 0.0027292857  -0.18761216 -0.005375631   0.19260181   0.50716891   0.87161648 
  713000     6.213807    1.2769667    4.9368402  -0.23083554   0.85133539    1.0055605   0.74427797   -1.2345679            1    1.4777409    2.0782202    2.0703766   0.28462576 -0.0001461899  0.044185467 -0.010426365    1.3330787     1.342017    0.7905759        0.075    1.3208268          1.8   0.31623036    5.6920531    2.7992761    33.337595 -0.0062878297  -0.19254639 0.0055478429   0.20524865  -0.92190633   0.22606075 
  714000     6.224295    1.2762244    4.9480705  -0.22271501    0.8508405    0.9966426   0.74963223   -1.2345679            1    1.4937142    2.0951223    2.0881486    0.2978717 -0.009903138  0.012499151  0.013085411    1.3480114     1.359194   0.79340454        0.075    1.3197967          1.8   0.31736182    5.6717598    2.7690234    33.337595 -0.0037913307  -0.19911954 -0.0018898047   0.19999486  -0.42997569  0.053096713 
  715000    6.2211787    1.2792978    4.9418809  -0.22982004   0.85288947   0.99795225    0.7521947   -1.2345679            1    1.5586624    2.1294887     2.143435    0.4030636  0.001555613 -0.036387899 -0.020245958    1.4124615    1.4239654   0.79939958        0.075    1.3149856          1.8   0.31975983    5.6292248    2.7984943    33.337595 -0.0067149808  -0.19396165 -0.0054544687   0.20348117   0.59154393    1.5195696 
  716000    6.2149787    1.2790083    4.9359703  -0.22930881    0.8526965    1.0100217   0.74348634   -1.2345679            1    1.5181068    2.1145477     2.108634   0.33113873 -0.0055245484 -0.0015995522  0.015741337    1.3735985    1.3817808   0.80026882        0.075    1.3181466          1.8   0.32010753    5.6231105    2.8028754    33.337595 -0.011221519  -0.20200607 -0.0011397927   0.20089614  -0.56698376   0.94409865 
  717000    6.2266507    1.2746074    4.9520434  -0.23112418   0.84976242   0.98881619   0.75324034   -1.2345679            1    1.5249424    2.0997849    2.1081989   0.36684329 -0.0024541908  0.032330869 -0.0092879276    1.3785382    1.3914785   0.79912457        0.075    1.3218777          1.8   0.31964983    5.6311621    2.7946207    33.337595 0.0027603976  -0.20123139 -0.001558087   0.20894998   0.64858544  -0.01973233 
  718000    6.2137019    1.2758959     4.937806  -0.23714094   0.85062151   0.99887602   0.74771019   -1.2345679            1    1.4956038    2.0859454    2.0934087    0.3074573  0.004563858 -0.064105181 -0.034287642    1.3502745    1.3607821   0.79237672        0.075    1.3242038          1.8   0.31695069    5.6791169    2.7709561    33.337595 0.0042627062  -0.20238665 7.5031506e-05   0.20211567    1.0520831   0.43884126 
  719000    6.2429734    1.2901748    4.9527986  -0.23172463     0.860141    1.0046057   0.75986189   -1.2345679            1    1.5360857    2.1253088    2.1267245   0.35622374 0.0079584118  -0.12821446 -0.016054154    1.3883945    1.4004907   0.79957898        0.075    1.3181595          1.8   0.31983159    5.6279618    2.7976925    33.337595 0.0017464002   -0.1969374 -8.4456265e-05   0.19902906    1.1214059    1.7148282 
  720000    6.2198323    1.2745973     4.945235    -0.228721   0.84975569    1.0036535   0.74292546   -1.2345679            1    1.4943171    2.0881965    2.0856677   0.30908701 -0.00015783758  -0.10386902   0.01394046    1.3499178    1.3588506   0.79242758        0.075    1.3147595          1.8   0.31697103    5.6787524    2.7862887    33.337595 -0.00065770022  -0.17913175 -0.0041636855   0.20188381   0.95341567   0.78029054 
  721000    6.2181308    1.2817685    4.9363624  -0.23317813   0.85453663    1.0064907   0.74905642   -1.2345679            1    1.5301764    2.1085862    2.1038487   0.37809421 0.0029641094  0.018959077 -0.025478268    1.3845855    1.3943269    0.7929491        0.075    1.3169038          1.8   0.31717964    5.6750174     2.780467    33.337595 0.0065659998  -0.18583241 -0.00069510645   0.20297197  0.055625754   0.51163452 
  722000    6.2245216    1.2834435    4.9410781  -0.22862801   0.85565335   0.99561083   0.75850399   -1.2345679            1    1.5107325    2.1026431    2.1146015   0.31495298 0.00062347931  0.031427542  0.012628799    1.3633053    1.3763516   0.78870664        0.075    1.3204014          1.8   0.31548266    5.7055434    2.7838512    33.337595 5.083121e-05   -0.1957575 -0.00069460077   0.18952575    0.2405717   0.92491573 
  723000    6.2125013    1.2719937    4.9405077  -0.23761573    0.8480199    1.0007285   0.74201545   -1.2345679            1    1.4778682    2.0710433    2.0803057   0.28225544 0.00057312605 -0.020318011 -0.010299275    1.3336457    1.3427965   0.79759119        0.075    1.3253849          1.8   0.31903648    5.6419881    2.8008377    33.337595 0.00068856969  -0.17007147 0.00057739374    0.1953491  -0.15307485    1.4618696 
  724000    6.2349102    1.2792485    4.9556617  -0.22488181   0.85285659    1.0004986   0.75037072   -1.2345679            1    1.5128119    2.1061482    2.0920214   0.34026628 -0.0064962243 0.0022916983 -0.010169368    1.3669656    1.3777713   0.79281373        0.075    1.3273613          1.8   0.31712549    5.6759865    2.7862057    33.337595 0.0069941302  -0.19883596  0.010461086   0.18708318 -0.050421817  -0.37428694 
  725000    6.2181808    1.2783309    4.9398499  -0.23306402   0.85224486    1.0029205   0.74765234   -1.2345679            1    1.5316224    2.1054446    2.1338887   0.35553396 -0.0022722964 -0.0061253871  0.005872201    1.3863044    1.3962549   0.79198234        0.075    1.3229594          1.8   0.31679294    5.6819449    2.7901944    33.337595 0.0028331109  -0.19919783 -0.0015489092   0.19007795   0.32697082    1.0823655 
  726000    6.2174411    1.2767409    4.9407002  -0.23044147    0.8511848   0.99437251   0.75179206   -1.2345679            1    1.4525147    2.0703953    2.0485323   0.23861646 -0.013260314 -0.010164924 -0.034851695     1.306392    1.3183009   0.79506664        0.075     1.321535          1.8   0.31802666    5.6599029    2.7898252    33.337595 0.0019929123  -0.17303027 0.0058872399    0.2034666  -0.48705891    1.0855681 
  727000    6.1998201    1.2643388    4.9354813   -0.2356813   0.84291649    0.9884393   0.74190178   -1.2345679            1    1.5186844    2.1021372    2.0900153   0.36390079 -0.0031206488 -0.041203754 0.0039260045    1.3744841    1.3852715   0.79235481        0.075    1.3259313          1.8   0.31694192    5.6792739    2.7979516    33.337595 0.00088084816  -0.18777254 -0.0034686663   0.20476149  0.062565263     1.327737 
  728000    6.2064676    1.2694296    4.9370381  -0.23386287   0.84631047   0.99253315   0.74480991   -1.2345679            1    1.5483756    2.1129257    2.1313034   0.40089787 -0.010142936   0.02201885  0.035805819    1.4036101    1.4144101   0.78732179        0.075    1.3282108          1.8   0.31492871    5.7155792     2.777103    33.337595 -0.0013948722  -0.19297533 -0.00066669975   0.20418125  -0.84423978 -0.0061983145 
  729000    6.2376478    1.2880542    4.9495936  -0.23017512   0.85872725    1.0031889   0.75845021   -1.2345679            1    1.5186579    2.1111498    2.1084694   0.33635444 -0.0026697978  0.018747823 -0.0022969687    1.3712411    1.3832541    0.7881042        0.075    1.3299073          1.8   0.31524168    5.7099048    2.7529814    33.337595 0.0079071789  -0.18869543 -0.0011476002   0.18722646  -0.75445791    1.4120089 
  730000    6.2149332    1.2772336    4.9376996  -0.23160007   0.85151333   0.99123284   0.75452901   -1.2345679            1    1.5175815    2.1055425     2.095184   0.35201807 -0.0004455616  0.027309641  0.012290758    1.3709269    1.3837915   0.79807643        0.075    1.3240732          1.8   0.31923057    5.6385577    2.8192855    33.337595 -0.0017301234  -0.18657452 -0.00091169764   0.19514264  -0.52123375    2.7018863 
  731000    6.2236407    1.2823623    4.9412784  -0.22750768   0.85493253    1.0079005   0.74874828   -1.2345679            1    1.4754094    2.0749578    2.0562978   0.29497253 0.0053061445 -0.021901894 -0.026350575    1.3298783    1.3393696   0.78831749        0.075    1.3228436          1.8     0.315327      5.70836    2.7787639    33.337595 0.00063132292  -0.18257516 0.0035444554   0.20012987   0.12427036   0.36194561 
  732000    6.2279143    1.2854564    4.9424579  -0.22607353   0.85699532    1.0073377   0.75263443   -1.2345679            1    1.5345447    2.1197258    2.1167089   0.36719942 0.0081816127 -0.016296595 0.00056407786    1.3882583    1.3985809   0.79077754        0.075    1.3272689          1.8   0.31631102    5.6906017    2.7684774    33.337595 -0.0029524998  -0.17381323 -0.0011293549   0.19222271   0.61818699    1.3227592 
  733000    6.2127644    1.2772022    4.9355622  -0.22819651   0.85149236    0.9987598   0.74926654   -1.2345679            1    1.5160142    2.0971769    2.1105409   0.34032466  0.019508899 -0.016631124 -0.0032707947    1.3703824    1.3812082   0.78935586        0.075    1.3258625          1.8   0.31574234    5.7008508    2.7833146    33.337595 -0.0034267621  -0.18419814 0.0016104373   0.21370598 -0.0033290369    1.5229476 
  734000    6.2157201    1.2706601      4.94506  -0.22821622   0.84713084   0.99277643   0.74603107   -1.2345679            1    1.5358552    2.1194815    2.1100847    0.3779994 0.0057440571 -0.035941993 -0.0089953999    1.3908523    1.4018568   0.79440704        0.075    1.3288271          1.8   0.31776282    5.6646024    2.8006327    33.337595 0.0031872265  -0.18839904 0.0020368091   0.20647468   0.36356127   0.78689726 
  735000    6.2109375    1.2715773    4.9393601  -0.23085936   0.84774235   0.99345636    0.7465951   -1.2345679            1    1.4904204    2.0743882      2.08107   0.31580312 0.0033085353 -0.029521298  0.027552273    1.3453079    1.3563303   0.78647732        0.075    1.3302013          1.8   0.31459093    5.7217162     2.780292    33.337595 -0.0027861148  -0.20450229 -0.005114009   0.18241903   0.82269715    1.0936213 
  736000    6.2273653    1.2801573     4.947208  -0.22726428   0.85346247   0.99509353   0.75515081   -1.2345679            1    1.4875196    2.0655772     2.081479   0.31550268  0.017564812 -0.015771861 -0.0080371242    1.3407442    1.3532085   0.78681288        0.075    1.3214947          1.8   0.31472515     5.719276    2.7840205    33.337595 -0.0052470226  -0.19499549 -0.0020953238   0.18928678  -0.29561372  -0.27656863 
  737000    6.2255803    1.2917922    4.9337881  -0.23109978   0.86121933    1.0123199   0.75633215   -1.2345679            1    1.5116395    2.0951143    2.0924698   0.34733449 0.0095452873 0.00067295548  0.010595663    1.3646344    1.3750033   0.79738774        0.075    1.3222262          1.8   0.31895509    5.6434277    2.8263895    33.337595  0.001132648  -0.19799722 -0.0054742694   0.20073198  0.072959235    1.8651429 
  738000    6.2314142     1.287613    4.9438012  -0.23254882   0.85843311    1.0047172   0.75689046   -1.2345679            1    1.4443078    2.0506871    2.0435006   0.23873579 -0.0082840392  0.014415316  0.018041114    1.2971942    1.3086977   0.79145785        0.075    1.3204469          1.8   0.31658314    5.6857102    2.7678826    33.337595 0.0012015112  -0.19994184 0.0035032977   0.19937899 -0.025909567  0.073257801 
  739000    6.2057449    1.2677928    4.9379521  -0.23575292   0.84521924   0.99075511   0.74419558   -1.2345679            1    1.5202484    2.1052531    2.0981145   0.35737768 0.0015301213  0.066807914 0.0068216558    1.3756023    1.3865229   0.78928406        0.075    1.3197083          1.8   0.31571363    5.7013694    2.7641243    33.337595 0.0053723277   -0.1952623 -0.0025441183   0.19166309   -1.4952345   0.74042481 
  740000    6.1946098    1.2673211    4.9272888  -0.23176754   0.84490476   0.98985633   0.74428683   -1.2345679            1    1.5683034    2.1498203    2.1332234    0.4218665 -0.0036775531 -0.0079074556   0.02240117    1.4236395    1.4346991   0.79204789        0.075    1.3232507          1.8   0.31681915    5.6814747    2.7694805    33.337595 0.0045084347  -0.19468722 0.0090657643   0.19129114  -0.62730277    1.3440012 
  741000     6.218231      1.28516     4.933071  -0.23135984    0.8567977    1.0055928   0.75351127   -1.2345679            1    1.5058981    2.0935221    2.1008635   0.32330881 -0.0073398858 -0.034465815 -0.016479077    1.3594413    1.3701699   0.79459469        0.075     1.322988          1.8   0.31783788    5.6632646    2.7964897    33.337595 0.0074358535  -0.20028953 -0.0017778405   0.19229276   0.29652338     2.392381 
  742000    6.2051288    1.2742878     4.930841  -0.22727112   0.84954939     1.003551   0.74264711   -1.2345679            1    1.4852442    2.0787565    2.0885157    0.2884603 0.0072117727 -0.060296806 -0.034099055     1.340899    1.3497915   0.78551986        0.075    1.3258911          1.8   0.31420794    5.7286903     2.785075    33.337595 0.0039789428  -0.18655874 0.0018433352   0.18643933  0.081173347  -0.92446845 
  743000    6.2209929    1.2799203    4.9410727  -0.23286068   0.85330446   0.99888104   0.75225291   -1.2345679            1    1.5300077    2.1199353    2.1143662   0.35572141 0.0095497231 -0.015048336 0.0027197218    1.3837954    1.3951853    0.7952552        0.075    1.3273267          1.8   0.31810208    5.6585609    2.7754082    33.337595 -0.0021924231  -0.20481531 0.0055715337   0.19452125  -0.42044894    1.9077116 
  744000     6.213337    1.2746299    4.9387071  -0.22597551   0.84977748   0.99775363   0.74705943   -1.2345679            1    1.5092621    2.1023137    2.1018636   0.32360899 -0.00030895113 0.00023989644 0.0041181492    1.3640593     1.374592   0.79316691        0.075    1.3231196          1.8   0.31726677    5.6734591    2.7834082    33.337595 -0.0041709099  -0.17862927  0.011001891   0.19891577   0.33302298    1.6027551 
  745000    6.2046995    1.2689794    4.9357201  -0.23785488   0.84601032   0.98888582   0.74683412   -1.2345679            1    1.4401139     2.024572    2.0518465   0.24392313 0.0025201665 -0.040385569 0.0061290997    1.2949549    1.3066406   0.79236103        0.075    1.3168064          1.8   0.31694441    5.6792293    2.7699461    33.337595 -0.00064228818  -0.19322195 0.0011703638   0.19087704     0.689946   0.71133805 
  746000    6.2328697    1.2826414    4.9502282   -0.2288744   0.85511863     1.004788   0.75122501   -1.2345679            1    1.5109173    2.1118131     2.096887   0.32405191 -0.0084057989 -0.018020342 0.00057059062    1.3649049    1.3752977   0.79747362        0.075    1.3238889          1.8   0.31898945    5.6428199    2.8213351    33.337595 -0.00017180297  -0.18988394 -0.00059218942   0.19383677   0.17019594   0.71744849 
  747000    6.2202125    1.2746317    4.9455808  -0.22511945   0.84977866   0.99045895   0.75212707   -1.2345679            1    1.4943795    2.0982656    2.0967812   0.28809165 0.0036531338 -0.078026542 -0.023151051    1.3481917    1.3606939   0.78842613        0.075    1.3194028          1.8   0.31537045    5.7075734    2.7674982    33.337595 -0.0038314415  -0.17996009 -0.00029035467   0.18701837   0.39825885   0.18131703 
  748000    6.2236727    1.2843937     4.939279  -0.23147004   0.85628682    1.0068193   0.75179389   -1.2345679            1    1.5038538    2.0978329    2.0895395   0.32418902 0.0013536909 -0.046795371 -0.0044942826    1.3577308      1.36796   0.79663723        0.075    1.3216228          1.8   0.31865489    5.6487443    2.7860095    33.337595 0.0029450726   -0.2013952 0.0080995391   0.20569079   0.70339016   0.58500913 
  749000    6.2233669    1.2716491    4.9517178  -0.22689866   0.84779018   0.97855433   0.75702455   -1.2345679            1    1.4601579      2.07323    2.0522348   0.25500891  0.010412672  0.018121599 -0.012118865    1.3130182    1.3280791   0.79684204        0.075    1.3189707          1.8   0.31873682    5.6472924    2.7810113    33.337595 0.0052306988  -0.18668788 -0.0045194026   0.22238341    0.6601381    1.2076399 
  750000    6.2339635    1.2823518    4.9516117   -0.2299535   0.85492551    1.0031089   0.75206381   -1.2345679            1    1.4875858    2.0792331    2.0744434   0.30908099 -0.0018555815  0.047634889 -0.0046435312    1.3414103    1.3521928   0.79458529        0.075    1.3168491          1.8   0.31783411    5.6633317    2.7871325    33.337595 -0.0056060868  -0.17969315 -0.0019572265   0.20292338   0.12176172  -0.67494916 
  751000     6.214412    1.2768995    4.9375125  -0.22926437   0.85129058   0.99398395   0.75224111   -1.2345679            1    1.5590601    2.1326251    2.1494636   0.39509149 0.0077800164 -0.047116907  0.012309465    1.4128501    1.4248987   0.79587234        0.075    1.3208391          1.8   0.31834894    5.6541731    2.7966572    33.337595 -0.004131004  -0.19203921 0.0014626927   0.19569761   0.36548565    1.5660302 
  752000    6.2232223    1.2820163     4.941206  -0.23406497   0.85470185    1.0086194   0.74785813   -1.2345679            1    1.5251416     2.115628    2.1001223   0.35967455 0.0057133402 0.0099012005 0.0052364865    1.3797836    1.3890048   0.79876193        0.075    1.3249315          1.8   0.31950477    5.6337187    2.8129593    33.337595 -0.0052220105  -0.18907004 0.0018721895   0.18553461  -0.26120094    1.4827765 
  753000    6.2186758    1.2822456    4.9364302  -0.22728397   0.85485473    0.9999435   0.75414201   -1.2345679            1    1.4626924    2.0709289    2.0706271   0.24652112   0.00210121  0.015664458 -0.00077379361     1.316113    1.3277266   0.79770465        0.075    1.3158238          1.8   0.31908186    5.6411856    2.8031289    33.337595 -0.00079541488  -0.19010939 0.0054400425   0.20027881  -0.16079392   0.28061606 
  754000    6.2252651    1.2842712    4.9409938  -0.22991183   0.85620519    1.0102358   0.74928302   -1.2345679            1    1.5372133    2.1224721    2.1188609   0.37030702 -0.0040159911 -0.018300686 0.0021926342    1.3915784    1.4008584   0.79560884        0.075    1.3144708          1.8   0.31824354    5.6560457    2.7806897    33.337595  0.003708542  -0.18473381 -0.0028381008   0.19087704   0.91392178   0.53364222 
  755000    6.2276803    1.2805428    4.9471374  -0.23007405   0.85371953   0.99993993   0.75222091   -1.2345679            1     1.527348    2.1044898    2.1176405   0.35991381 -0.00084149407 -0.040815219 0.0094263585     1.381142    1.3923828   0.79581679        0.075    1.3144974          1.8   0.31832672    5.6545678     2.780282    33.337595 0.0051933091  -0.18823267 -0.0044562804   0.19068056   0.95746625  0.093954308 
  756000    6.2261839    1.2868448    4.9393391  -0.22827566   0.85792093    1.0041121   0.75644282   -1.2345679            1    1.4850343    2.0790635    2.0672335   0.30880585 0.0020286571 -0.082257439 -0.031440776    1.3380077    1.3495059   0.79504327        0.075    1.3070235          1.8   0.31801731    5.6600693    2.7837549    33.337595 0.00077905415  -0.20078675  0.001231129   0.19885621    1.9474806   0.88299394 
  757000    6.2439138    1.2926444    4.9512694  -0.23230394   0.86178746    1.0106469   0.75845662   -1.2345679            1    1.5007847    2.0889951    2.1056662   0.30769288 -0.0014590437 -0.024915428  0.044745954    1.3533667    1.3643743   0.79316875        0.075    1.3074376          1.8    0.3172675    5.6734459    2.7926727    33.337595 -0.0016592623  -0.20162375 0.0019654895   0.18099079    0.5916515  -0.18578232 
  758000    6.2165209    1.2779112    4.9386096  -0.23067319   0.85196506   0.98881974   0.75697019   -1.2345679            1    1.5378021    2.1220584    2.1250259   0.36632185  -0.01618295 -0.048427926  0.024417206     1.390673    1.4043377   0.79989738        0.075     1.305256          1.8   0.31995895    5.6257216    2.8226477    33.337595 -0.0054562007  -0.18824819 0.0051905647   0.18161718 -0.063565739   0.77618844 
  759000    6.2301247    1.2822711    4.9478535  -0.23489826   0.85487176    1.0017099   0.75294419   -1.2345679            1     1.482096    2.0847976    2.0678538   0.29363653 -0.0016811196 -0.010780476 -0.026925364    1.3357494    1.3468918   0.79790592        0.075    1.3055103          1.8   0.31916237    5.6397626    2.7910216    33.337595 0.0016206206  -0.20003716 0.0013757108   0.18875939  -0.39616348  -0.33953604 
  760000    6.2322984    1.2903871    4.9419114  -0.22884559   0.86028253    1.0034782   0.76088471   -1.2345679            1    1.4942178    2.0899606    2.0728672   0.31982553 -0.0042698056  0.015590237 0.0061181358    1.3463278     1.358775   0.79509312        0.075    1.3040691          1.8   0.31803725    5.6597144    2.7977839    33.337595 0.0065527157   -0.2063433 -0.0006821892    0.1788463  0.077705818    1.0293085 
  761000    6.2314942    1.2810587    4.9504356  -0.23122297   0.85406341    1.0000293   0.75274153   -1.2345679            1    1.5758318    2.1531503    2.1485749   0.42577021 0.0033023032  0.061725836 -0.024767156    1.4295246    1.4408545   0.79597077        0.075    1.3079557          1.8   0.31838831    5.6534739    2.7896848    33.337595 -0.005280218  -0.18931792 -0.00048432697   0.18463718  -0.23727446    1.0065323 
  762000    6.2478258    1.2900848     4.957741  -0.23006835   0.86008098     1.007458   0.75777946   -1.2345679            1    1.5174845    2.1091512    2.0989312   0.34437114 -0.0086015078 -0.026795208  0.032364224    1.3701981    1.3815045   0.79584606        0.075    1.3079132          1.8   0.31833842    5.6543598    2.8046749    33.337595 0.0034843186  -0.18894858 -0.00017375706   0.18897901 -0.051381113   0.75114319 
  763000    6.2124422    1.2774341    4.9350081  -0.23651365   0.85164695   0.99752586   0.75038537   -1.2345679            1    1.4649782    2.0498046    2.0710379   0.27409198 0.0049921626 -0.025904659 -0.012147598    1.3191289    1.3303387   0.80162651        0.075    1.3066579          1.8    0.3206506    5.6135868    2.8091607    33.337595 -0.0053909861  -0.18238789 -0.0057342172   0.20103934   0.30113243   0.78355869 
  764000    6.2334134    1.2866985    4.9467148  -0.23012486   0.85782342    1.0048326   0.75577728   -1.2345679            1     1.496658    2.0959919    2.0843652   0.30961706 0.00039509509 0.0027126729  0.035398897    1.3497608    1.3610324   0.79924376        0.075    1.3110024          1.8   0.31969751    5.6303223    2.8014467    33.337595 -0.00080698443  -0.18301252 0.0010379945   0.20069861   -0.1937825   0.35126582 
  765000    6.1970692    1.2656437    4.9314254  -0.23279985   0.84378651   0.98970342   0.74249816   -1.2345679            1    1.4494777    2.0459621    2.0614909   0.24097998 -0.0043373977  0.034527872  0.018601972    1.3051614    1.3158941   0.79621505        0.075    1.3093303          1.8   0.31848602    5.6517395    2.7996086    33.337595 0.00076836658  -0.20242954 -0.0050057741   0.20283522  -0.27655173    2.1048475 
  766000    6.2050435    1.2711846    4.9338589  -0.23634906   0.84748049   0.99305888    0.7464274   -1.2345679            1     1.477089    2.0715113    2.0803426   0.27941319 0.0022538884  0.031158372  0.029364933    1.3320091    1.3430525   0.79513148        0.075    1.3113757          1.8   0.31805259    5.6594414    2.7969619    33.337595 0.0022681773   -0.1968999  0.005655717   0.18327885   -1.1258538     1.395263 
  767000    6.2106408    1.2788064    4.9318344  -0.22816487   0.85256186    1.0012743   0.74933267   -1.2345679            1    1.5715884    2.1408053    2.1406169   0.43334285 -0.013450509 -0.039408689 0.0035106216    1.4259437     1.436443   0.79301022        0.075    1.3114971          1.8   0.31720409    5.6745801     2.783219    33.337595 -0.0044349163  -0.19720131 0.0034812323   0.19433165   -1.0641305    1.2138515 
  768000    6.2198764    1.2787328    4.9411436  -0.22860072   0.85251279    1.0040094   0.74735018   -1.2345679            1    1.5013836    2.0705223    2.1051642   0.32846421 0.0030637927 -0.038411177 -0.018314102    1.3561243     1.365869   0.79188758        0.075    1.3172131          1.8   0.31675503    5.6826248    2.7830446    33.337595 -0.0037895622    -0.196318 0.0038357126   0.17757294   0.71569897   0.22416145 
  769000    6.2264037    1.2916759    4.9347278  -0.23400191    0.8611418    1.0096857      0.75803   -1.2345679            1    1.5063662    2.1015068    2.0826404   0.33495156 -0.0027123922 -0.0016186508  0.018913557    1.3590311    1.3700855   0.79131978        0.075    1.3106417          1.8   0.31652791    5.6867023     2.797108    33.337595 -0.0026537756  -0.20391833 0.0061927592    0.2007597  -0.24853104    1.2780349 
  770000    6.2142375    1.2754772    4.9387603  -0.22910188   0.85034232   0.98995645   0.75343113   -1.2345679            1    1.5241969    2.1142222    2.0961645   0.36220391 -0.004481725  0.023393669 0.0097331853    1.3777556    1.3905791   0.78600618        0.075    1.3136877          1.8   0.31440247    5.7251459      2.76512    33.337595 0.0009185402  -0.20218503 0.0058462983   0.17985603 -0.030425016     1.735973 
  771000    6.2163806    1.2698598    4.9465208  -0.22974157   0.84659727   0.99779853   0.74163945   -1.2345679            1    1.4986906    2.0978195    2.0867225   0.31152986 -0.0041676115 0.00084550854  0.010988464    1.3545413    1.3640144   0.79226501        0.075    1.3083421          1.8     0.316906    5.6799177     2.798586    33.337595 -0.0010346384  -0.18244915 0.0053761534   0.20230259  -0.87692699    1.6685503 
  772000    6.2252621    1.2747366    4.9505255  -0.22958047   0.84984856     1.002072   0.74418104   -1.2345679            1    1.4738554     2.058621    2.0734479   0.28949729 -0.0067759021 -0.013155456 -0.0038519437    1.3292121    1.3386024   0.80156333        0.075    1.3039311          1.8   0.32062533    5.6140293    2.8095944    33.337595 -0.012143131  -0.20097693 -0.0073123521    0.1950438  -0.22278222    1.0520618 
  773000    6.2086364    1.2699258    4.9387105  -0.23122598   0.84664131    1.0007369   0.73967361   -1.2345679            1    1.4985771    2.0906898    2.0753127   0.32972886 -0.00013296657 0.0053216939 -0.013676872    1.3548099    1.3635043     0.799412        0.075     1.302756          1.8    0.3197648    5.6291374    2.7835465    33.337595 0.0047251892   -0.1938992 -0.0049856096   0.18133816 -0.0055313557    1.9312385 
  774000    6.2266905    1.2784872    4.9482033  -0.23101303   0.85234904    1.0021521   0.74836245   -1.2345679            1    1.5047886     2.090041    2.0881763   0.33614846 -0.0024348358  0.038202589 -0.0050538329    1.3593325    1.3695247   0.79808144        0.075    1.3007789          1.8   0.31923258    5.6385223    2.7842905    33.337595 0.0044025562  -0.19558162 0.0058613149   0.18365521 -0.054899025    1.5400747 
  775000    6.2103896    1.2733362    4.9370534  -0.22720421   0.84891494   0.99945615   0.74441559   -1.2345679            1    1.4993804    2.1022857    2.1073391   0.28851653 0.0028497665 -0.058921523 0.0011270977    1.3546915    1.3644805   0.79877261        0.075     1.301084          1.8   0.31950904    5.6336434    2.8163251    33.337595 0.0032791462  -0.18942316 -0.0017189549   0.19790304  -0.51678539    1.4499244 
  776000    6.2038488    1.2727023    4.9311465  -0.23621182   0.84849233   0.99880666   0.74415051   -1.2345679            1    1.4972566    2.0969723    2.0723073   0.32249016 -0.003176621 -0.0077353444 0.0011617969    1.3526192    1.3624443   0.80329206        0.075    1.3023876          1.8   0.32131683    5.6019475    2.8036317    33.337595 0.0043656905  -0.19396393 0.0031424241    0.1969221  -0.18325008   0.70349951 
  777000    6.2081425    1.2746171    4.9335253  -0.23479471   0.84976895   0.99883021   0.74629736   -1.2345679            1    1.4065549    2.0239243    2.0193476   0.17639267 0.0091691849  0.019803088  -0.02459259    1.2615002    1.2717394   0.79483578        0.075    1.3071008          1.8   0.31793431    5.6615468    2.7870691    33.337595 -0.0044809654  -0.18566889 0.0082597982   0.20030901  -0.64003986  -0.28815254 
  778000    6.2170757    1.2838469    4.9332288  -0.23057891    0.8559223    1.0053859   0.75217162   -1.2345679            1    1.5671701    2.1368303    2.1461938   0.41848611 -0.00049775618 0.0017110401  0.052642187    1.4209737    1.4314698   0.80112656        0.075    1.3049029          1.8   0.32045062      5.61709    2.7957599    33.337595 -0.007555229  -0.20714507 0.0010206455   0.18950182   0.22112719    1.1693374 
  779000    6.2176686    1.2809216     4.936747  -0.22996256   0.85397203    1.0023311   0.75098827   -1.2345679            1    1.5469624    2.1247891    2.1342499   0.38184829 0.0049390566  0.019358039 -0.0064649988     1.400996    1.4116744   0.79213809        0.075    1.3059635          1.8   0.31685524    5.6808277    2.7817342    33.337595  0.001852692  -0.19713703 0.00036387821    0.1760569   0.58705862    1.4560749 
  780000    6.2233237    1.2785553    4.9447684  -0.22873921   0.85239446   0.99631574   0.75249236   -1.2345679            1    1.5133981    2.1013776    2.0856846   0.35313204 -0.0024856363  0.049811694  0.031605088    1.3671393     1.378922   0.79139085        0.075    1.3082798          1.8   0.31655634    5.6861916    2.7773865    33.337595 0.0065978781  -0.20420067 -0.0061361903   0.18789314   0.32742747  -0.32680123 
  781000    6.2169033      1.27703    4.9398733  -0.23123278   0.85137757    1.0001917   0.74807765   -1.2345679            1    1.4484911    2.0409268    2.0420924   0.26245409 0.0013723253 -0.012379065 -0.007111131    1.3030904    1.3134919   0.79730148        0.075    1.3031028          1.8   0.31892059    5.6440382    2.8035563    33.337595  0.007695695  -0.18785991 -0.0088372153   0.21500864   0.19150731   0.25539831 
  782000    6.2158046    1.2813751    4.9344295  -0.22797381   0.85427436   0.99511272   0.75651322   -1.2345679            1    1.5601615    2.1431529    2.1280197   0.40931186 -0.0038084245  0.014635369  0.025285819    1.4131212    1.4258478   0.80162474        0.075    1.3048756          1.8   0.32064989    5.6135992    2.7935186    33.337595 0.00087862267  -0.20652128 0.00033594851   0.18627058   -1.3051495    1.1207885 
  783000    6.2124621    1.2675017    4.9449604  -0.22959837   0.84502517    0.9867499   0.74664807   -1.2345679            1    1.5268618    2.1056538     2.111154   0.36377764 -0.001334056 -0.025661592 -0.0019942082     1.381739    1.3936769   0.79197506        0.075    1.3034144          1.8   0.31679002    5.6819971    2.7898961    33.337595 -0.0029421821  -0.19864159 -0.0048943029   0.18426456  -0.55423739 -0.055639379 
  784000    6.2313769    1.2883815    4.9429954  -0.23385062   0.85894547    1.0077284   0.75566761   -1.2345679            1    1.4897181    2.0797196    2.0900634   0.29937134 -0.0035449672 0.0099859496 0.0094789538    1.3428422    1.3537016   0.79403984        0.075     1.300382          1.8   0.31761593     5.667222    2.7794429    33.337595 0.0016134316  -0.19527007 -0.0015418986    0.2134596  -0.58047955   0.45963612 
  785000    6.2241036    1.2833289    4.9407747  -0.23414849   0.85557693    1.0080667   0.74972473   -1.2345679            1    1.4874046    2.0705533    2.0790696    0.3125908 -0.0011261723  0.044462044  0.022116221    1.3416837    1.3513424   0.79950491        0.075     1.301827          1.8   0.31980196    5.6284833    2.8094381    33.337595 0.0057183257   -0.1982285 0.0044826225   0.19203627  -0.10790185   0.53057664 
  786000    6.2090903    1.2755986    4.9334917   -0.2292124   0.85042326   0.99883333    0.7474039   -1.2345679            1    1.4880022    2.0881576    2.0845379   0.29131099 -0.00094382564   0.06529684 0.0074795504    1.3427324    1.3531863   0.79949405        0.075    1.3046896          1.8   0.31979762    5.6285597    2.8061324    33.337595 -0.0023862124   -0.2046803 0.0028530484   0.19552971  -0.65567239  -0.06050533 
  787000    6.2052957    1.2724721    4.9328236  -0.23293071    0.8483389   0.98478906   0.75362478   -1.2345679            1    1.5247371    2.1096941    2.1083158    0.3562013 -0.0016309015  0.012426514 -0.0024885107    1.3782582    1.3918168   0.80369111        0.075     1.307727          1.8   0.32147644    5.5991661    2.8130452    33.337595 -0.005227241  -0.19218051 0.0022768921   0.18304012   0.10660107    2.5728423 
  788000    6.2152461     1.279127    4.9361192  -0.23158137   0.85277559    1.0068305   0.74583641   -1.2345679            1    1.5655771    2.1547976    2.1320868   0.40984688 0.0031503169 0.0090607916 -0.012680208     1.420612    1.4296818   0.80285609        0.075    1.3062737          1.8   0.32114243    5.6049896    2.8040157    33.337595 0.00022066135  -0.20426368 0.0086869229    0.1812231  -0.20213881    1.2138464 
  789000    6.1963759    1.2677964    4.9285795   -0.2366549   0.84522168   0.99248504   0.74299838   -1.2345679            1     1.554044    2.1218766    2.1236873   0.41656821 0.0050252302 -0.011401998 -0.0015686056    1.4096306     1.420085   0.79702764        0.075     1.307465          1.8   0.31881106    5.6459773    2.7782061    33.337595 -0.012362541  -0.20204775 0.0046521523   0.19035926   0.19848574   0.70446638 
  790000    6.2213341    1.2829692    4.9383649  -0.23274687   0.85533715    1.0040502   0.75210764   -1.2345679            1     1.503605     2.085458    2.0907116   0.33464549 -0.0013781454 -0.029906747 -0.017303828     1.357421     1.368085   0.79578337        0.075     1.312021          1.8   0.31831335    5.6548052    2.7840173    33.337595 -0.00028021479  -0.19788669 0.0091553356   0.17428888   0.74479445   0.75860554 
  791000    6.2233084    1.2841199    4.9391885  -0.22827811   0.85610431   0.99912478   0.75682794   -1.2345679            1    1.4984121    2.0802828    2.0982292   0.31672432  0.003578702 0.0030096586 -0.013041429    1.3513106    1.3635568   0.80066037        0.075    1.3096986          1.8   0.32026415    5.6203606    2.8067623    33.337595 -0.00073256125  -0.20386952 0.0021356367   0.20056355  -0.68982549    1.0732112 
  792000    6.2222786    1.2764742    4.9458044  -0.23015532   0.85100702    1.0015404   0.74651322   -1.2345679            1    1.5287241    2.1054413    2.1042513   0.37647971 -0.0074757233 0.0064412724   0.01061098    1.3836275    1.3935428   0.79830775        0.075    1.3087287          1.8    0.3193231    5.6369238    2.8098383    33.337595 0.0022712276  -0.18887267 -0.0024054582   0.18747528  -0.16524642    1.3314545 
  793000    6.2016011    1.2700125    4.9315886  -0.23396754    0.8466991   0.99844894   0.74136035   -1.2345679            1    1.5248615    2.1109219    2.1212064    0.3424563 -0.0060508312 0.00046526769 -0.0015210781    1.3807664    1.3900975   0.79880859        0.075    1.3100856          1.8   0.31952344    5.6333896    2.7886422    33.337595 0.0012129127  -0.16620311  0.003880094   0.19047296  -0.81866373   0.49734746 
  794000     6.200105    1.2690277    4.9310773  -0.22635537   0.84604254   0.99337361   0.74377228   -1.2345679            1    1.4665081    2.0632859    2.0753475   0.26089079 -0.0040812376 0.0026759084 0.0086047673    1.3219442    1.3324291   0.80021471        0.075     1.309901          1.8   0.32008588    5.6234907    2.7851824    33.337595 -0.0060917274  -0.19721139 0.0020028179   0.18577832  -0.32084654 0.0090967929 
  795000    6.2253951    1.2837497    4.9416454  -0.23400911   0.85585749    1.0030157   0.75370775   -1.2345679            1    1.4614102     2.068704    2.0692069   0.24631977 0.0032666321 -0.013792722  0.016038714    1.3149152    1.3260298   0.80100406        0.075    1.3089297          1.8   0.32040162    5.6179491    2.8045162    33.337595 -0.0041067375  -0.19537583 0.0023561397   0.18780579    1.2077898  -0.17512036 
  796000    6.2098135    1.2779533    4.9318602  -0.23364243   0.85199308    1.0007504   0.74873268   -1.2345679            1     1.559253    2.1410479    2.1301624   0.40654865 -0.011163877 -0.039983185 -0.018551163     1.413725    1.4241783   0.79909374        0.075    1.3056653          1.8    0.3196375    5.6313794     2.785543    33.337595 0.0052598018  -0.20747671  0.006985278   0.19727773  -0.99396085    1.4593652 
  797000    6.2120694    1.2777167    4.9343526  -0.23471479    0.8518354    1.0023752   0.74733715   -1.2345679            1     1.506199    2.0893826    2.0956813    0.3335331 -0.0073847729 -0.044640929 -0.032099735    1.3609423    1.3709051   0.80042533        0.075     1.307213          1.8   0.32017013     5.622011    2.8118928    33.337595 -0.0033563632  -0.19781593 0.0032339182   0.18263515   0.17867725   -1.0148228 
  798000    6.1972101    1.2745442    4.9226659   -0.2323143   0.84972032   0.99452842   0.74920226   -1.2345679            1    1.4981759    2.0982601    2.0797365   0.31653114 0.0056308969 -0.042963911  0.026734113    1.3525566    1.3639411   0.80252208        0.075    1.3115284          1.8   0.32100883    5.6073223    2.7976798    33.337595  0.009356369  -0.20981515 -0.0029256262   0.19633403     1.116497   0.40299274 
  799000    6.2266235    1.2846817    4.9419418  -0.23300737   0.85647886   0.99969227   0.75706852   -1.2345679            1    1.5097471    2.1039787    2.0833943   0.34186814 0.0082755159  0.015776758 -0.022225096    1.3625988    1.3748152    0.7923184        0.075    1.3089571          1.8   0.31692736    5.6795349    2.7759654    33.337595 -0.0069714973  -0.17863659 0.00027131994   0.18789715   0.79603484    2.1502212 
  800000    6.2126979    1.2850667    4.9276312  -0.23177053   0.85673554   0.99643071   0.75976839   -1.2345679            1    1.5051435    2.0995292    2.0859415   0.32995978 -0.009811927  0.027609449 -0.030138995    1.3574705    1.3706519   0.79459588        0.075     1.307577          1.8   0.31783835    5.6632561    2.7776964    33.337595 0.0016158229  -0.19368916 -0.0094080216   0.18537831    -1.003735   0.79053176 
  801000    6.2258993    1.2822264    4.9436729  -0.22926762   0.85484196    1.0067553   0.74939007   -1.2345679            1    1.5351588    2.1088433     2.112457   0.38417606 -0.001122871  0.015997281 -0.0092267019     1.389503    1.3992736   0.80160572        0.075    1.3088882          1.8   0.32064229    5.6137324    2.8075486    33.337595 0.00028146121  -0.20121182 0.0021699916   0.20078001   -1.0380081    1.4673243 
  802000    6.2132869    1.2718706    4.9414163   -0.2294289   0.84793787   0.99418687   0.74641911   -1.2345679            1    1.4734861    2.0455772    2.0871803   0.28770081 0.0017719163 -0.012686512 -0.019246232    1.3284078    1.3392974   0.79640503        0.075     1.307422          1.8   0.31856201    5.6503912    2.7789346    33.337595  -0.00156217  -0.20520838 -0.0020469316   0.19284835  -0.46212073    1.6707013 
  803000    6.2074847    1.2775541    4.9299306  -0.23171125   0.85172697   0.99662362    0.7511475   -1.2345679            1    1.4731418    2.0595752    2.0815466    0.2783035 -0.0033184367  0.013005885  0.018770753    1.3271444    1.3386241   0.79924496        0.075    1.3100623          1.8   0.31969798    5.6303139    2.8031955    33.337595 -0.0036129466  -0.21248791 0.00099720944   0.18806698  -0.35479685  -0.75552224 
  804000    6.2100746     1.274917    4.9351576  -0.23425996   0.84996886   0.99464717   0.74954093   -1.2345679            1     1.556423    2.1270742    2.1190675   0.42312712 -0.004760864 -0.049182078 -0.020718258    1.4107379    1.4221721   0.79635526        0.075    1.3103825          1.8    0.3185421    5.6507444     2.776496    33.337595 -0.00072286515  -0.19084228   0.00510411   0.18689193    1.1103042    1.8666408 
  805000    6.2328912    1.2867711    4.9461201  -0.23243358   0.85787183    1.0049334   0.75578926   -1.2345679            1     1.509775    2.1022678    2.0902706    0.3367867 0.0071015702 -0.028367948 -0.019942412    1.3628755    1.3741358   0.79423608        0.075    1.3147188          1.8   0.31769443    5.6658217    2.7985696    33.337595 0.00019613834  -0.20033265 -0.0029880418   0.18987643   0.77800248   0.76816816 
  806000    6.2094895    1.2742299    4.9352596  -0.22970539   0.84951077    1.0003856    0.7447798   -1.2345679            1    1.5154392    2.1116717    2.0901126   0.34453339 -0.0048292688  0.045686857 -0.010864003    1.3706795    1.3804138   0.79670825        0.075    1.3097213          1.8    0.3186833    5.6482408    2.8067901    33.337595 -0.0014574982  -0.18394773 0.0047567276   0.19565308    -0.737096    3.1701418 
  807000    6.2168991    1.2782264    4.9386727  -0.22650958   0.85217518    1.0008512   0.74897124   -1.2345679            1    1.5288818    2.1088769    2.1164659   0.36130278 0.0080358752 0.0091495233 -0.025500607    1.3833075    1.3937936   0.79779736        0.075    1.3081341          1.8   0.31911894    5.6405301    2.8044265    33.337595 0.0057704798  -0.20690654 0.00041026971   0.22310615   -1.3100558   0.65555166 
  808000    6.2238542    1.2883494    4.9355049  -0.23259309   0.85892403    1.0060828   0.75677405   -1.2345679            1    1.5185793     2.088969    2.1183723   0.34839653 0.0052178589  0.036853095  0.024149889    1.3714883    1.3827849   0.79399073        0.075    1.3124163          1.8   0.31759629    5.6675725    2.7813482    33.337595 0.0071510198  -0.20530803 -0.0099949713   0.19928864   0.24463006    2.9919346 
  809000     6.219568    1.2833027    4.9362653   -0.2345313   0.85555948   0.99594156   0.75811526   -1.2345679            1    1.5291732     2.113608    2.1168673    0.3570442 -0.0029829003 0.0081849455 0.0062800288    1.3818215    1.3947476    0.7906408        0.075    1.3122411          1.8   0.31625632    5.6915859    2.7662377    33.337595 0.0031383234   -0.1787731 0.00094029435   0.20372736  -0.47508156    1.2735676 
  810000    6.2234004    1.2829479    4.9404525  -0.23228116   0.85532292    1.0061561   0.75062114   -1.2345679            1     1.533216    2.1265849    2.1129367   0.36012634 -0.0070191793  -0.01680202 -0.013589024    1.3873209    1.3974117   0.79168339        0.075     1.315304          1.8   0.31667336    5.6840905    2.7955983    33.337595 0.0039706146  -0.19084994 0.0026622296   0.19460761   0.84141324    0.7993854 
  811000    6.2313726    1.2856549    4.9457176  -0.23820989   0.85712769    1.0066949   0.75330509   -1.2345679            1    1.5300925    2.1119412    2.1043506   0.37398576 -0.0086183029  -0.02017796 0.0062102657    1.3836758    1.3942155    0.7913093        0.075    1.3123825          1.8   0.31652372    5.6867776    2.7935051    33.337595 -0.0010684124  -0.22293159 -0.0032275313   0.20100815    1.3337457    1.0065223 
  812000    6.2116264    1.2722692    4.9393572  -0.23137388   0.84820361    0.9937417   0.74717854   -1.2345679            1    1.5086598    2.0886612    2.0882715   0.34904683 -0.00081301642 -0.044026466 0.0098203776    1.3634339    1.3745312   0.79193787        0.075    1.3098678          1.8   0.31677515    5.6822639    2.7800476    33.337595 0.0034144998   -0.1959273   0.00188757   0.18631633  -0.42276915   0.94388801 
  813000     6.211137    1.2702466    4.9408904  -0.22991546   0.84685519    0.9963261   0.74309899   -1.2345679            1    1.5274491    2.1014076    2.1078947   0.37304518 0.0028717871  0.047909664  0.013962373    1.3830161    1.3929717   0.79796396        0.075    1.3090264          1.8   0.31918558    5.6393525    2.7840418    33.337595 -0.0098974781  -0.18461803 -0.0073592414   0.20679331  -0.94501501     1.862017 
  814000     6.208715    1.2686734    4.9400416   -0.2324849   0.84580631   0.99935817   0.73921613   -1.2345679            1     1.474829    2.0662155    2.0753393   0.28293225 0.00046091963  0.015908174  0.025005417    1.3311507    1.3399423   0.79337258        0.075    1.3091977          1.8   0.31734903    5.6719883    2.7929127    33.337595 0.0065956757  -0.19546645 0.00048943688   0.17293394  -0.41244333  -0.45189706 
  815000    6.2145831    1.2798874    4.9346958  -0.23142641   0.85328252   0.99544506   0.75460178   -1.2345679            1    1.5495597    2.1311433    2.1262653   0.39127051 -0.0017104376 -0.022023793  -0.01996442    1.4028909    1.4152011   0.79512604        0.075    1.3082285          1.8   0.31805041    5.6594801    2.7853014    33.337595 0.0016817019  -0.18570023 0.0060480117   0.20394017   0.29502387     1.994305 
  816000    6.2033908    1.2733707    4.9300201  -0.23305518   0.84893794    0.9961448   0.74675407   -1.2345679            1    1.5505651    2.1206898    2.1374421   0.39356338 -0.0041765769 -0.0035077157  0.011404776    1.4054217    1.4161121   0.79637947        0.075    1.3075338          1.8   0.31855179    5.6505726    2.7909986    33.337595 -0.0023397465  -0.20541261 0.0058334962   0.19847418    0.6180464    2.4230847 
  817000    6.2168507    1.2816693    4.9351814  -0.23505583    0.8544705   0.99932374   0.75392132   -1.2345679            1    1.5030552    2.0975567    2.0949727   0.31663607 -0.00085573866  0.013164477 0.0036945391    1.3565186    1.3681731   0.79534304        0.075    1.3085747          1.8   0.31813722    5.6579359    2.7865943    33.337595 0.0029134547  -0.19339072 0.0092674491   0.19111097   0.20371452   0.86984567 
  818000     6.218571     1.272366    4.9462051   -0.2254374   0.84826813   0.99348717   0.74746462   -1.2345679            1    1.4868937    2.0886964     2.071286   0.30069866 -0.00078090283  0.060846725 -0.0013705248    1.3416122    1.3527994   0.78698585        0.075    1.3120374          1.8   0.31479434    5.7180189    2.7833414    33.337595 0.0011927842  -0.19836569 -0.0027032982   0.19025224   -0.9632138  -0.24475525 
  819000     6.217279    1.2790633    4.9382156  -0.22831368   0.85273314   0.99975143    0.7506804   -1.2345679            1    1.4806273      2.08037      2.07689   0.28462181 0.0043456407  0.064302162 -0.0069639547    1.3347207    1.3456874   0.78599517        0.075    1.3138745          1.8   0.31439807     5.725226    2.7670656    33.337595  0.003586302  -0.19246909 0.00085269094   0.20353834   -2.1396225     1.643799 
  820000    6.2156425    1.2810257    4.9346168  -0.23163595   0.85404143    1.0055619   0.74886227   -1.2345679            1    1.4898394    2.0788384    2.0949256   0.29575427 0.0043198238 0.00015705368  0.011579952    1.3442862    1.3541153   0.79241581        0.075    1.3124713          1.8   0.31696632    5.6788367     2.780376    33.337595 -0.00064569424  -0.18807356 -0.0024755735   0.19513425  -0.18709591   0.61932612 
  821000     6.214249    1.2771645    4.9370845  -0.23347324   0.85146723   0.99232723   0.75369092   -1.2345679            1    1.5073945     2.092762    2.0841828   0.34523878 -0.0060787527 -0.040979616 0.0052414392    1.3609028    1.3734568   0.79457884        0.075    1.3155347          1.8   0.31783154    5.6633776    2.7939561    33.337595 0.0015658493  -0.19290257 0.00043102396   0.20802637    2.0732036    1.5022705 
  822000    6.2125522    1.2724088    4.9401434  -0.23289121   0.84829664    1.0095377   0.73636695   -1.2345679            1    1.5262841    2.1047927    2.1181114   0.35594808 -0.0044185282 0.0069933342  0.021537244    1.3831595    1.3900234   0.79928093        0.075    1.3193976          1.8   0.31971237    5.6300605    2.7997117    33.337595 0.0037373486  -0.20120403 -0.0018744322   0.17627023   0.43700871   0.58430589 
  823000    6.2142251    1.2674552    4.9467699  -0.22323865   0.84499419   0.98813437   0.74563414   -1.2345679            1    1.5122227    2.1061172    2.1069071   0.32364389 -0.011798725  0.036636301 -0.013668696     1.367297    1.3788509   0.79454834        0.075    1.3173713          1.8   0.31781934     5.663595    2.8022475    33.337595 -0.0025020254  -0.19817385 -0.0056887334   0.19123879  -0.10447382   0.79171026 
  824000    6.2309314    1.2852905    4.9456408  -0.22915015   0.85688473     1.004306   0.75455236   -1.2345679            1    1.4888712    2.0717556    2.0852524   0.30960573 0.0035546015  0.043667365   0.01094154    1.3422121    1.3533167   0.79055848        0.075    1.3192172          1.8   0.31622339    5.6921785    2.7782028    33.337595 0.0040206694  -0.18388843 0.0037759905   0.19389237  -0.78589276    1.6861302 
  825000    6.2114792    1.2778254    4.9336538  -0.23147895   0.85190784    1.0012075   0.74827077   -1.2345679            1    1.4557713    2.0565507    2.0554107   0.25535243 -0.011250074  0.054317946 -0.0010652386    1.3103331    1.3206349   0.79103551        0.075    1.3220843          1.8    0.3164142    5.6887459    2.7985401    33.337595 -0.0035238225  -0.17022005 0.0018343519   0.19449571  -0.39891538   0.85267664 
  826000    6.2301574    1.2852796    4.9448778  -0.23148754   0.85687746    1.0057653   0.75352666   -1.2345679            1     1.469182    2.0691461    2.0616747   0.27672506 -0.0080265049   0.07143913 -0.026739644    1.3227222    1.3334304    0.7900797        0.075    1.3167211          1.8   0.31603188    5.6956279    2.8032769    33.337595 -0.0092570562  -0.18621557 -0.0029903761   0.18371265  -0.45997134   0.78918503 
  827000    6.2203782    1.2875661    4.9328121  -0.23264699   0.85840183    1.0150279   0.74967742   -1.2345679            1    1.5528043    2.1196103    2.1323217   0.40648079 -0.0030583057 -1.4388047e-05  0.027820778    1.4070926    1.4158025   0.79171724        0.075    1.3193201          1.8    0.3166869    5.6838474    2.7814788    33.337595 -0.0036243587  -0.19264649 0.00065867207    0.1845136    1.1485417      1.90742 
  828000    6.2172038    1.2785889    4.9386149  -0.23301601   0.85241688   0.99209898   0.75545859   -1.2345679            1    1.5569541    2.1352326    2.1196589   0.41597096 -0.0051920504 -0.026493662  -0.01721079    1.4101188    1.4230472   0.79432931        0.075    1.3189902          1.8   0.31773172    5.6651567    2.7951846    33.337595 0.0011060272  -0.21554731  0.003690521   0.17227033   0.12806107    3.5155136 
  829000    6.2213598    1.2795334    4.9418263  -0.22911853   0.85304658    0.9923695   0.75633774   -1.2345679            1    1.4379942    2.0413861    2.0470422   0.22555441 0.00047252474 -0.022353585 -0.0019749769     1.290988    1.3040508   0.79254791        0.075    1.3189058          1.8   0.31701917    5.6778902    2.7924753    33.337595 -0.0023032551  -0.20499351 -0.0039381449   0.18775851  -0.54663071   0.77435395 
  830000    6.2281266    1.2861794    4.9419472  -0.22975219   0.85747735    1.0108077   0.75104158   -1.2345679            1    1.4345903    2.0441682    2.0341728   0.22542991 -0.0054437807 -0.017404856 0.0018770664    1.2886135    1.2981582    0.7913929        0.075    1.3270517          1.8   0.31655716    5.6861769    2.7774509    33.337595 -0.0087500035   -0.1983493 0.00061564278   0.18847103   -0.1374926   0.42342942 
  831000    6.2070491    1.2708274    4.9362217  -0.23152468   0.84724235    0.9984709   0.74226562   -1.2345679            1    1.5174925    2.1059894    2.1054938   0.34099445 -0.00067399738 0.0078012281  0.015599218    1.3732215    1.3827256   0.79043493        0.075    1.3201747          1.8   0.31617397    5.6930682    2.7747487    33.337595 -0.0071626431  -0.17897561 -0.0035394018   0.20114584   0.52873019    1.3554263 
  832000    6.2174926    1.2728788    4.9446138  -0.22654347   0.84861004   0.99631761   0.74607845   -1.2345679            1    1.5710943    2.1592684    2.1348935   0.41912114 -0.0039623487  0.022048358  0.022109449    1.4260822     1.436618   0.80038381        0.075     1.321431          1.8   0.32015352    5.6223027    2.8113056    33.337595 -0.00055776811  -0.19423516 0.0011576759   0.19223626   0.97231243    1.5917756 
  833000    6.2208804    1.2826055     4.938275  -0.22883951   0.85509467    1.0091191   0.74817678   -1.2345679            1    1.4709054    2.0588098    2.0721177   0.28178882 -0.0012234293  -0.02072673  0.044236833    1.3254855    1.3347012    0.7925522        0.075    1.3206734          1.8   0.31702088    5.6778594    2.7936832    33.337595 -0.0053839511  -0.18473581 -0.0021621983   0.17530146  -0.46578292  -0.48851091 
  834000     6.225812    1.2888997    4.9369123  -0.23445936   0.85929093    1.0015923   0.76051407   -1.2345679            1     1.495867    2.0902367     2.089006   0.30835845 0.0042338524 0.0088964337   -0.0103432    1.3480491    1.3606788   0.79656975        0.075    1.3184098          1.8    0.3186279    5.6492228    2.7962153    33.337595 -0.00087698362  -0.19779584 0.0011362187   0.18071693   -1.2074144   0.24331152 
  835000    6.2180202    1.2718374    4.9461827  -0.23020548   0.84791575   0.99673608   0.74461137   -1.2345679            1    1.4892677    2.0815627    2.0753323    0.3109081 0.0031952757 -0.018083916 -0.010715915    1.3445407    1.3547349   0.79415614        0.075    1.3223957          1.8   0.31766246     5.666392    2.8085726    33.337595 0.0041086837  -0.19437057 -0.0010965307   0.21048003 -0.032789287    2.9525817 
  836000     6.224303     1.280347     4.943956   -0.2265444   0.85358898   0.99621537   0.75458615   -1.2345679            1    1.5134294     2.104767    2.1021763   0.33334507 -0.00064781267  0.011520093 -0.012557009    1.3667637    1.3789669    0.7911266        0.075    1.3178712          1.8   0.31645064    5.6880909    2.8016201    33.337595 -0.0020231823  -0.21332625 0.0024904924   0.20381782   0.47607931    1.4723707 
  837000     6.203303    1.2711415    4.9321615  -0.22834107   0.84745179   0.99181372   0.74724345   -1.2345679            1    1.4844039    2.0761453    2.0863195    0.2907468 0.0033191929 -0.017048505   0.00281819    1.3391653    1.3505354   0.79385171        0.075    1.3232412          1.8   0.31754069    5.6685649    2.7899722    33.337595 0.00032938435  -0.18933335  -0.01009097   0.20959796    0.3945575   -0.2286172 
  838000    6.2313595     1.286242    4.9451175     -0.22325    0.8575191    0.9982202   0.75985343   -1.2345679            1     1.497464    2.0818818    2.0930819    0.3174284 0.0031314543 -0.0056157827  0.016659585    1.3497745    1.3627309   0.79415707        0.075    1.3242416          1.8   0.31766283    5.6663854    2.7857537    33.337595 0.0025888313  -0.19339621 -0.00046416737   0.19705664   -1.3162322    1.1405861 
  839000    6.2399957    1.2925931    4.9474027   -0.2294104   0.86175323    1.0087273   0.75973161   -1.2345679            1    1.5021856    2.0819519    2.1075947   0.31701036 0.0057215871  0.087801247 0.0065670373    1.3545198    1.3660343   0.79262332        0.075    1.3290246          1.8   0.31704933      5.67735    2.7986685    33.337595 0.0024505359  -0.19210989 0.0014709348   0.20022081   -2.1605012    1.6714342 
  840000    6.2198729    1.2763155    4.9435574  -0.22979581   0.85090123   0.99436166   0.75131908   -1.2345679            1    1.4691919    2.0796096    2.0598437   0.26812251 -0.0041108809  0.011343236 -0.017837696    1.3231612    1.3349796   0.78783957        0.075    1.3322906          1.8   0.31513583    5.7118228    2.7796786    33.337595 0.0016137902  -0.19446919 -0.012781125   0.19803502  -0.27980996    1.2832735 
  841000    6.2109936     1.275691    4.9353026  -0.22881144   0.85048488   0.99687335    0.7488694   -1.2345679            1    1.5292379    2.1086611    2.1147306     0.364322 0.0041187793 0.0041129214 -0.014925285    1.3836833    1.3946866   0.79417508        0.075    1.3313701          1.8   0.31767003    5.6662568    2.7849719    33.337595 0.00018552171  -0.18404564 -0.0065448563    0.2107086  -0.31023913   0.75880068 
  842000    6.2175175    1.2752547    4.9422628  -0.23324763   0.85019402   0.99737814     0.748026   -1.2345679            1    1.5349227    2.1083149    2.1149258   0.38152741 0.0019887542  0.081111319 0.0045688579     1.389532    1.4003032   0.79330689        0.075    1.3288862          1.8   0.31732276     5.672458    2.7947188    33.337595 -0.0060237033  -0.16874524 -0.00056634612   0.18212404   -1.0141387    3.2751743 
  843000    6.2265889    1.2848953    4.9416936  -0.22811116   0.85662125    1.0078757   0.75162696   -1.2345679            1    1.4939588    2.0820126     2.077905   0.32195862 -0.0044235095  0.029379391  0.005206779    1.3478682    1.3579224   0.79996859        0.075     1.328845          1.8   0.31998744    5.6252209    2.8059316    33.337595 0.00073879821   -0.1797385 0.0058241577   0.19868611  -0.21917478  -0.10851342 
  844000    6.2204068    1.2777352    4.9426716  -0.22936962   0.85184774    0.9950222   0.75246423   -1.2345679            1    1.5142591    2.0990929    2.1100355   0.33364877 -0.0012750645 -0.016541858 -0.0073132961    1.3680058    1.3799576   0.79825195        0.075      1.32936          1.8   0.31930078    5.6373179    2.8047266    33.337595 0.0019815286  -0.18817485 -0.0012223357   0.18553201  -0.45778429     1.413135 
  845000     6.212338    1.2716016    4.9407365   -0.2295465   0.84775851   0.99775321   0.74363863   -1.2345679            1    1.4916663    2.0903324    2.0827937   0.30187279 0.00034548281 0.0069277823 -0.011499208    1.3471284    1.3569962   0.79502742        0.075    1.3278048          1.8   0.31801097    5.6601821    2.7882723    33.337595 0.0006747548  -0.17998893 -0.0037591191   0.19669964  -0.23139011   0.48180411 
  846000    6.2042073    1.2716147    4.9325926  -0.23469998   0.84776729    1.0022878   0.74050456   -1.2345679            1    1.5047289     2.095996    2.0948042   0.32338635 0.0047268218 -0.017768133 -0.00064380446    1.3608001    1.3694467   0.79612376        0.075    1.3309424          1.8   0.31844951    5.6523875    2.7949379    33.337595 -0.0044450317  -0.19262166 0.0017407257   0.19664459   -0.5282014   0.60543476 
  847000    6.2249201    1.2805147    4.9444054   -0.2286088   0.85370075   0.99821515   0.75338684   -1.2345679            1    1.4600658    2.0637381    2.0625087   0.25395074 -0.0018649088 -0.065480878  0.013517753    1.3136332    1.3253334   0.78892044        0.075     1.332033          1.8   0.31556818    5.7039972    2.7882314    33.337595 0.0072014631  -0.19438924 -0.0010971771   0.20564474    1.1016377   0.57729025 
  848000    6.2149037    1.2761455    4.9387582  -0.23221635   0.85078787   0.99347394   0.75174346   -1.2345679            1    1.5217399    2.0958779    2.0937241   0.37561776 0.0055355306 -0.011137016 -0.012460389    1.3756267    1.3876474   0.78661474        0.075     1.331693          1.8    0.3146459    5.7207166    2.7749422    33.337595 -0.0042555467  -0.19022996 0.00016099976   0.19149916   0.87189074 -0.041327033 
  849000    6.2328438    1.2879535    4.9448903  -0.23110714    0.8586601    1.0046716    0.7573068   -1.2345679            1    1.5649661    2.1391649    2.1496884    0.4060449 0.0047932865  0.026918565 0.0024615413    1.4177715    1.4293622   0.79211932        0.075    1.3287113          1.8   0.31684773    5.6809623    2.7963894    33.337595 0.00052916499  -0.20714215 0.0024501865   0.18547523  -0.34541325    1.6325372 
  850000    6.2137048    1.2775684    4.9361364  -0.22857952   0.85173649   0.99978422   0.74896882   -1.2345679            1    1.5228722    2.1055078    2.1028651   0.36024373 0.00083462794 -0.030110363 1.3354107e-06    1.3772983     1.387928   0.79439352        0.075    1.3270443          1.8   0.31775741    5.6646988    2.8062328    33.337595 0.00090143959  -0.17449505 -0.0035317833   0.17564066       1.1114    1.4083526 
  851000     6.221218    1.2809454    4.9402727  -0.22935727   0.85398787   0.99747364   0.75438828   -1.2345679            1    1.4713229    2.0644362    2.0637121   0.28582022 0.0080602399 -0.052578577  0.026316615    1.3246956    1.3366905   0.79983901        0.075    1.3258933          1.8    0.3199356    5.6261322     2.816753    33.337595 -0.0030833112  -0.18896676 -0.0031547895   0.19071406   0.45440893   0.76418695 
  852000    6.2116078    1.2740828     4.937525  -0.23234147    0.8494127    0.9992054   0.74543316   -1.2345679            1    1.4993216    2.0805028    2.0959011    0.3215609 0.0018813256 -0.066306424 0.0045969452    1.3544349    1.3644555   0.80338309        0.075    1.3254207          1.8   0.32135324    5.6013128     2.798978    33.337595 -0.0061481503  -0.18826458 -0.0095978207   0.18264423 -0.048828805  0.019688494 
  853000    6.2366277    1.2826615    4.9539661   -0.2300962   0.85513203   0.99918258   0.75514029   -1.2345679            1    1.5493111     2.119049    2.1395902   0.38929422 0.0037620029   0.01308495 0.0007026754    1.4025377    1.4144481   0.80261524        0.075    1.3236827          1.8    0.3210461    5.6066715    2.8066532    33.337595 -0.0019995834  -0.20219765 0.0036827494   0.18541473   0.46969105    1.4835094 
  854000    6.2293527    1.2882655    4.9410872   -0.2308022   0.85886809    1.0048623   0.75752682   -1.2345679            1    1.5144882    2.0985012    2.1105387   0.33442459 0.0052234366  0.050215726 -0.059274022    1.3672509    1.3788585   0.79169309        0.075     1.323406          1.8   0.31667724    5.6840208    2.7869207    33.337595 -0.0001514008  -0.18495981 -0.0048840242   0.18926009  -0.48940398   0.67793637 
  855000    6.2148186    1.2718672    4.9429513  -0.23128821   0.84793562   0.99414871    0.7464418   -1.2345679            1    1.5228999     2.103679    2.1015208   0.36349996 0.0018048151  0.014482255  0.011067475    1.3778172    1.3887163   0.79752852        0.075    1.3191378          1.8   0.31901141    5.6424315    2.7921862    33.337595 -0.0016724262  -0.19958814 -0.0057256831   0.20175243  -0.58520029   0.70363076 
  856000    6.2172413    1.2757678    4.9414735  -0.23118201   0.85053609    1.0025944   0.74498333   -1.2345679            1    1.4985497    2.0931938    2.0880393   0.31441585 -0.0017180628  0.026972673  0.019158745    1.3537504    1.3632261   0.79434127        0.075    1.3162303          1.8   0.31773651    5.6650714    2.7852744    33.337595 0.0084183725  -0.17729802 -0.0023590699   0.18706241   0.12468863    1.4162563 
  857000     6.225659    1.2807918    4.9448672  -0.23041126   0.85388553    0.9928853   0.75740113   -1.2345679            1    1.4619532    2.0669303    2.0541254   0.26480379 0.0065652549 -0.0014192471 0.0030553918    1.3147403    1.3279401   0.79358329        0.075    1.3222634          1.8   0.31743332    5.6704823    2.7918481    33.337595 -0.0002630601  -0.19609889 -0.0011952289   0.19264603   -0.5529602    1.0822191 
  858000    6.2282436    1.2906401    4.9376035  -0.23204025   0.86045125    1.0023262   0.76197056   -1.2345679            1    1.5358337     2.128536    2.1194943   0.35947087 -0.0028171671 -0.045272919 -0.010357905    1.3877327    1.4005464   0.79451849        0.075    1.3265907          1.8    0.3178074    5.6638078    2.7956804    33.337595  0.001588405  -0.19841691 0.0063204332   0.18172578   0.98498999  0.080226066 
  859000    6.2068565    1.2659501    4.9409064   -0.2310784   0.84399073   0.99372135   0.74005404   -1.2345679            1    1.5730752    2.1430996    2.1445297   0.43159613 -0.0023311712 -0.040085642  0.021642013     1.429234    1.4389492   0.79494422        0.075    1.3231731          1.8   0.31797769    5.6607745    2.7875112    33.337595 -0.0010119595  -0.20304546 0.0063200989   0.18793981   0.23625543   0.48912171 
  860000     6.210824    1.2782169     4.932607  -0.23523488   0.85216887    1.0028954   0.74754103   -1.2345679            1    1.4853395    2.0845006    2.0634113   0.30810652 0.0054837691 -0.047082335  -0.01648658    1.3400431    1.3499753   0.80418163        0.075    1.3212699          1.8   0.32167265    5.5957508    2.8298791    33.337595 -0.001412184  -0.19038716 -0.0060704481   0.19491594  -0.69057858    1.2106833 
  861000    6.2272254    1.2799608    4.9472646  -0.22916406   0.85333145   0.99961707   0.75178753   -1.2345679            1    1.4523156    2.0397692    2.0539201   0.26325736 0.0028129193  0.024022212 0.0017876642    1.3061938    1.3173939   0.79766896        0.075    1.3213203          1.8   0.31906758     5.641438    2.7843716    33.337595 0.0040014543  -0.20039267 0.00018204144   0.19898221  0.022571308    0.7014831 
  862000    6.2114946    1.2784996     4.932995   -0.2344985   0.85235735     1.005591   0.74598848   -1.2345679            1    1.5415305    2.1212559    2.1227478   0.38058793 0.0027506799  0.012184643  0.043247926    1.3965359    1.4058025   0.79435615        0.075    1.3200469          1.8   0.31774246    5.6649653      2.80007    33.337595 0.0020201789  -0.17940669 0.0032341852   0.19036187  -0.57884614    1.3135577 
  863000    6.2289102    1.2886339    4.9402762  -0.22952924   0.85911373     1.009618    0.7546405   -1.2345679            1    1.5072829    2.0994407    2.0958584    0.3265496 -0.0024718995  0.012157226 -0.033117794    1.3606066    1.3710114    0.7853705        0.075    1.3228114          1.8    0.3141482    5.7297798    2.7538272    33.337595 0.0014489134  -0.17763031 0.0050418262    0.1949902 -0.030001759   0.88671122 
  864000     6.226007    1.2878297    4.9381773  -0.23413104   0.85857757    1.0058142   0.75637352   -1.2345679            1    1.5389631    2.1115359    2.1285562     0.376797 -0.0049638084 -0.052922981  0.020853339    1.3919499    1.4032049    0.7985711        0.075    1.3197501          1.8   0.31942844     5.635065    2.7894619    33.337595 -0.0018509792  -0.18408282 -0.0019915752   0.19322717    1.7641141    1.9740235 
  865000    6.2257541    1.2838524    4.9419017  -0.22929484   0.85592599     1.002795    0.7539771   -1.2345679            1    1.5055155    2.0949505    2.1013392   0.32025682  0.013887679 -0.057445757  0.017635664    1.3589681    1.3701649   0.79110673        0.075    1.3212344          1.8   0.31644269    5.6882337    2.7850011    33.337595 0.00035886467  -0.18810526 -0.0012177908   0.18081068  -0.36135507   0.68546398 
  866000    6.2082093    1.2740063    4.9342029  -0.22794871   0.84936174    1.0067975   0.74007459   -1.2345679            1    1.5200469    2.1063716    2.1142598   0.33950907  0.014242002 -0.042812704 -0.0055614555    1.3762017     1.384156   0.78658501        0.075    1.3237987          1.8     0.314634    5.7209328     2.772572    33.337595 -0.00072961974  -0.18237664 0.0043315191   0.19712512   0.36098193    1.4966432 
  867000    6.2111755     1.276823    4.9343526  -0.23081315   0.85123953   0.99011907    0.7548385   -1.2345679            1    1.4139156     2.031338    2.0353128   0.17509605 -0.0063045119   0.05204879  0.014132212    1.2672008    1.2802759   0.78979982        0.075    1.3240151          1.8   0.31591993    5.6976463    2.7879173    33.337595 0.0025572252  -0.19641965 0.00040849898   0.19797091  -0.20433878   -1.2588301 
  868000      6.19419    1.2685411    4.9256489   -0.2378099   0.84571814   0.99822153   0.73985605   -1.2345679            1    1.4678847    2.0735497    2.0544422   0.27566227 -0.0024834426 -0.035817823  -0.02837928     1.324082    1.3331514   0.79888702        0.075    1.3247264          1.8   0.31955481    5.6328366     2.794619    33.337595 0.0016374149  -0.20232286 0.0015262848   0.19095583   -0.2890941    1.0831928 
  869000    6.2103198    1.2748315    4.9354883  -0.23417996   0.84991184    1.0063964   0.74128532   -1.2345679            1     1.515187    2.0942892    2.1011612    0.3501107 -0.0023478493 -0.038201997 0.0010676577    1.3711065    1.3793503   0.79615643        0.075    1.3258912          1.8   0.31846257    5.6521556    2.7991845    33.337595 -0.0029460266  -0.18922325 -0.0042767981   0.19603827   0.46857664   0.98700115 
  870000    6.2156585    1.2830453    4.9326132  -0.22968253   0.85538789     1.004512   0.75187296   -1.2345679            1    1.5759162    2.1546891    2.1372581   0.43580128 -0.0010488762 -0.003872319 -0.031952736    1.4297778    1.4403338   0.79371296        0.075    1.3279173          1.8   0.31748518    5.6695559    2.7756951    33.337595 0.0012456138  -0.20981109 -0.0028408326   0.19162036    1.3533014   0.29836134 
  871000    6.1963533    1.2761963     4.920157   -0.2354936   0.85082175   0.99077765   0.75367325   -1.2345679            1    1.4827032    2.0856184    2.0703178   0.29217346 -0.0041701378  0.020637527 -0.0031124545    1.3362149    1.3489746   0.79862134        0.075    1.3256357          1.8   0.31944853    5.6347105    2.8031161    33.337595 -0.00078860229  -0.18775388 0.0024045644   0.20658715    0.3723861    1.0791467 
  872000    6.2263309    1.2925474    4.9337835  -0.23147992   0.86172281    1.0152993   0.75511628   -1.2345679            1    1.5337768     2.131323    2.1121997   0.35780785 -0.015602596  0.063845355 -0.022537347    1.3870081    1.3967385   0.80162605        0.075    1.3223256          1.8   0.32065042      5.61359    2.8016525    33.337595 -0.00057226772  -0.20764594 -0.0029699851   0.19286202   -1.4839376    2.2620082 
  873000    6.2318388    1.2936359    4.9382028  -0.23388836    0.8624485    1.0006738   0.76650237   -1.2345679            1    1.5428836    2.1214987    2.1447822   0.36236993 -0.0080938762  0.067588941  0.034307477    1.3939018    1.4078193   0.79800057        0.075    1.3222411          1.8   0.31920023    5.6390937    2.7808991    33.337595 -5.9530455e-05  -0.19055446 0.0093776137   0.20145728   -1.4442395    1.2283662 
  874000    6.1952891    1.2727589    4.9225303  -0.24358562   0.84853006    1.0000185   0.74337289   -1.2345679            1    1.4613098    2.0526107     2.069773   0.26154572 0.0069032276  0.024128755 -0.026447346    1.3168235    1.3263339    0.8000321        0.075    1.3271445          1.8   0.32001284    5.6247743    2.7936728    33.337595 -0.0024204958  -0.20849126 0.0021372277   0.17651854  -0.72463453   0.77161675 
  875000    6.2139463    1.2786814    4.9352649  -0.23615433   0.85247852    1.0002526   0.74990089   -1.2345679            1    1.5412147    2.1173739    2.1244682   0.38180197 -0.0037427415 -0.075767908  0.031137609    1.3954596    1.4062072   0.79706595        0.075    1.3262454          1.8   0.31882638    5.6457059     2.778846    33.337595 0.0015016901  -0.20295791 0.0038829605   0.20713362    1.1319924    1.1321007 
  876000    6.2223648    1.2860884    4.9362763  -0.23155768    0.8574167    1.0044713     0.755339   -1.2345679            1    1.5146232     2.113732    2.0843987   0.34573884 -0.003412939 -0.0099151254 0.0023405903    1.3678111    1.3790463   0.79785836        0.075    1.3241872          1.8   0.31914334    5.6400988    2.7972862    33.337595 -0.0048162272  -0.18926676 0.0030481534   0.17553264    1.1009769    3.2644614 
  877000    6.2125531     1.271606    4.9409471  -0.23427646   0.84776146   0.99715573   0.74405852   -1.2345679            1    1.5120161    2.1117938    2.0890445   0.33521009 -0.0049272441 -0.010536824  0.016493749    1.3673966    1.3774267   0.80030735        0.075    1.3222268          1.8   0.32012294    5.6228398    2.7773298    33.337595 0.0054171025  -0.20595489 0.0023072783   0.20780809  -0.55198869    1.3493769 
  878000    6.2148325    1.2826214    4.9322112  -0.23383162   0.85510524    1.0099376    0.7476263   -1.2345679            1    1.5927128    2.1676202    2.1738068   0.43671148 -0.0038065511  0.017564763 -0.0047467598    1.4473998    1.4563981   0.80360138        0.075    1.3253854          1.8   0.32144055    5.5997913    2.8168035    33.337595 -0.0002188188  -0.20044932 -0.00063283704   0.18266759  0.089517185 -0.042601039 
  879000    6.2292669    1.2817902    4.9474766  -0.22594752   0.85455115    1.0023289   0.75197112   -1.2345679            1     1.485551    2.0878219    2.0774964    0.2913348 0.0038088436 -0.038508963 0.0033261939    1.3393936    1.3502633   0.79921634        0.075    1.3287891          1.8   0.31968654    5.6305155    2.7923051    33.337595 -0.0084011347  -0.18511907 0.0024597689   0.20411243  -0.68572187   0.99021985 
  880000    6.2193912    1.2793511    4.9400401  -0.22806323   0.85292502   0.99852802   0.75185511   -1.2345679            1    1.4137489    2.0266741    2.0267108   0.18786163 0.0054009389 -0.027230602  0.020172341     1.267614    1.2789742   0.79877951        0.075    1.3237328          1.8    0.3195118    5.6335947    2.7912731    33.337595 -0.0002218634  -0.19407349 -0.0036882717   0.20537307  -0.32519082   0.65179447 
  881000    6.2263156    1.2785662    4.9477494  -0.23437316   0.85240176    1.0011814   0.74912587   -1.2345679            1    1.5581142    2.1267459    2.1473185   0.40027826 -0.010633565 -0.0045544827  0.016404221    1.4125098    1.4229814   0.79928353        0.075    1.3232738          1.8   0.31971341    5.6300422    2.7778376    33.337595 -0.014520037  -0.18833997 0.0018464486   0.19486472  -0.29316644    1.6895648 
  882000    6.2181351    1.2805386    4.9375965   -0.2334418   0.85371669   0.99656759   0.75455794   -1.2345679            1    1.5106895    2.0949495    2.0985553   0.33856365 0.0061854694 -0.047452604  0.031806213    1.3640293    1.3761794    0.8013423        0.075     1.326619          1.8   0.32053692    5.6155777    2.7842707    33.337595 0.0098820514  -0.19724672 0.0045859446   0.19997145  -0.75184505    1.5275816 
  883000    6.1940425    1.2673866    4.9266559  -0.23557934   0.84494844   0.99033001   0.74403191   -1.2345679            1    1.5174593    2.0967214    2.1184821   0.33717432 -0.0053095581 -0.059090593 0.0058588874    1.3728449    1.3837911   0.79938955        0.075    1.3313685          1.8   0.31975582    5.6292955    2.7911647    33.337595 -0.0067363852  -0.19944699 -0.0038820627   0.18883624  -0.02855623   0.59413939 
  884000    6.2136157    1.2708284    4.9427874  -0.23174337   0.84724303   0.99703605   0.74326316   -1.2345679            1    1.4891387    2.0705471    2.0814539   0.31541494 -0.010160771 -0.028354789 -0.0053494099    1.3446737    1.3545653   0.79681951        0.075    1.3314146          1.8    0.3187278    5.6474521    2.8051089    33.337595 -0.0042761954  -0.17467647 0.0066176131   0.19719631  -0.21727817    1.7546507 
  885000    6.2086102    1.2734437    4.9351665   -0.2320309   0.84898665   0.99393664   0.74837002   -1.2345679            1    1.5420867    2.1262896    2.1271666   0.37280401 -0.0033227738  0.015946877 0.0033075443    1.3966292    1.4079318   0.80024385        0.075    1.3301939          1.8   0.32009754     5.623286    2.8200809    33.337595 0.00014461909   -0.1942049 -0.0021499911   0.18046044    0.3347783    1.5933671 
  886000     6.208108    1.2754392    4.9326687  -0.23642973   0.85031703   0.99920803    0.7469637   -1.2345679            1    1.5504807    2.1400658    2.1238111   0.38756524 0.00047094926  0.020860808 0.0023957923    1.4052965    1.4156143   0.79381478        0.075    1.3355112          1.8   0.31752591    5.6688287    2.7896859    33.337595 0.0015456956  -0.18523119 -0.0088602507   0.18277351  -0.73701023    1.5045103 
  887000    6.2228986    1.2799234    4.9429752  -0.22982386   0.85330654    1.0021242   0.75000432   -1.2345679            1    1.4542682    2.0587945    2.0550915   0.24891875 -0.0086746098 0.0093252421 0.0062614102    1.3084931    1.3190082    0.7919575        0.075    1.3384702          1.8     0.316783    5.6821231     2.798036    33.337595 -0.0068171007  -0.17700483 -0.0094701873   0.20956958  -0.06837159   0.47754884 
  888000    6.2116795    1.2802917    4.9313878   -0.2280371   0.85355208    1.0035064   0.74946049   -1.2345679            1    1.4486774    2.0601588    2.0643742   0.22149905 -0.00049809988  0.047011971  0.031476764    1.3030079    1.3132307   0.80012722        0.075    1.3386074          1.8   0.32005089    5.6241056    2.8258808    33.337595 0.0028609875  -0.20084589 -0.0044750276    0.1726683  -0.18905994  -0.37668049 
  889000    6.2192772     1.272749    4.9465282  -0.22982853   0.84852348   0.99104213   0.74959522   -1.2345679            1    1.5306523    2.1109532    2.1040669   0.37693691 -0.0023064601 0.0096167517  0.023847787    1.3849567     1.396888   0.79956113        0.075    1.3362893          1.8   0.31982445    5.6280875    2.8014847    33.337595 0.0029599399  -0.20770058 -0.0053977449    0.2089287      0.09056    1.5926265 
  890000    6.2183687    1.2788362    4.9395326  -0.23440948   0.85258173   0.99503736   0.75369742   -1.2345679            1     1.496636    2.0779423    2.0962278   0.31573798 0.00096541331  0.012176924 0.00077999513    1.3501431    1.3623325   0.79075636        0.075    1.3355407          1.8   0.31630254    5.6907541    2.7702427    33.337595 0.0097814482  -0.19815412 -0.001453724    0.1847995  -0.22450863   0.83686734 
  891000    6.2247063    1.2734709    4.9512354  -0.22888169   0.84900474    1.0006997   0.74370416   -1.2345679            1    1.5235345    2.0934298    2.1076757   0.36949796 -0.0032114904  -0.03593618 -0.0032351854    1.3789839    1.3884667   0.79145208        0.075    1.3354915          1.8   0.31658083    5.6857517    2.7812749    33.337595 0.0042355963  -0.19035385 0.0017640807   0.18449383  0.037915902    2.1977439 
  892000    6.2276501    1.2838555    4.9437946  -0.23178091   0.85592802    1.0050649    0.7524042   -1.2345679            1    1.4813634    2.0808393    2.0751513   0.28809949 -0.0095312344 -0.034595538  0.019354621    1.3351217    1.3457064   0.79294802        0.075    1.3329818          1.8   0.31717921    5.6750252    2.7830254    33.337595 -0.0077786234  -0.19759723 0.0030638067   0.19898446 -0.046774802    1.2636084 
  893000    6.2255408    1.2843868     4.941154  -0.23043387   0.85628227   0.99888061   0.75729904   -1.2345679            1    1.5391606    2.1272012    2.1241709   0.36610952 0.0013594002  0.010304031 0.0050782139    1.3919675    1.4043383   0.79179498        0.075    1.3322098          1.8   0.31671799    5.6832894    2.7680687    33.337595 -0.0011479759  -0.18555868 0.00077573809   0.19294522 -0.044125279    2.7321989 
  894000    6.2178843    1.2826887    4.9351956  -0.23218231   0.85515012    1.0024029   0.75293466   -1.2345679            1    1.5265198    2.0994134    2.1045593   0.37558673 -0.0049386073 -0.025568955  0.027835398    1.3801751    1.3912221   0.80038391        0.075    1.3349546          1.8   0.32015356    5.6223019    2.8216013    33.337595 -0.003127378  -0.19686434 -0.005625349   0.20307951   0.76351293    1.2428411 
  895000    6.2102877    1.2744003    4.9358874  -0.22954986   0.84962438    1.0013304   0.74431619   -1.2345679            1    1.5029783    2.0918455    2.1026631   0.31442636 0.0036827672 -0.034979606 0.0013703461    1.3583087    1.3678254   0.79752052        0.075     1.333231          1.8   0.31900821     5.642488    2.8080909    33.337595 0.0026222407  -0.19370296 -0.0037787625   0.19236885   0.71065955   0.83669978 
  896000    6.2159438    1.2840503    4.9318935  -0.22810268   0.85605791    1.0093157   0.74967243   -1.2345679            1    1.5055388    2.1002341    2.0910097   0.32537257 0.0024929726 -0.077159015 -0.019582014    1.3598281    1.3693081   0.79286775        0.075    1.3369652          1.8    0.3171471    5.6755997    2.7518694    33.337595 -0.0042820564  -0.21204343 -0.0012361772   0.20217409  -0.25955702    1.3014355 
  897000    6.2201741    1.2788688    4.9413053  -0.23478681   0.85260348    1.0077764   0.74488793   -1.2345679            1    1.5331709    2.1074023    2.1177792   0.37433129 0.0097676329 -0.055757188 -0.014458264    1.3883902     1.397148     0.793883        0.075    1.3379657          1.8    0.3175532    5.6683415    2.7706212    33.337595 -0.0089223099  -0.17839737 -0.00047660488   0.20097595   0.55588817    1.6052366 
  898000    6.2272743    1.2817515    4.9455227  -0.23068754   0.85452534    1.0001043   0.75347219   -1.2345679            1    1.5436162    2.1182118    2.1239176   0.38871925 0.0068854996  0.027115316 0.00058778152     1.397167    1.4086288   0.79484563        0.075    1.3409384          1.8   0.31793825    5.6614767     2.784248    33.337595 -0.0037714703  -0.18622788 0.0024594612   0.19973214   0.14457041    1.3130277 
  899000    6.2191913     1.275438    4.9437533  -0.22567134    0.8503162   0.99343644   0.75097026   -1.2345679            1    1.5587428    2.1461036    2.1300121   0.40011259 -0.00019657952  0.093365383 -0.023333107    1.4127799    1.4246553   0.79989356        0.075     1.341547          1.8   0.31995743    5.6257485    2.8155441    33.337595 0.0023447685  -0.19010982 -0.0026059606   0.20065628 0.0056992585    1.7230956 
  900000    6.2193856    1.2917756      4.92761   -0.2310784   0.86120823    1.0113485   0.75698793   -1.2345679            1    1.4730463     2.071287    2.0647439   0.28310799 0.0023801231    0.1339284 0.0022101449    1.3259137    1.3365412    0.7944636        0.075    1.3416943          1.8   0.31778544    5.6641991    2.7984021    33.337595 0.0025772012  -0.18328177 0.0072707841   0.19018809  -0.99874129  -0.60017899 
  901000     6.211736    1.2802738    4.9314622  -0.23548993   0.85354016    1.0041192   0.74901474   -1.2345679            1    1.5077422    2.0773957    2.0984229   0.34740796  0.002953944  0.043831811  0.021953232    1.3621594    1.3722128   0.79695889        0.075    1.3410681          1.8   0.31878356    5.6464644    2.8035339    33.337595 -0.004913448  -0.19615528 -0.0057214907   0.18787029  -0.60210185  0.079906746 
  902000    6.2121699    1.2748917    4.9372782  -0.23167663   0.84995198    1.0005023   0.74544637   -1.2345679            1    1.5546084     2.123874    2.1256918   0.41425927 0.0036804756 -0.0098142041 -0.016040918    1.4097191    1.4195672   0.79715426        0.075     1.344286          1.8    0.3188617    5.6450806    2.7861313    33.337595 0.0042256315  -0.17628227 -0.00036068839   0.20092226  -0.88966016    1.6162166 
  903000    6.2189011    1.2827466    4.9361545   -0.2318213   0.85518875    1.0129367   0.74568514   -1.2345679            1    1.5091162    2.0886398    2.0939353   0.34477364 -0.0071106956 -0.026798771 -0.0024705955    1.3641806    1.3723968   0.79849231        0.075     1.344952          1.8   0.31939692     5.635621    2.7771796    33.337595 -0.0048361275  -0.19456418 -0.00086062044   0.19248018  -0.28399182    1.5440161 
  904000    6.2079318    1.2730129    4.9349189  -0.23332046   0.84869941    1.0046858   0.74041875   -1.2345679            1    1.5542437    2.1208592    2.1320117   0.40986021 -0.0010105052  0.038588045 -0.0073319368    1.4103316    1.4186379   0.79868873        0.075    1.3410578          1.8   0.31947549     5.634235    2.7776696    33.337595  0.004326399  -0.19501328 0.00041996621   0.18752085   0.18975743     1.273706 
  905000    6.2238468    1.2776249    4.9462219   -0.2289248   0.85177419   0.99298877   0.75375168   -1.2345679            1    1.4965795    2.0655065    2.1048106   0.31942126 -0.0069950889 0.0084610539 0.0062677247    1.3500759    1.3625524   0.79713838        0.075    1.3409565          1.8   0.31885535     5.645193    2.7868986    33.337595 -0.002853721  -0.19975091 -0.0014619869   0.20864943   0.90842916    1.5059922 
  906000     6.230606     1.282879     4.947727  -0.23061885   0.85527699   0.99307754   0.75962544   -1.2345679            1    1.5121518    2.1061524    2.0809533   0.34934971 -0.0012283783 -0.017800846  -0.02869759    1.3645066    1.3781128   0.79765239        0.075    1.3396796          1.8   0.31906096    5.6415552    2.7793064    33.337595 -0.0032467469  -0.19512825 -0.0063567203   0.18494348    1.5139405    1.3817275 
  907000    6.2130571    1.2818697    4.9311874  -0.23541056   0.85460411    1.0029998   0.75159494   -1.2345679            1    1.5717135      2.13541    2.1480202   0.43171018 -0.0032509053 -0.010929794  0.017502983    1.4256291    1.4363352   0.79763369        0.075    1.3383489          1.8   0.31905348    5.6416875    2.7960724    33.337595 -0.0027455853  -0.19215814  0.003551752   0.18638774   -0.1443302    1.0927246 
  908000    6.2020423    1.2684129    4.9336294  -0.23157408   0.84563268     1.003231   0.73623247   -1.2345679            1    1.5139832    2.1081256    2.0961169   0.33770706 0.0079300531 -0.013801753 0.0066940079    1.3708848    1.3785737    0.7953116        0.075     1.335861          1.8   0.31812464    5.6581596    2.7966645    33.337595 -0.00069893706  -0.17944372 -0.00033497162   0.20357795   0.21369306    1.6858747 
  909000    6.2137371    1.2761969    4.9375402  -0.23253142   0.85082217   0.98478083   0.75783834   -1.2345679            1     1.514226    2.0950825    2.0967657   0.35082977 -0.0067308081 -0.069204632  0.021860152    1.3669282    1.3813068   0.79183884        0.075    1.3378371          1.8   0.31673554    5.6829746     2.757483    33.337595 0.0006471528  -0.19090706 0.0045725396   0.18683581   0.21998717   0.78805829 
  910000    6.2162129    1.2811559    4.9350569  -0.23231342   0.85412827    1.0019819   0.75149551   -1.2345679            1    1.4741638    2.0799777    2.0661643   0.27634928 0.0097831736 -0.031381886  0.011313575    1.3280988    1.3389229   0.79390793        0.075    1.3393687          1.8   0.31756317    5.6681636    2.7745063    33.337595 -0.0036879602  -0.19263489 -0.005665729   0.17665078    0.1566755     1.009691 
  911000    6.1950298    1.2748866    4.9201432  -0.23507969   0.84994861   0.99550324   0.74891213   -1.2345679            1    1.5336974    2.1265704    2.1154707   0.35905118 -0.0041485766 0.0084280699 -0.0079807167    1.3881345     1.399331   0.79326187        0.075      1.34122          1.8   0.31730475    5.6727799    2.7853658    33.337595 -0.003771744  -0.18093929 -0.0029063056   0.20379212    1.2185674   0.15943355 
  912000    6.2217666     1.286635    4.9351316  -0.23305117   0.85778107   0.99874812   0.75993074   -1.2345679            1    1.5787599    2.1363859     2.166366   0.43352774 -0.0098890339 0.0012156905 0.0045302805    1.4310553    1.4439555    0.7955137        0.075    1.3413353          1.8   0.31820548    5.6567222    2.8074109    33.337595 0.0077736882  -0.19093883 -0.0053305324   0.18639799   -0.2174993    2.3475183 
  913000    6.2263101    1.2817997    4.9445104  -0.22940083   0.85455745    1.0001146   0.75351944   -1.2345679            1    1.5370557     2.113355    2.1069945   0.39081759 -0.0023533017 -0.019722628  0.020946208    1.3905973    1.4020668   0.79757606        0.075    1.3415695          1.8   0.31903043    5.6420951    2.8040908    33.337595 0.0016761485  -0.21261294 0.0095394888   0.19631843      0.45061   0.38814493 
  914000    6.2105865    1.2743109    4.9362756  -0.22958194   0.84956475    1.0018078   0.74388366   -1.2345679            1    1.4731184    2.0672119    2.0644736   0.28766971 -0.0023746367 -0.026138676  0.045170132    1.3285329    1.3379011    0.7972941        0.075    1.3405222          1.8   0.31891764    5.6440904    2.8026235    33.337595 0.0080942175  -0.19253508 -0.00023959487   0.18516468  -0.05266286   0.79561089 
  915000    6.2040166    1.2701791    4.9338375   -0.2326892   0.84681016   0.99142702   0.74642475   -1.2345679            1    1.4954334     2.096135     2.080484   0.30968104 0.0099432701 0.0090359686 0.0024510955    1.3503539    1.3616171   0.79183685        0.075    1.3406195          1.8   0.31673474    5.6829889    2.7688457    33.337595 0.0060516117  -0.20595757 0.0056577839   0.20288892    0.9741396   0.88028021 
  916000    6.2161987    1.2779702    4.9382285  -0.23262095   0.85200437    1.0008692   0.74866933   -1.2345679            1    1.5600397    2.1381981    2.1363854   0.40553556 -0.0010948248  0.024544984 0.0084940811     1.414524     1.424949   0.79785406        0.075    1.3417864          1.8   0.31914162    5.6401292    2.7740791    33.337595 -0.010248707  -0.19594563 -0.0041853238   0.19651475    0.4897934    1.5368416 
  917000    6.1917639    1.2619324    4.9298315  -0.23323463   0.84131218    0.9818588   0.74375301   -1.2345679            1    1.4999528    2.0895152    2.0908572   0.31948608 0.0012463142  0.065067549  0.021526584    1.3553927     1.367428   0.79457343        0.075    1.3460397          1.8   0.31782937    5.6634161    2.7800069    33.337595 -0.0018901527  -0.19370977  0.003639561    0.1749741  -0.40949135  -0.62296103 
  918000     6.208788    1.2704185    4.9383694  -0.23413889    0.8469698   0.99421737   0.74475756   -1.2345679            1    1.5246657    2.1136219    2.1007668   0.35960847 -0.0042363976 -0.047187832 -0.0057852455    1.3799104    1.3904729   0.79479815        0.075    1.3452007          1.8   0.31791926    5.6618149    2.7831814    33.337595 -0.0041832703  -0.19751826 0.0036295811   0.19016393   0.37365748    2.2039528 
  919000    6.2246325     1.279411    4.9452216  -0.22610556   0.85296491   0.99626179   0.75349643   -1.2345679            1    1.4994091    2.0868941    2.0800549   0.33127831 0.00010664271 -0.040062513 -0.018127078    1.3529552    1.3649403   0.79497219        0.075    1.3479175          1.8   0.31798888    5.6605753    2.7827606    33.337595 0.00060639014   -0.1937853 0.0025439265   0.20116691   -0.2357277    1.4411719 
  920000    6.2224696    1.2732046     4.949265  -0.22886936   0.84882722   0.99072147   0.75033258   -1.2345679            1    1.4816495    2.0724585    2.0838544   0.28863571 0.0029472624 -0.0024680284 -0.035858533    1.3358106    1.3479285   0.79806776        0.075    1.3441212          1.8    0.3192271    5.6386189    2.7932779    33.337595 -0.0063942883  -0.19020145 0.0035766954   0.17483675   -1.1149256   0.37789834 
  921000    6.2184739    1.2812197    4.9372542  -0.23008861   0.85417077    1.0052012   0.74933198   -1.2345679            1    1.4805615    2.0793836    2.0735171    0.2887837 0.0043631071  0.069218145  0.016936139     1.334917    1.3448861   0.79309905        0.075    1.3448856          1.8   0.31723962    5.6739445    2.7966115    33.337595 -0.0086319046  -0.20809476 0.0060973227   0.21378739  -0.28851443  -0.51273443 
  922000    6.2158777    1.2749718    4.9409059  -0.22865829   0.85000539    1.0019808   0.74451011   -1.2345679            1    1.5081088    2.0989518    2.0917528   0.33362194 -0.0036559703  0.012820548 -0.018767045    1.3634016    1.3728681   0.78894948        0.075    1.3409307          1.8   0.31557979    5.7037873    2.7749315    33.337595 -0.0031600565  -0.17959554 0.0048079594   0.18962556 0.00050142369    2.4698712 
  923000    6.2286633    1.2718463     4.956817  -0.23078036   0.84792164   0.99706788   0.74439095   -1.2345679            1    1.4812046    2.0731914    2.0671113   0.30331113 -0.0062686887  0.016751343 -0.025074119    1.3365205     1.346627   0.79492013        0.075    1.3371712          1.8   0.31796805    5.6609461    2.7768108    33.337595 -0.0050833279    -0.186366 0.0028463267   0.19939263  0.059554968   0.09569663 
  924000    6.2226122    1.2798613    4.9427509  -0.22922289   0.85326518   0.99548351   0.75454569   -1.2345679            1    1.5052337    2.0861705    2.1002122   0.32931845 -0.0004278765 -0.031806857 0.0063205692    1.3585759      1.37087      0.79313        0.075    1.3359524          1.8     0.317252    5.6737231     2.780818    33.337595 0.0064363336  -0.20427541 -0.0045866731   0.18227684    1.3118524 -0.057865646 
  925000    6.2394726    1.2898351    4.9496375  -0.23153674   0.85991453    1.0126988   0.75385808   -1.2345679            1    1.4656034    2.0752356    2.0548054   0.26676931 0.0053659902  0.016062626 0.0083791116    1.3190792    1.3289161    0.7886345        0.075    1.3371003          1.8    0.3154538    5.7060654    2.7928589    33.337595 -0.0072900883  -0.19628542 0.0080864821   0.19693632 0.0028097251   -0.4453186 
  926000    6.2234545    1.2857955     4.937659  -0.23332498   0.85722143   0.99342615   0.76267816   -1.2345679            1    1.5161137    2.1075053    2.0957345   0.34510135 0.0064286818 0.0043124416 -0.007894699    1.3678752    1.3820276   0.79203216        0.075    1.3410955          1.8   0.31681286    5.6815875    2.7847407    33.337595 -0.0015777974  -0.18209266 -0.00082802585   0.19341918  -0.20412744    2.0829456 
  927000    6.2170945    1.2803698    4.9367247  -0.23673512   0.85360418    1.0098459   0.74514644   -1.2345679            1    1.5008116    2.0854417    2.0841698   0.33282318 -0.0075054342  0.019811978 -0.0092316096    1.3559806    1.3645093   0.79299063        0.075    1.3366766          1.8   0.31719625    5.6747203    2.7797726    33.337595 -0.0018623095  -0.19817198 -0.0024905802   0.18426106   -0.9772999     2.075799 
  928000    6.2288191    1.2764099    4.9524092  -0.22933603   0.85096414    1.0085981   0.74153947   -1.2345679            1    1.5101354    2.0962403    2.0882606   0.34590525 -0.0033421954 -0.020506148  0.034544878    1.3660055    1.3740015    0.7971233        0.075    1.3372734          1.8   0.31884932    5.6452998    2.7993131    33.337595 -0.0040311985  -0.20763065 0.0064634037   0.20407314   0.34718934   0.24666942 
  929000     6.215959    1.2896303    4.9263287  -0.23526832   0.85977801    1.0078232   0.75701253   -1.2345679            1    1.5596074    2.1342399     2.124442   0.42014012 0.00097155282 0.0056772037 -0.031211822      1.41247    1.4235781   0.79779889        0.075    1.3307801          1.8   0.31911955    5.6405193    2.7780961    33.337595 0.00036056905  -0.20486235 0.0045917978   0.19504084  -0.21520842     1.890861 
  930000    6.2127025    1.2760372    4.9366653   -0.2310356   0.85071569   0.99849993   0.74813095   -1.2345679            1    1.4912826    2.0829973     2.080995    0.3098556 -0.0021439708 -0.028440454  0.042606291    1.3458716    1.3565117   0.79660031        0.075    1.3294923          1.8   0.31864013    5.6490061    2.8055838    33.337595 -0.0037052055  -0.18248298 0.00011346264    0.1869364   0.53617698     1.522323 
  931000    6.2053833    1.2755817    4.9298016  -0.23161939   0.85041199   0.99948356   0.74693328   -1.2345679            1    1.5070616    2.0958825    2.1022705   0.32303183 0.0055462579 -0.0036049922 0.0001005933    1.3618833    1.3721579   0.79898402        0.075    1.3295092          1.8   0.31959361    5.6321527    2.8143003    33.337595  0.002177328  -0.21958147 -0.0015365648   0.19245327   0.14301274  0.049555693 
  932000    6.2031731     1.268291    4.9348821  -0.23417916   0.84555139   0.99126844   0.74440192   -1.2345679            1    1.5154676     2.100522    2.0923086   0.35357233 0.0020912033  0.053964206  0.015822625    1.3707814    1.3816728   0.78946315        0.075    1.3287624          1.8   0.31578526     5.700076    2.7653162    33.337595 0.0031036869    -0.188083 -0.0042132101   0.19256484  -0.61611543   0.82524098 
  933000    6.2198532    1.2802172     4.939636   -0.2321119   0.85350244    1.0020791   0.75036757   -1.2345679            1    1.4922016    2.1075918    2.0656227   0.30339034   0.00565559 -0.0050098265 -0.0042561163    1.3463558    1.3569476    0.7936712        0.075    1.3330877          1.8   0.31746848    5.6698542    2.7796125    33.337595 0.0060443114  -0.19854173 -0.0032632706   0.17326371   0.45575966   0.33061487 
  934000    6.2240939    1.2779472    4.9461468   -0.2297807   0.85198903    1.0086418   0.74324576   -1.2345679            1    1.5325713    2.1084269     2.119364   0.36992297 -0.0095940319 -0.0037756259   0.00172346    1.3881097    1.3964315   0.80144407        0.075     1.332193          1.8   0.32057763    5.6148647     2.802958    33.337595  -0.00229279  -0.18102489 -0.0051157331   0.19981365   0.17887114   0.89065678 
  935000    6.2191061    1.2911817    4.9279244  -0.23601547   0.86081228    1.0095945     0.757535   -1.2345679            1    1.4671507    2.0692846    2.0603409   0.27182646 0.0069174356 -0.017798768 0.0054114174    1.3199118    1.3308823   0.80002012        0.075    1.3289296          1.8   0.32000805    5.6248585    2.8041265    33.337595 0.0025020886  -0.19254522 -0.0043205128   0.20062996   0.11953758 -0.074942533 
  936000    6.2150025    1.2849462    4.9300563  -0.23067458   0.85665518    1.0042917   0.75417329   -1.2345679            1    1.5619449    2.1396465    2.1454009   0.40078735 -0.006395029 -0.00094532834 0.0026927653    1.4153594    1.4263923   0.79603024        0.075    1.3344871          1.8    0.3184121    5.6530516    2.7894142    33.337595 -0.0033330376  -0.20366218 -0.0041187845   0.17994458  -0.88905198    2.8608883 
  937000    6.2234069    1.2772589     4.946148  -0.23276402   0.85153019    1.0032411    0.7462187   -1.2345679            1    1.5347759    2.1004202     2.122321   0.38158649 -0.0014653282 0.0041738161 0.0041677445    1.3897365    1.3993651   0.79075847        0.075    1.3346278          1.8   0.31630339    5.6907389    2.7738187    33.337595 0.0058115364  -0.20307711 -0.0024741846   0.20801568 -0.076832691   0.36279864 
  938000    6.2118416    1.2738965    4.9379451  -0.23157973   0.84928848   0.99727215   0.74656519   -1.2345679            1    1.5130422    2.1014984    2.1089225   0.32870582 0.0027330631 -0.026810185  0.022997891    1.3679355    1.3784371   0.79758546        0.075    1.3335955          1.8   0.31903418    5.6420287    2.8022731    33.337595 0.00069134032  -0.19651931 0.0017736243   0.19898989    0.1494954    1.0273628 
  939000      6.22712    1.2820069    4.9451131  -0.22604742    0.8546956    1.0017739   0.75260127   -1.2345679            1    1.4858281    2.0907051    2.0852316   0.28154749 -0.0024679332 -0.0019750089 -0.0016086526    1.3395481    1.3506153   0.78823498        0.075    1.3359334          1.8   0.31529399    5.7089575    2.7910926    33.337595 -0.0010603377  -0.18150032 -0.0032392085   0.19445082   0.70178785   0.25540352 
  940000    6.2158953     1.277377    4.9385183  -0.22737904   0.85160891    1.0016188   0.74747863   -1.2345679            1     1.450049    2.0536437    2.0543286   0.24217476 0.0019359269 -0.024665065  0.016093553    1.3047648    1.3148572   0.78946564        0.075    1.3339994          1.8   0.31578626    5.7000581    2.7864213    33.337595 -0.0040725207  -0.17911226   0.01104439     0.193027   0.48235809   -0.3160999 
  941000    6.2081213    1.2781885    4.9299329  -0.23161385    0.8521499   0.99928148   0.75001845   -1.2345679            1    1.4771891    2.0816747    2.0579737   0.29191877 -0.002001627 -0.017664612 -0.0050273938    1.3314112    1.3423127   0.79119681        0.075    1.3345361          1.8   0.31647872    5.6875861    2.7891046    33.337595 -0.00069956837  -0.20808555 0.0087097698    0.2074127 -0.034223027 -0.077647645 
  942000    6.2108799    1.2770871    4.9337929  -0.22899515   0.85141562   0.99789583   0.74973647   -1.2345679            1    1.5188644    2.1072099    2.0964692   0.35291396   0.01451331 -0.028453399  0.021429937    1.3731413     1.384175   0.79032041        0.075    1.3375845          1.8   0.31612817    5.6938932    2.7908353    33.337595 -0.0032643801  -0.18634303 0.0012195439   0.18664542   0.84962334   0.80528047 
  943000    6.2309026    1.2893604    4.9415422  -0.22741936   0.85959805    1.0086474   0.75613523   -1.2345679            1    1.4974285    2.0861901    2.0695725   0.33652303   0.00156959  0.055033297 -0.012084415    1.3504617     1.361288   0.79588171        0.075    1.3358729          1.8   0.31835268    5.6541066    2.7941909    33.337595 0.00044997633  -0.20132818 -0.00090142165   0.18902873  -0.75597349   0.72140532 
  944000    6.2156826    1.2778825       4.9378  -0.22708963   0.85194593    1.0003046   0.74896236   -1.2345679            1    1.4897176    2.0831939     2.078866   0.30709289 -0.0020612585  0.026342916 -0.006518384     1.344145    1.3547031   0.79597436        0.075    1.3347052          1.8   0.31838974    5.6534484    2.7836208    33.337595 0.00095282734  -0.18403786 0.0039778827   0.20210005  -0.43723625  -0.42950097 
  945000    6.2236346    1.2858894    4.9377452  -0.22904081     0.857284   0.99950401   0.75856354   -1.2345679            1    1.4858946    2.0839432    2.0590178   0.31472295 -0.0048971769  -0.04386621 0.0094313499    1.3384559    1.3509882   0.79014888        0.075    1.3344761          1.8   0.31605955    5.6951292    2.7676357    33.337595 0.0031913884  -0.20542694 6.4745103e-05    0.1874412  0.057288545     1.104008 
  946000    6.2082607    1.2711667     4.937094  -0.22783162    0.8474686   0.99601832   0.74435213   -1.2345679            1    1.5717685      2.13329    2.1495221   0.43249341 -0.001919974 -0.062539558 0.0060625413    1.4270919    1.4373326    0.7953327        0.075    1.3338412          1.8   0.31813308    5.6580095    2.8146943    33.337595  0.001448688  -0.18149707 -0.0035944819   0.20803677  -0.29329348   0.90723268 
  947000     6.205545    1.2784779    4.9270671  -0.23658091   0.85234285   0.99831651   0.75101551   -1.2345679            1    1.5240084    2.1114447    2.0995763   0.36100414  0.010776317 -0.038900847  0.015800032    1.3780367    1.3892622   0.79695745        0.075    1.3359785          1.8   0.31878298    5.6464746    2.7856696    33.337595 -0.00066306599  -0.19624459 0.0022224992   0.18337959    1.4422324   0.83103038 
  948000    6.2251899    1.2851989     4.939991     -0.23391   0.85682365    1.0072132   0.75242998   -1.2345679            1    1.4726102    2.0547481    2.0762896   0.28679287 -0.008112106  0.017876786 -0.027080553    1.3263636    1.3366632   0.80002546        0.075     1.330815          1.8   0.32001019     5.624821    2.7848966    33.337595 -0.010942547   -0.2015289 -0.0018658521    0.2082789  -0.41851097  -0.16236968 
  949000    6.2168033    1.2869248    4.9298785  -0.23252571   0.85797426    1.0080107   0.75382585   -1.2345679            1    1.5468381    2.1197473    2.1204238   0.40034327  0.010155642 -0.025426097 -0.002631571    1.4003202    1.4107835   0.80182425        0.075    1.3278672          1.8    0.3207297    5.6122025    2.7972393    33.337595 0.00049778135  -0.19549277 0.0011660412   0.19937129  -0.17072873    1.1157406 
  950000    6.2362114     1.287791    4.9484204  -0.22535281   0.85855178    1.0140892   0.75058338   -1.2345679            1    1.5616104    2.1436545    2.1325212   0.40865547 -0.0085290867 -0.004365913 -0.029899609    1.4157227    1.4247354   0.79565015        0.075    1.3266984          1.8   0.31826006    5.6557521    2.8052678    33.337595 -0.00045096269  -0.20228097 -6.8249147e-06   0.19996701   0.02963218    2.9090694 
  951000    6.2230822    1.2845653    4.9385169   -0.2372129   0.85640127    1.0071877     0.751732   -1.2345679            1    1.4911477    2.0606026      2.09355   0.31929046 0.0093352466 -0.053020387  -0.01983631    1.3450367    1.3552042   0.79777365        0.075    1.3315477          1.8   0.31910946    5.6406977    2.7850717    33.337595 0.0036746927  -0.19321367 0.00077580596   0.19356296   0.28856786    2.7221908 
  952000    6.2201167    1.2757085    4.9444082  -0.23115758   0.85049656   0.99716941   0.74868359   -1.2345679            1    1.5513827    2.1324989    2.1255048    0.3961443 0.0024277812 0.0063084184  0.024087405    1.4058642    1.4167914   0.79369143        0.075    1.3278211          1.8   0.31747657    5.6697097    2.7949542    33.337595 -0.00068630855  -0.17576111 -0.0057647885    0.1935806    0.7431023    1.0730224 
  953000    6.2227201    1.2767206    4.9459995  -0.22835088   0.85117129   0.99621714   0.75048819   -1.2345679            1    1.5573216    2.1380664    2.1268849   0.40701362 -0.00031449869  0.022121818 -0.011163215    1.4114524    1.4228588   0.79735469        0.075    1.3290195          1.8   0.31894188    5.6436615    2.8005565    33.337595 -0.0026885883  -0.20346221 -9.6833994e-05   0.18854297  -0.54046219    1.2376407 
  954000    6.2114354    1.2726792    4.9387562  -0.23287406   0.84847695   0.99416955   0.74734461   -1.2345679            1    1.4877818     2.067532    2.0853564   0.31045701 0.0045670949 0.0052835062 -0.0013531741    1.3425236    1.3535954   0.79588364        0.075    1.3284389          1.8   0.31835346    5.6540928    2.7728778    33.337595 0.0017923283  -0.19042542 0.0028303182   0.19944003   0.35511261   0.79712117 
  955000    6.2191591    1.2864435    4.9327156  -0.23839028   0.85765342    1.0112676    0.7510205   -1.2345679            1    1.4710231    2.0636001     2.069621   0.27984835  0.012789773 -0.010501527 -0.026632519    1.3250505    1.3345289    0.7970102        0.075    1.3329359          1.8   0.31880408    5.6461009    2.7795876    33.337595 0.00061561618  -0.19166991 0.0018144962   0.18162097  0.019936383   0.61519354 
  956000    6.2182932    1.2756216    4.9426716  -0.22956425    0.8504386    1.0003163   0.74640009   -1.2345679            1    1.4861049    2.0770116    2.0811339   0.30016912  0.002381989  0.006161298 -0.039407743    1.3410302    1.3510888   0.79499972        0.075    1.3278758          1.8   0.31799989    5.6603793    2.8055401    33.337595 -0.0019803166  -0.19094597 -0.0016635577   0.19734026   0.66425739    2.3154468 
  957000    6.2293907     1.283301    4.9460897  -0.22926287   0.85555837    1.0180285   0.74277558   -1.2345679            1    1.4397465    2.0392296     2.036808   0.24320199  0.012896093 -0.019424075  0.047879533    1.2953764    1.3023398   0.78646107        0.075    1.3313431          1.8   0.31458443    5.7218344    2.7724772    33.337595 -0.0023837883  -0.18850983 -0.0024562495   0.20592081   0.93756952    1.6944665 
  958000    6.2098817    1.2755177     4.934364  -0.22857343   0.85036932    1.0011451   0.74570713   -1.2345679            1    1.5026318     2.098851    2.1077718   0.30127255 0.0030775056 -0.015367999 -0.0033891953    1.3576918    1.3675038   0.79341029        0.075    1.3293359          1.8   0.31736412    5.6717187    2.8054799    33.337595 0.0004126569    -0.185526 -0.0053408548   0.19514782  -0.32629776   0.56480322 
  959000    6.2104363    1.2814031    4.9290332   -0.2339391   0.85429305    1.0018462   0.75186895   -1.2345679            1    1.5359238    2.1304592    2.1160494   0.36126288 0.0046417978  0.023219221  0.025100833    1.3897862    1.4007013   0.78824493        0.075    1.3265084          1.8   0.31529797    5.7088855    2.7805261    33.337595 0.00027477908  -0.18176587 -0.0066511051   0.18473302   -0.2040162    2.7031411 
  960000    6.2179364    1.2815486    4.9363878  -0.23280053   0.85439006    1.0005391     0.752941   -1.2345679            1    1.5290992    2.0952258    2.1142088   0.37786289 -0.006056725 0.0054486187 0.0062354884    1.3827532     1.394053   0.79563633        0.075    1.3291164          1.8   0.31825453    5.6558503    2.8050655    33.337595 -0.0017339952  -0.18603358 -0.0056331558   0.18333474 -0.055440751    2.3317996 
  961000    6.2212649    1.2802377    4.9410272  -0.22832718   0.85351611   0.99947971   0.75219581   -1.2345679            1    1.5158069    2.1000929    2.1041562    0.3431714 0.0059379692 -0.0097859273 -0.010431787    1.3696057    1.3809037   0.78947164        0.075    1.3311396          1.8   0.31578866    5.7000147    2.7839818    33.337595 -0.0012344123  -0.18896653 0.0014261935   0.18362184  -0.40769015    1.2832021 
  962000    6.2078712    1.2795299    4.9283412  -0.23211473   0.85304423   0.99835648   0.75217623   -1.2345679            1    1.5190756    2.1089479    2.1116057   0.33667324 -0.0061953316 -0.002031775 -0.00019004415    1.3728783    1.3843241   0.79251876        0.075    1.3287929          1.8   0.31700751     5.678099      2.79418    33.337595 -0.0064792968  -0.18314471 -0.0055127525   0.18182161  -0.20207163  0.095229599 
  963000    6.2027179    1.2639056    4.9388123  -0.22735984   0.84262769   0.98999114   0.74033477   -1.2345679            1    1.4737739    2.0846246    2.0626541   0.27404309 -0.00094869708  0.063211416 0.0080833662    1.3298782    1.3401515   0.79542444        0.075    1.3313343          1.8   0.31816977     5.657357    2.7881262    33.337595 -0.0037454123  -0.18725549 -0.0017985235    0.2063053 -0.059288316    1.3996854 
  964000    6.2145994    1.2819616    4.9326378   -0.2295867   0.85466537    1.0002936   0.75357802   -1.2345679            1    1.5045806     2.086869     2.106083   0.32078984 0.0090210087 -0.0035492913 -0.00063602938    1.3581108    1.3695676   0.79884664        0.075     1.329214          1.8   0.31953865    5.6331213    2.8141098    33.337595 0.00079656852  -0.19522243 0.0024007064   0.19280368  0.093416943    1.8110873 
